
     Program PWSCF v.7.5 starts on 22Sep2026 at 19:42:29 

     This program is part of the open-source Quantum ESPRESSO suite
     for quantum simulation of materials; please cite
         "P. Giannozzi et al., J. Phys.:Condens. Matter 21 395502 (2009);
         "P. Giannozzi et al., J. Phys.:Condens. Matter 29 465901 (2017);
         "P. Giannozzi et al., J. Chem. Phys. 152 154105 (2020);
          URL http://www.quantum-espresso.org", 
     in publications or presentations arising from this work. More details at
     http://www.quantum-espresso.org/quote

     Parallel version (MPI & OpenMP), running on       6 processor cores
     Number of MPI processes:                 6
     Threads/MPI process:                     1

     MPI processes distributed on     1 nodes
     1721 MiB available memory on the printing compute node when the environment starts

     Reading input from pw.in

     Current dimensions of program PWSCF are:
     Max number of different atomic species (ntypx) = 10
     Max number of k-points (npk) =  40000
     Max angular momentum in pseudopotentials (lmaxx) =  4
     file Hg.pbe-spn-rrkjus_psl.1.0.0.UPF: wavefunction(s)  5P renormalized
     file Te.pbe-n-rrkjus_psl.1.0.0.UPF: wavefunction(s)  5S renormalized
     Message from routine setup:
     using ibrav=0 with symmetry is DISCOURAGED, use correct ibrav instead

     R & G space division:  proc/nbgrp/npool/nimage =       6
     Subspace diagonalization in iterative solution of the eigenvalue problem:
     a serial algorithm will be used


     Parallelization info
     --------------------
     sticks:   dense  smooth     PW     G-vecs:    dense   smooth      PW
     Min         513     342     97                18794    10205    1550
     Max         514     343     98                18796    10209    1553
     Sum        3079    2053    583               112771    61239    9305

     Using Slab Decomposition



     bravais-lattice index     =            0
     lattice parameter (alat)  =       8.6227  a.u.
     unit-cell volume          =     453.3375 (a.u.)^3
     number of atoms/cell      =            2
     number of atomic types    =            2
     number of electrons       =        26.00
     number of Kohn-Sham states=           13
     kinetic-energy cutoff     =     100.0000  Ry
     charge density cutoff     =     600.0000  Ry
     scf convergence threshold =      1.0E-10
     mixing beta               =       0.3000
     number of iterations used =            8  plain     mixing
     Exchange-correlation= PBE
                           (   1   4   3   4   0   0   0)

     celldm(1)=   8.622745  celldm(2)=   0.000000  celldm(3)=   0.000000
     celldm(4)=   0.000000  celldm(5)=   0.000000  celldm(6)=   0.000000

     crystal axes: (cart. coord. in units of alat)
               a(1) = (   0.000000   0.707107   0.707107 )  
               a(2) = (   0.707107   0.000000   0.707107 )  
               a(3) = (   0.707107   0.707107   0.000000 )  

     reciprocal axes: (cart. coord. in units 2 pi/alat)
               b(1) = ( -0.707107  0.707107  0.707107 )  
               b(2) = (  0.707107 -0.707107  0.707107 )  
               b(3) = (  0.707107  0.707107 -0.707107 )  


     PseudoPot. # 1 for Hg read from file:
     /home/User/opencode_workspace/DFT/pseudopotentials/Hg.pbe-spn-rrkjus_psl.1.0.0.UPF
     MD5 check sum: f568566075d917e14d67c96ef6763253
     Pseudo is Ultrasoft + core correction, Zval = 20.0
     Generated using &quot;atomic&quot; code by A. Dal Corso  v.6.3
     Using radial grid of 1279 points,  6 beta functions with: 
                l(1) =   0
                l(2) =   0
                l(3) =   1
                l(4) =   1
                l(5) =   2
                l(6) =   2
     Q(r) pseudized with 0 coefficients 


     PseudoPot. # 2 for Te read from file:
     /home/User/opencode_workspace/DFT/pseudopotentials/Te.pbe-n-rrkjus_psl.1.0.0.UPF
     MD5 check sum: 203a1e86ef55f0cd9de2762a27c58f54
     Pseudo is Ultrasoft + core correction, Zval =  6.0
     Generated using &quot;atomic&quot; code by A. Dal Corso  v.6.3
     Using radial grid of 1245 points,  6 beta functions with: 
                l(1) =   0
                l(2) =   0
                l(3) =   1
                l(4) =   1
                l(5) =   2
                l(6) =   2
     Q(r) pseudized with 0 coefficients 


     atomic species   valence    mass     pseudopotential
     Hg               20.00   200.59200     Hg( 1.00)
     Te                6.00   127.60000     Te( 1.00)

     24 Sym. Ops. (no inversion) found


                                    s                        frac. trans.

      isym =  1     identity                                     

 cryst.   s( 1) = (     1          0          0      )
                  (     0          1          0      )
                  (     0          0          1      )

 cart.    s( 1) = (  1.0000000  0.0000000  0.0000000 )
                  (  0.0000000  1.0000000  0.0000000 )
                  (  0.0000000  0.0000000  1.0000000 )


      isym =  2     180 deg rotation - cart. axis [0,0,1]        

 cryst.   s( 2) = (     0          1         -1      )
                  (     1          0         -1      )
                  (     0          0         -1      )

 cart.    s( 2) = ( -1.0000000  0.0000000  0.0000000 )
                  (  0.0000000 -1.0000000  0.0000000 )
                  (  0.0000000  0.0000000  1.0000000 )


      isym =  3     180 deg rotation - cart. axis [0,1,0]        

 cryst.   s( 3) = (     0         -1          1      )
                  (     0         -1          0      )
                  (     1         -1          0      )

 cart.    s( 3) = ( -1.0000000  0.0000000  0.0000000 )
                  (  0.0000000  1.0000000  0.0000000 )
                  (  0.0000000  0.0000000 -1.0000000 )


      isym =  4     180 deg rotation - cart. axis [1,0,0]        

 cryst.   s( 4) = (    -1          0          0      )
                  (    -1          0          1      )
                  (    -1          1          0      )

 cart.    s( 4) = (  1.0000000  0.0000000  0.0000000 )
                  (  0.0000000 -1.0000000  0.0000000 )
                  (  0.0000000  0.0000000 -1.0000000 )


      isym =  5     120 deg rotation - cart. axis [-1,-1,-1]     

 cryst.   s( 5) = (     0          0          1      )
                  (     1          0          0      )
                  (     0          1          0      )

 cart.    s( 5) = (  0.0000000  1.0000000  0.0000000 )
                  (  0.0000000  0.0000000  1.0000000 )
                  (  1.0000000  0.0000000  0.0000000 )


      isym =  6     120 deg rotation - cart. axis [-1,1,1]       

 cryst.   s( 6) = (     1         -1          0      )
                  (     0         -1          1      )
                  (     0         -1          0      )

 cart.    s( 6) = (  0.0000000 -1.0000000  0.0000000 )
                  (  0.0000000  0.0000000  1.0000000 )
                  ( -1.0000000  0.0000000  0.0000000 )


      isym =  7     120 deg rotation - cart. axis [1,1,-1]       

 cryst.   s( 7) = (    -1          1          0      )
                  (    -1          0          0      )
                  (    -1          0          1      )

 cart.    s( 7) = (  0.0000000  1.0000000  0.0000000 )
                  (  0.0000000  0.0000000 -1.0000000 )
                  ( -1.0000000  0.0000000  0.0000000 )


      isym =  8     120 deg rotation - cart. axis [1,-1,1]       

 cryst.   s( 8) = (     0          0         -1      )
                  (     0          1         -1      )
                  (     1          0         -1      )

 cart.    s( 8) = (  0.0000000 -1.0000000  0.0000000 )
                  (  0.0000000  0.0000000 -1.0000000 )
                  (  1.0000000  0.0000000  0.0000000 )


      isym =  9     120 deg rotation - cart. axis [1,1,1]        

 cryst.   s( 9) = (     0          1          0      )
                  (     0          0          1      )
                  (     1          0          0      )

 cart.    s( 9) = (  0.0000000  0.0000000  1.0000000 )
                  (  1.0000000  0.0000000  0.0000000 )
                  (  0.0000000  1.0000000  0.0000000 )


      isym = 10     120 deg rotation - cart. axis [-1,1,-1]      

 cryst.   s(10) = (    -1          0          1      )
                  (    -1          1          0      )
                  (    -1          0          0      )

 cart.    s(10) = (  0.0000000  0.0000000  1.0000000 )
                  ( -1.0000000  0.0000000  0.0000000 )
                  (  0.0000000 -1.0000000  0.0000000 )


      isym = 11     120 deg rotation - cart. axis [1,-1,-1]      

 cryst.   s(11) = (     1          0         -1      )
                  (     0          0         -1      )
                  (     0          1         -1      )

 cart.    s(11) = (  0.0000000  0.0000000 -1.0000000 )
                  ( -1.0000000  0.0000000  0.0000000 )
                  (  0.0000000  1.0000000  0.0000000 )


      isym = 12     120 deg rotation - cart. axis [-1,-1,1]      

 cryst.   s(12) = (     0         -1          0      )
                  (     1         -1          0      )
                  (     0         -1          1      )

 cart.    s(12) = (  0.0000000  0.0000000 -1.0000000 )
                  (  1.0000000  0.0000000  0.0000000 )
                  (  0.0000000 -1.0000000  0.0000000 )


      isym = 13     inv. 180 deg rotation - cart. axis [1,1,0]   

 cryst.   s(13) = (     1          0         -1      )
                  (     0          1         -1      )
                  (     0          0         -1      )

 cart.    s(13) = (  0.0000000 -1.0000000  0.0000000 )
                  ( -1.0000000  0.0000000  0.0000000 )
                  (  0.0000000  0.0000000  1.0000000 )


      isym = 14     inv. 180 deg rotation - cart. axis [1,-1,0]  

 cryst.   s(14) = (     0          1          0      )
                  (     1          0          0      )
                  (     0          0          1      )

 cart.    s(14) = (  0.0000000  1.0000000  0.0000000 )
                  (  1.0000000  0.0000000  0.0000000 )
                  (  0.0000000  0.0000000  1.0000000 )


      isym = 15     inv.  90 deg rotation - cart. axis [0,0,-1]  

 cryst.   s(15) = (     0         -1          0      )
                  (     0         -1          1      )
                  (     1         -1          0      )

 cart.    s(15) = (  0.0000000 -1.0000000  0.0000000 )
                  (  1.0000000  0.0000000  0.0000000 )
                  (  0.0000000  0.0000000 -1.0000000 )


      isym = 16     inv.  90 deg rotation - cart. axis [0,0,1]   

 cryst.   s(16) = (    -1          0          1      )
                  (    -1          0          0      )
                  (    -1          1          0      )

 cart.    s(16) = (  0.0000000  1.0000000  0.0000000 )
                  ( -1.0000000  0.0000000  0.0000000 )
                  (  0.0000000  0.0000000 -1.0000000 )


      isym = 17     inv. 180 deg rotation - cart. axis [1,0,1]   

 cryst.   s(17) = (     1         -1          0      )
                  (     0         -1          0      )
                  (     0         -1          1      )

 cart.    s(17) = (  0.0000000  0.0000000 -1.0000000 )
                  (  0.0000000  1.0000000  0.0000000 )
                  ( -1.0000000  0.0000000  0.0000000 )


      isym = 18     inv. 180 deg rotation - cart. axis [-1,0,1]  

 cryst.   s(18) = (     0          0          1      )
                  (     0          1          0      )
                  (     1          0          0      )

 cart.    s(18) = (  0.0000000  0.0000000  1.0000000 )
                  (  0.0000000  1.0000000  0.0000000 )
                  (  1.0000000  0.0000000  0.0000000 )


      isym = 19     inv.  90 deg rotation - cart. axis [0,1,0]   

 cryst.   s(19) = (     0          0         -1      )
                  (     1          0         -1      )
                  (     0          1         -1      )

 cart.    s(19) = (  0.0000000  0.0000000 -1.0000000 )
                  (  0.0000000 -1.0000000  0.0000000 )
                  (  1.0000000  0.0000000  0.0000000 )


      isym = 20     inv.  90 deg rotation - cart. axis [0,-1,0]  

 cryst.   s(20) = (    -1          1          0      )
                  (    -1          0          1      )
                  (    -1          0          0      )

 cart.    s(20) = (  0.0000000  0.0000000  1.0000000 )
                  (  0.0000000 -1.0000000  0.0000000 )
                  ( -1.0000000  0.0000000  0.0000000 )


      isym = 21     inv. 180 deg rotation - cart. axis [0,1,1]   

 cryst.   s(21) = (    -1          0          0      )
                  (    -1          1          0      )
                  (    -1          0          1      )

 cart.    s(21) = (  1.0000000  0.0000000  0.0000000 )
                  (  0.0000000  0.0000000 -1.0000000 )
                  (  0.0000000 -1.0000000  0.0000000 )


      isym = 22     inv. 180 deg rotation - cart. axis [0,1,-1]  

 cryst.   s(22) = (     1          0          0      )
                  (     0          0          1      )
                  (     0          1          0      )

 cart.    s(22) = (  1.0000000  0.0000000  0.0000000 )
                  (  0.0000000  0.0000000  1.0000000 )
                  (  0.0000000  1.0000000  0.0000000 )


      isym = 23     inv.  90 deg rotation - cart. axis [-1,0,0]  

 cryst.   s(23) = (     0          1         -1      )
                  (     0          0         -1      )
                  (     1          0         -1      )

 cart.    s(23) = ( -1.0000000  0.0000000  0.0000000 )
                  (  0.0000000  0.0000000 -1.0000000 )
                  (  0.0000000  1.0000000  0.0000000 )


      isym = 24     inv.  90 deg rotation - cart. axis [1,0,0]   

 cryst.   s(24) = (     0         -1          1      )
                  (     1         -1          0      )
                  (     0         -1          0      )

 cart.    s(24) = ( -1.0000000  0.0000000  0.0000000 )
                  (  0.0000000  0.0000000  1.0000000 )
                  (  0.0000000 -1.0000000  0.0000000 )


   Cartesian axes

     site n.     atom                  positions (alat units)
         1        Hg     tau(   1) = (   0.0000000   0.0000000   0.0000000  )
         2        Te     tau(   2) = (   0.3535534   0.3535534   0.3535534  )

   Crystallographic axes

     site n.     atom                  positions (cryst. coord.)
         1        Hg     tau(   1) = (  0.0000000  0.0000000  0.0000000  )
         2        Te     tau(   2) = (  0.2500000  0.2500000  0.2500000  )

     number of k points=    29
                       cart. coord. in units 2pi/alat
        k(    1) = (   0.0000000   0.0000000   0.0000000), wk =   0.0039062
        k(    2) = (   0.0883883   0.0883883  -0.0883883), wk =   0.0312500
        k(    3) = (   0.1767767   0.1767767  -0.1767767), wk =   0.0312500
        k(    4) = (   0.2651650   0.2651650  -0.2651650), wk =   0.0312500
        k(    5) = (  -0.3535534  -0.3535534   0.3535534), wk =   0.0156250
        k(    6) = (   0.1767767   0.0000000   0.0000000), wk =   0.0234375
        k(    7) = (   0.2651650   0.0883883  -0.0883883), wk =   0.0937500
        k(    8) = (   0.3535534   0.1767767  -0.1767767), wk =   0.0937500
        k(    9) = (  -0.2651650  -0.4419417   0.4419417), wk =   0.0937500
        k(   10) = (  -0.1767767  -0.3535534   0.3535534), wk =   0.0937500
        k(   11) = (  -0.0883883  -0.2651650   0.2651650), wk =   0.0937500
        k(   12) = (   0.0000000  -0.1767767   0.1767767), wk =   0.0468750
        k(   13) = (   0.3535534   0.0000000   0.0000000), wk =   0.0234375
        k(   14) = (   0.4419417   0.0883883  -0.0883883), wk =   0.0937500
        k(   15) = (  -0.1767767  -0.5303301   0.5303301), wk =   0.0937500
        k(   16) = (  -0.0883883  -0.4419417   0.4419417), wk =   0.0937500
        k(   17) = (   0.0000000  -0.3535534   0.3535534), wk =   0.0468750
        k(   18) = (   0.5303301   0.0000000   0.0000000), wk =   0.0234375
        k(   19) = (  -0.0883883  -0.6187184   0.6187184), wk =   0.0937500
        k(   20) = (   0.0000000  -0.5303301   0.5303301), wk =   0.0468750
        k(   21) = (  -0.7071068   0.0000000   0.0000000), wk =   0.0117188
        k(   22) = (   0.3535534   0.1767767   0.0000000), wk =   0.0937500
        k(   23) = (  -0.2651650  -0.4419417   0.6187184), wk =   0.1875000
        k(   24) = (  -0.1767767  -0.3535534   0.5303301), wk =   0.0937500
        k(   25) = (  -0.1767767  -0.5303301   0.7071068), wk =   0.0937500
        k(   26) = (  -0.0883883  -0.4419417   0.6187184), wk =   0.1875000
        k(   27) = (   0.0000000  -0.3535534   0.5303301), wk =   0.0937500
        k(   28) = (  -0.7071068   0.1767767   0.0000000), wk =   0.0468750
        k(   29) = (  -0.7071068   0.3535534   0.0000000), wk =   0.0234375

                       cryst. coord.
        k(    1) = (   0.0000000   0.0000000   0.0000000), wk =   0.0039062
        k(    2) = (   0.0000000   0.0000000   0.1250000), wk =   0.0312500
        k(    3) = (   0.0000000   0.0000000   0.2500000), wk =   0.0312500
        k(    4) = (   0.0000000   0.0000000   0.3750000), wk =   0.0312500
        k(    5) = (   0.0000000   0.0000000  -0.5000000), wk =   0.0156250
        k(    6) = (   0.0000000   0.1250000   0.1250000), wk =   0.0234375
        k(    7) = (   0.0000000   0.1250000   0.2500000), wk =   0.0937500
        k(    8) = (   0.0000000   0.1250000   0.3750000), wk =   0.0937500
        k(    9) = (   0.0000000   0.1250000  -0.5000000), wk =   0.0937500
        k(   10) = (   0.0000000   0.1250000  -0.3750000), wk =   0.0937500
        k(   11) = (   0.0000000   0.1250000  -0.2500000), wk =   0.0937500
        k(   12) = (   0.0000000   0.1250000  -0.1250000), wk =   0.0468750
        k(   13) = (   0.0000000   0.2500000   0.2500000), wk =   0.0234375
        k(   14) = (   0.0000000   0.2500000   0.3750000), wk =   0.0937500
        k(   15) = (   0.0000000   0.2500000  -0.5000000), wk =   0.0937500
        k(   16) = (   0.0000000   0.2500000  -0.3750000), wk =   0.0937500
        k(   17) = (   0.0000000   0.2500000  -0.2500000), wk =   0.0468750
        k(   18) = (   0.0000000   0.3750000   0.3750000), wk =   0.0234375
        k(   19) = (   0.0000000   0.3750000  -0.5000000), wk =   0.0937500
        k(   20) = (   0.0000000   0.3750000  -0.3750000), wk =   0.0468750
        k(   21) = (   0.0000000  -0.5000000  -0.5000000), wk =   0.0117188
        k(   22) = (   0.1250000   0.2500000   0.3750000), wk =   0.0937500
        k(   23) = (   0.1250000   0.2500000  -0.5000000), wk =   0.1875000
        k(   24) = (   0.1250000   0.2500000  -0.3750000), wk =   0.0937500
        k(   25) = (   0.1250000   0.3750000  -0.5000000), wk =   0.0937500
        k(   26) = (   0.1250000   0.3750000  -0.3750000), wk =   0.1875000
        k(   27) = (   0.1250000   0.3750000  -0.2500000), wk =   0.0937500
        k(   28) = (   0.1250000  -0.5000000  -0.3750000), wk =   0.0468750
        k(   29) = (   0.2500000  -0.5000000  -0.2500000), wk =   0.0234375

     Dense  grid:   112771 G-vectors     FFT dimensions: (  72,  72,  72)

     Smooth grid:    61239 G-vectors     FFT dimensions: (  60,  60,  60)

     Dynamical RAM for                 wfc:       0.25 MB

     Dynamical RAM for     wfc (w. buffer):       7.59 MB

     Dynamical RAM for           str. fact:       0.57 MB

     Dynamical RAM for           local pot:       0.00 MB

     Dynamical RAM for          nlocal pot:       0.70 MB

     Dynamical RAM for                qrad:       3.93 MB

     Dynamical RAM for          rho,v,vnew:       2.28 MB

     Dynamical RAM for               rhoin:       0.76 MB

     Dynamical RAM for            rho*nmix:       4.59 MB

     Dynamical RAM for           G-vectors:       1.15 MB

     Dynamical RAM for          h,s,v(r/c):       0.03 MB

     Dynamical RAM for          <psi|beta>:       0.01 MB

     Dynamical RAM for                 psi:       0.51 MB

     Dynamical RAM for                hpsi:       0.51 MB

     Dynamical RAM for                spsi:       0.51 MB

     Dynamical RAM for      wfcinit/wfcrot:       0.51 MB

     Dynamical RAM for           addusdens:      53.63 MB

     Estimated static dynamical RAM per process >      20.22 MB

     Estimated max dynamical RAM per process >      78.44 MB

     Estimated total dynamical RAM >     470.65 MB

     Initial potential from superposition of free atoms

     starting charge      25.9997, renormalised to      26.0000
     Starting wfcs are   14 randomized atomic wfcs

     total cpu time spent up to now is        1.6 secs

     per-process dynamical memory:    32.3 Mb

     Self-consistent Calculation

     iteration #  1     ecut=   100.00 Ry     beta= 0.30
     Davidson diagonalization with overlap

---- Real-time Memory Report at c_bands before calling an iterative solver
           117 MiB given to the printing process from OS
            31 MiB allocation reported by mallinfo(arena+hblkhd)
          1247 MiB available memory on the node where the printing process lives
------------------
     ethr =  1.00E-02,  avg # of iterations =  2.0

     Threshold (ethr) on eigenvalues was too large:
     Diagonalizing with lowered threshold

     Davidson diagonalization with overlap

---- Real-time Memory Report at c_bands before calling an iterative solver
           126 MiB given to the printing process from OS
            35 MiB allocation reported by mallinfo(arena+hblkhd)
          1209 MiB available memory on the node where the printing process lives
------------------
     ethr =  2.05E-04,  avg # of iterations =  3.9

     total cpu time spent up to now is        4.6 secs

     total energy              =    -346.19882690 Ry
     estimated scf accuracy    <       0.05278956 Ry

     iteration #  2     ecut=   100.00 Ry     beta= 0.30
     Davidson diagonalization with overlap

---- Real-time Memory Report at c_bands before calling an iterative solver
           128 MiB given to the printing process from OS
            37 MiB allocation reported by mallinfo(arena+hblkhd)
          1207 MiB available memory on the node where the printing process lives
------------------
     ethr =  2.03E-04,  avg # of iterations =  2.3

     total cpu time spent up to now is        6.0 secs

     total energy              =    -346.20426668 Ry
     estimated scf accuracy    <       0.00615862 Ry

     iteration #  3     ecut=   100.00 Ry     beta= 0.30
     Davidson diagonalization with overlap

---- Real-time Memory Report at c_bands before calling an iterative solver
           129 MiB given to the printing process from OS
            37 MiB allocation reported by mallinfo(arena+hblkhd)
          1196 MiB available memory on the node where the printing process lives
------------------
     ethr =  2.37E-05,  avg # of iterations =  2.6

     total cpu time spent up to now is        7.4 secs

     total energy              =    -346.20524456 Ry
     estimated scf accuracy    <       0.00136879 Ry

     iteration #  4     ecut=   100.00 Ry     beta= 0.30
     Davidson diagonalization with overlap

---- Real-time Memory Report at c_bands before calling an iterative solver
           129 MiB given to the printing process from OS
            38 MiB allocation reported by mallinfo(arena+hblkhd)
          1199 MiB available memory on the node where the printing process lives
------------------
     ethr =  5.26E-06,  avg # of iterations =  2.0

     total cpu time spent up to now is        8.6 secs

     total energy              =    -346.20536623 Ry
     estimated scf accuracy    <       0.00008178 Ry

     iteration #  5     ecut=   100.00 Ry     beta= 0.30
     Davidson diagonalization with overlap

---- Real-time Memory Report at c_bands before calling an iterative solver
           129 MiB given to the printing process from OS
            38 MiB allocation reported by mallinfo(arena+hblkhd)
          1228 MiB available memory on the node where the printing process lives
------------------
     ethr =  3.15E-07,  avg # of iterations =  3.7

     total cpu time spent up to now is       10.3 secs

     total energy              =    -346.20538190 Ry
     estimated scf accuracy    <       0.00001205 Ry

     iteration #  6     ecut=   100.00 Ry     beta= 0.30
     Davidson diagonalization with overlap

---- Real-time Memory Report at c_bands before calling an iterative solver
           130 MiB given to the printing process from OS
            38 MiB allocation reported by mallinfo(arena+hblkhd)
          1204 MiB available memory on the node where the printing process lives
------------------
     ethr =  4.64E-08,  avg # of iterations =  3.8

     total cpu time spent up to now is       11.9 secs

     total energy              =    -346.20538506 Ry
     estimated scf accuracy    <       0.00000177 Ry

     iteration #  7     ecut=   100.00 Ry     beta= 0.30
     Davidson diagonalization with overlap

---- Real-time Memory Report at c_bands before calling an iterative solver
           130 MiB given to the printing process from OS
            39 MiB allocation reported by mallinfo(arena+hblkhd)
          1227 MiB available memory on the node where the printing process lives
------------------
     ethr =  6.82E-09,  avg # of iterations =  2.1

     total cpu time spent up to now is       13.6 secs

     total energy              =    -346.20538525 Ry
     estimated scf accuracy    <       0.00000100 Ry

     iteration #  8     ecut=   100.00 Ry     beta= 0.30
     Davidson diagonalization with overlap

---- Real-time Memory Report at c_bands before calling an iterative solver
           130 MiB given to the printing process from OS
            39 MiB allocation reported by mallinfo(arena+hblkhd)
          1232 MiB available memory on the node where the printing process lives
------------------
     ethr =  3.84E-09,  avg # of iterations =  2.2

     total cpu time spent up to now is       15.4 secs

     total energy              =    -346.20538549 Ry
     estimated scf accuracy    <       0.00000002 Ry

     iteration #  9     ecut=   100.00 Ry     beta= 0.30
     Davidson diagonalization with overlap

---- Real-time Memory Report at c_bands before calling an iterative solver
           131 MiB given to the printing process from OS
            39 MiB allocation reported by mallinfo(arena+hblkhd)
          1194 MiB available memory on the node where the printing process lives
------------------
     ethr =  8.51E-11,  avg # of iterations =  4.7

     total cpu time spent up to now is       17.3 secs

     total energy              =    -346.20538551 Ry
     estimated scf accuracy    <          4.7E-09 Ry

     iteration # 10     ecut=   100.00 Ry     beta= 0.30
     Davidson diagonalization with overlap

---- Real-time Memory Report at c_bands before calling an iterative solver
           131 MiB given to the printing process from OS
            40 MiB allocation reported by mallinfo(arena+hblkhd)
          1194 MiB available memory on the node where the printing process lives
------------------
     ethr =  1.82E-11,  avg # of iterations =  3.6

     total cpu time spent up to now is       19.1 secs

     total energy              =    -346.20538552 Ry
     estimated scf accuracy    <          1.3E-09 Ry

     iteration # 11     ecut=   100.00 Ry     beta= 0.30
     Davidson diagonalization with overlap

---- Real-time Memory Report at c_bands before calling an iterative solver
           131 MiB given to the printing process from OS
            40 MiB allocation reported by mallinfo(arena+hblkhd)
          1195 MiB available memory on the node where the printing process lives
------------------
     ethr =  4.95E-12,  avg # of iterations =  4.1

     total cpu time spent up to now is       21.1 secs

     total energy              =    -346.20538552 Ry
     estimated scf accuracy    <          2.6E-09 Ry

     iteration # 12     ecut=   100.00 Ry     beta= 0.30
     Davidson diagonalization with overlap

---- Real-time Memory Report at c_bands before calling an iterative solver
           131 MiB given to the printing process from OS
            40 MiB allocation reported by mallinfo(arena+hblkhd)
          1189 MiB available memory on the node where the printing process lives
------------------
     ethr =  4.95E-12,  avg # of iterations =  3.9

     total cpu time spent up to now is       22.9 secs

     End of self-consistent calculation

          k = 0.0000 0.0000 0.0000 (  7727 PWs)   bands (ev):

  -107.6615 -55.9924 -55.9924 -55.9924  -4.5631   0.0895   0.0895   0.0895
     0.6259   0.6259   6.7450   7.4608   7.4608

     occupation numbers 
     1.0000   1.0000   1.0000   1.0000   1.0000   1.0000   1.0000   1.0000
     1.0000   1.0000   1.0000   1.0000   1.0000

          k = 0.0884 0.0884-0.0884 (  7670 PWs)   bands (ev):

  -107.6615 -55.9924 -55.9924 -55.9924  -4.4849   0.1113   0.1113   0.1184
     0.6239   0.6239   5.6129   7.2842   7.2842

     occupation numbers 
     1.0000   1.0000   1.0000   1.0000   1.0000   1.0000   1.0000   1.0000
     1.0000   1.0000   1.0000   1.0000   1.0000

          k = 0.1768 0.1768-0.1768 (  7654 PWs)   bands (ev):

  -107.6615 -55.9925 -55.9924 -55.9924  -4.2870   0.1600   0.1600   0.2480
     0.6256   0.6256   4.0795   6.9122   6.9122

     occupation numbers 
     1.0000   1.0000   1.0000   1.0000   1.0000   1.0000   1.0000   1.0000
     1.0000   1.0000   1.0000   1.0000   1.0000

          k = 0.2652 0.2652-0.2652 (  7639 PWs)   bands (ev):

  -107.6615 -55.9925 -55.9924 -55.9924  -4.0749   0.2006   0.2006   0.5723
     0.6393   0.6393   2.6981   6.5893   6.5893

     occupation numbers 
     1.0000   1.0000   1.0000   1.0000   1.0000   1.0000   1.0000   1.0000
     1.0000   1.0000   1.0000   1.0000   1.0000

          k =-0.3536-0.3536 0.3536 (  7648 PWs)   bands (ev):

  -107.6615 -55.9926 -55.9924 -55.9924  -3.9828   0.2143   0.2143   0.6494
     0.6494   0.9372   1.9401   6.4651   6.4651

     occupation numbers 
     1.0000   1.0000   1.0000   1.0000   1.0000   1.0000   1.0000   1.0000
     1.0000   1.0000   1.0000   1.0000   1.0000

          k = 0.1768 0.0000 0.0000 (  7655 PWs)   bands (ev):

  -107.6615 -55.9924 -55.9924 -55.9924  -4.4587   0.1002   0.1323   0.1323
     0.6105   0.6357   5.5281   6.9976   6.9976

     occupation numbers 
     1.0000   1.0000   1.0000   1.0000   1.0000   1.0000   1.0000   1.0000
     1.0000   1.0000   1.0000   1.0000   1.0000

          k = 0.2652 0.0884-0.0884 (  7654 PWs)   bands (ev):

  -107.6615 -55.9924 -55.9924 -55.9924  -4.2998   0.1410   0.1842   0.2117
     0.6043   0.6443   4.4151   6.5797   6.5873

     occupation numbers 
     1.0000   1.0000   1.0000   1.0000   1.0000   1.0000   1.0000   1.0000
     1.0000   1.0000   1.0000   1.0000   1.0000

          k = 0.3536 0.1768-0.1768 (  7656 PWs)   bands (ev):

  -107.6615 -55.9925 -55.9924 -55.9924  -4.0899   0.1950   0.2304   0.4299
     0.6409   0.6536   3.0992   6.0993   6.2929

     occupation numbers 
     1.0000   1.0000   1.0000   1.0000   1.0000   1.0000   1.0000   1.0000
     1.0000   1.0000   1.0000   1.0000   1.0000

          k =-0.2652-0.4419 0.4419 (  7650 PWs)   bands (ev):

  -107.6615 -55.9926 -55.9924 -55.9924  -3.9548   0.2233   0.2464   0.6055
     0.6523   0.9073   2.1064   5.7476   6.2416

     occupation numbers 
     1.0000   1.0000   1.0000   1.0000   1.0000   1.0000   1.0000   1.0000
     1.0000   1.0000   1.0000   1.0000   1.0000

          k =-0.1768-0.3536 0.3536 (  7653 PWs)   bands (ev):

  -107.6615 -55.9926 -55.9924 -55.9924  -3.9858   0.2267   0.2312   0.6143
     0.6300   0.7814   2.3670   5.6523   6.4550

     occupation numbers 
     1.0000   1.0000   1.0000   1.0000   1.0000   1.0000   1.0000   1.0000
     1.0000   1.0000   1.0000   1.0000   1.0000

          k =-0.0884-0.2652 0.2652 (  7661 PWs)   bands (ev):

  -107.6615 -55.9925 -55.9924 -55.9924  -4.1611   0.1880   0.2037   0.3521
     0.6092   0.6550   3.5201   5.8852   6.8448

     occupation numbers 
     1.0000   1.0000   1.0000   1.0000   1.0000   1.0000   1.0000   1.0000
     1.0000   1.0000   1.0000   1.0000   1.0000

          k = 0.0000-0.1768 0.1768 (  7669 PWs)   bands (ev):

  -107.6615 -55.9924 -55.9924 -55.9924  -4.3663   0.1360   0.1519   0.1761
     0.6104   0.6362   4.7653   6.5030   7.2102

     occupation numbers 
     1.0000   1.0000   1.0000   1.0000   1.0000   1.0000   1.0000   1.0000
     1.0000   1.0000   1.0000   1.0000   1.0000

          k = 0.3536 0.0000 0.0000 (  7683 PWs)   bands (ev):

  -107.6615 -55.9925 -55.9924 -55.9924  -4.1925   0.1593   0.2455   0.2455
     0.5986   0.6595   4.0726   6.1335   6.1335

     occupation numbers 
     1.0000   1.0000   1.0000   1.0000   1.0000   1.0000   1.0000   1.0000
     1.0000   1.0000   1.0000   1.0000   1.0000

          k = 0.4419 0.0884-0.0884 (  7651 PWs)   bands (ev):

  -107.6615 -55.9925 -55.9924 -55.9924  -4.0208   0.2188   0.3038   0.3530
     0.6642   0.6694   3.1997   5.5913   5.8112

     occupation numbers 
     1.0000   1.0000   1.0000   1.0000   1.0000   1.0000   1.0000   1.0000
     1.0000   1.0000   1.0000   1.0000   1.0000

          k =-0.1768-0.5303 0.5303 (  7648 PWs)   bands (ev):

  -107.6615 -55.9926 -55.9924 -55.9924  -3.8848   0.2536   0.3259   0.4990
     0.6626   0.9168   2.3293   5.0066   5.7618

     occupation numbers 
     1.0000   1.0000   1.0000   1.0000   1.0000   1.0000   1.0000   1.0000
     1.0000   1.0000   1.0000   1.0000   1.0000

          k =-0.0884-0.4419 0.4419 (  7641 PWs)   bands (ev):

  -107.6615 -55.9926 -55.9924 -55.9924  -3.8715   0.2593   0.3056   0.5862
     0.6334   0.9938   2.1613   4.7091   6.0076

     occupation numbers 
     1.0000   1.0000   1.0000   1.0000   1.0000   1.0000   1.0000   1.0000
     1.0000   1.0000   1.0000   1.0000   1.0000

          k = 0.0000-0.3536 0.3536 (  7656 PWs)   bands (ev):

  -107.6615 -55.9925 -55.9924 -55.9924  -3.9888   0.2457   0.2500   0.5352
     0.6089   0.7201   2.8419   4.9520   6.4451

     occupation numbers 
     1.0000   1.0000   1.0000   1.0000   1.0000   1.0000   1.0000   1.0000
     1.0000   1.0000   1.0000   1.0000   1.0000

          k = 0.5303 0.0000 0.0000 (  7676 PWs)   bands (ev):

  -107.6615 -55.9926 -55.9925 -55.9925  -3.9046   0.2463   0.3763   0.3763
     0.6834   0.7581   2.7563   5.4343   5.4343

     occupation numbers 
     1.0000   1.0000   1.0000   1.0000   1.0000   1.0000   1.0000   1.0000
     1.0000   1.0000   1.0000   1.0000   1.0000

          k =-0.0884-0.6187 0.6187 (  7665 PWs)   bands (ev):

  -107.6615 -55.9926 -55.9924 -55.9924  -3.8108   0.2747   0.4055   0.4352
     0.6812   1.0049   2.1920   4.9793   5.3358

     occupation numbers 
     1.0000   1.0000   1.0000   1.0000   1.0000   1.0000   1.0000   1.0000
     1.0000   1.0000   1.0000   1.0000   1.0000

          k = 0.0000-0.5303 0.5303 (  7642 PWs)   bands (ev):

  -107.6615 -55.9926 -55.9925 -55.9924  -3.7977   0.2814   0.3782   0.5132
     0.6556   1.1750   1.9675   4.5237   5.5589

     occupation numbers 
     1.0000   1.0000   1.0000   1.0000   1.0000   1.0000   1.0000   1.0000
     1.0000   1.0000   1.0000   1.0000   1.0000

          k =-0.7071 0.0000 0.0000 (  7640 PWs)   bands (ev):

  -107.6615 -55.9926 -55.9924 -55.9924  -3.7788   0.2655   0.4370   0.4370
     0.6934   1.0880   1.9993   5.1695   5.1695

     occupation numbers 
     1.0000   1.0000   1.0000   1.0000   1.0000   1.0000   1.0000   1.0000
     1.0000   1.0000   1.0000   1.0000   1.0000

          k = 0.3536 0.1768 0.0000 (  7653 PWs)   bands (ev):

  -107.6615 -55.9925 -55.9924 -55.9924  -4.1334   0.1909   0.2390   0.3211
     0.6129   0.6614   3.6197   5.6683   6.4309

     occupation numbers 
     1.0000   1.0000   1.0000   1.0000   1.0000   1.0000   1.0000   1.0000
     1.0000   1.0000   1.0000   1.0000   1.0000

          k =-0.2652-0.4419 0.6187 (  7656 PWs)   bands (ev):

  -107.6615 -55.9926 -55.9924 -55.9924  -3.9584   0.2436   0.2738   0.5104
     0.6464   0.7661   2.6550   5.1446   6.0802

     occupation numbers 
     1.0000   1.0000   1.0000   1.0000   1.0000   1.0000   1.0000   1.0000
     1.0000   1.0000   1.0000   1.0000   1.0000

          k =-0.1768-0.3536 0.5303 (  7652 PWs)   bands (ev):

  -107.6615 -55.9926 -55.9924 -55.9924  -3.8835   0.2566   0.2895   0.5899
     0.6343   1.0176   2.0752   5.0028   5.9083

     occupation numbers 
     1.0000   1.0000   1.0000   1.0000   1.0000   1.0000   1.0000   1.0000
     1.0000   1.0000   1.0000   1.0000   1.0000

          k =-0.1768-0.5303 0.7071 (  7689 PWs)   bands (ev):

  -107.6615 -55.9926 -55.9925 -55.9924  -3.8861   0.2713   0.3372   0.4401
     0.6683   0.8386   2.5721   5.0815   5.4963

     occupation numbers 
     1.0000   1.0000   1.0000   1.0000   1.0000   1.0000   1.0000   1.0000
     1.0000   1.0000   1.0000   1.0000   1.0000

          k =-0.0884-0.4419 0.6187 (  7651 PWs)   bands (ev):

  -107.6615 -55.9926 -55.9925 -55.9924  -3.8109   0.2934   0.3518   0.5298
     0.6390   1.1211   2.0547   4.6728   5.3651

     occupation numbers 
     1.0000   1.0000   1.0000   1.0000   1.0000   1.0000   1.0000   1.0000
     1.0000   1.0000   1.0000   1.0000   1.0000

          k = 0.0000-0.3536 0.5303 (  7654 PWs)   bands (ev):

  -107.6615 -55.9926 -55.9925 -55.9924  -3.8418   0.2885   0.3189   0.5710
     0.6199   1.0218   2.1986   4.5887   5.6455

     occupation numbers 
     1.0000   1.0000   1.0000   1.0000   1.0000   1.0000   1.0000   1.0000
     1.0000   1.0000   1.0000   1.0000   1.0000

          k =-0.7071 0.1768 0.0000 (  7660 PWs)   bands (ev):

  -107.6615 -55.9926 -55.9925 -55.9924  -3.7795   0.2944   0.3971   0.4737
     0.6677   1.1748   1.9538   4.9630   5.0221

     occupation numbers 
     1.0000   1.0000   1.0000   1.0000   1.0000   1.0000   1.0000   1.0000
     1.0000   1.0000   1.0000   1.0000   1.0000

          k =-0.7071 0.3536 0.0000 (  7612 PWs)   bands (ev):

  -107.6615 -55.9925 -55.9924 -55.9924  -3.7802   0.3158   0.3638   0.5744
     0.5880   1.2581   1.9050   4.7730   4.8932

     occupation numbers 
     1.0000   1.0000   1.0000   1.0000   1.0000   1.0000   1.0000   1.0000
     1.0000   1.0000   1.0000   1.0000   1.0000

     highest occupied level (ev):     7.4608

!    total energy              =    -346.20538552 Ry
     estimated scf accuracy    <          1.1E-11 Ry

     The total energy is the sum of the following terms:
     one-electron contribution =    -226.97853102 Ry
     hartree contribution      =     116.20538381 Ry
     xc contribution           =     -55.72155020 Ry
     ewald contribution        =    -179.71068811 Ry

     convergence has been achieved in  12 iterations

     Writing all to output data dir /home/User/opencode_workspace/DFT/calculations/hgte/conv_scf_e100/out/pwscf.save/ :
     XML data file, charge density, pseudopotentials, collected wavefunctions

     init_run     :      1.24s CPU      1.39s WALL (       1 calls)
     electrons    :     18.15s CPU     21.27s WALL (       1 calls)

     Called by init_run:
     wfcinit      :      0.31s CPU      0.35s WALL (       1 calls)
     wfcinit:atom :      0.01s CPU      0.01s WALL (      29 calls)
     wfcinit:wfcr :      0.28s CPU      0.31s WALL (      29 calls)
     potinit      :      0.25s CPU      0.25s WALL (       1 calls)
     hinit0       :      0.45s CPU      0.46s WALL (       1 calls)

     Called by electrons:
     c_bands      :     12.68s CPU     13.87s WALL (      13 calls)
     sum_band     :      3.86s CPU      4.96s WALL (      13 calls)
     v_of_rho     :      0.35s CPU      0.42s WALL (      13 calls)
     v_h          :      0.02s CPU      0.02s WALL (      13 calls)
     v_xc         :      0.33s CPU      0.39s WALL (      13 calls)
     newd         :      1.28s CPU      2.14s WALL (      13 calls)
     mix_rho      :      0.04s CPU      0.04s WALL (      13 calls)

     Called by c_bands:
     init_us_2    :      0.30s CPU      0.32s WALL (     783 calls)
     cegterg      :     12.08s CPU     13.24s WALL (     377 calls)

     Called by sum_band:
     sum_band:wei :      0.00s CPU      0.00s WALL (      13 calls)
     sum_band:loo :      2.29s CPU      2.53s WALL (      13 calls)
     sum_band:buf :      0.01s CPU      0.01s WALL (     377 calls)
     sum_band:ini :      0.15s CPU      0.16s WALL (     377 calls)
     sum_band:cal :      0.17s CPU      0.18s WALL (     377 calls)
     sum_band:bec :      0.01s CPU      0.01s WALL (     377 calls)
     addusdens    :      1.35s CPU      2.21s WALL (      13 calls)
                                        0.00s GPU  (      13 calls)
     addusd:skk   :      0.00s CPU      0.00s WALL (      26 calls)
                                        0.00s GPU  (      26 calls)

     Called by *egterg:
     cdiaghg      :      0.29s CPU      0.31s WALL (    1537 calls)
     cegterg:over :      0.41s CPU      0.43s WALL (    1189 calls)
     cegterg:upda :      0.12s CPU      0.12s WALL (    1189 calls)
     cegterg:last :      0.22s CPU      0.23s WALL (     825 calls)
     h_psi        :     10.74s CPU     11.87s WALL (    1595 calls)
     s_psi        :      0.16s CPU      0.17s WALL (    1595 calls)
     g_psi        :      0.07s CPU      0.07s WALL (    1189 calls)

     Called by h_psi:
     h_psi:calbec :      0.45s CPU      0.49s WALL (    1595 calls)
     vloc_psi     :     10.05s CPU     11.12s WALL (    1595 calls)
                                        0.00s GPU  (    1595 calls)
     add_vuspsi   :      0.19s CPU      0.21s WALL (    1595 calls)

     General routines
     calbec       :      0.60s CPU      0.66s WALL (    1972 calls)
     fft          :      0.48s CPU      0.52s WALL (     168 calls)
     ffts         :      0.22s CPU      0.22s WALL (      26 calls)
     fftw         :     11.15s CPU     12.34s WALL (   32937 calls)
     interpolate  :      0.22s CPU      0.22s WALL (      13 calls)

     Parallel routines

     PWSCF        :     19.65s CPU     22.99s WALL


   This run was terminated on:  19:42:52  22Sep2026            

=------------------------------------------------------------------------------=
   JOB DONE.
=------------------------------------------------------------------------------=
