
     Program PWSCF v.7.5 starts on 22Sep2026 at 19: 2:42 

     This program is part of the open-source Quantum ESPRESSO suite
     for quantum simulation of materials; please cite
         "P. Giannozzi et al., J. Phys.:Condens. Matter 21 395502 (2009);
         "P. Giannozzi et al., J. Phys.:Condens. Matter 29 465901 (2017);
         "P. Giannozzi et al., J. Chem. Phys. 152 154105 (2020);
          URL http://www.quantum-espresso.org", 
     in publications or presentations arising from this work. More details at
     http://www.quantum-espresso.org/quote

     Parallel version (MPI & OpenMP), running on       6 processor cores
     Number of MPI processes:                 6
     Threads/MPI process:                     1

     MPI processes distributed on     1 nodes
     2941 MiB available memory on the printing compute node when the environment starts

     Reading input from pw.in

     Current dimensions of program PWSCF are:
     Max number of different atomic species (ntypx) = 10
     Max number of k-points (npk) =  40000
     Max angular momentum in pseudopotentials (lmaxx) =  4
     file Cd.pbe-n-rrkjus_psl.1.0.0.UPF: wavefunction(s)  4D renormalized
     file Te.pbe-n-rrkjus_psl.1.0.0.UPF: wavefunction(s)  5S renormalized
     Message from routine setup:
     using ibrav=0 with symmetry is DISCOURAGED, use correct ibrav instead

     R & G space division:  proc/nbgrp/npool/nimage =       6
     Subspace diagonalization in iterative solution of the eigenvalue problem:
     a serial algorithm will be used


     Parallelization info
     --------------------
     sticks:   dense  smooth     PW     G-vecs:    dense   smooth      PW
     Min         464     312     86                16256     8848    1331
     Max         466     314     87                16258     8849    1334
     Sum        2791    1879    517                97541    53089    7991

     Using Slab Decomposition



     bravais-lattice index     =            0
     lattice parameter (alat)  =       8.6615  a.u.
     unit-cell volume          =     459.4769 (a.u.)^3
     number of atoms/cell      =            2
     number of atomic types    =            2
     number of electrons       =        18.00
     number of Kohn-Sham states=            9
     kinetic-energy cutoff     =      90.0000  Ry
     charge density cutoff     =     540.0000  Ry
     scf convergence threshold =      1.0E-10
     mixing beta               =       0.3000
     number of iterations used =            8  plain     mixing
     Exchange-correlation= PBE
                           (   1   4   3   4   0   0   0)

     celldm(1)=   8.661496  celldm(2)=   0.000000  celldm(3)=   0.000000
     celldm(4)=   0.000000  celldm(5)=   0.000000  celldm(6)=   0.000000

     crystal axes: (cart. coord. in units of alat)
               a(1) = (   0.000000   0.707107   0.707107 )  
               a(2) = (   0.707107   0.000000   0.707107 )  
               a(3) = (   0.707107   0.707107   0.000000 )  

     reciprocal axes: (cart. coord. in units 2 pi/alat)
               b(1) = ( -0.707107  0.707107  0.707107 )  
               b(2) = (  0.707107 -0.707107  0.707107 )  
               b(3) = (  0.707107  0.707107 -0.707107 )  


     PseudoPot. # 1 for Cd read from file:
     /home/User/opencode_workspace/DFT/pseudopotentials/Cd.pbe-n-rrkjus_psl.1.0.0.UPF
     MD5 check sum: a744746c89d2344a134ead0d8ab94e7a
     Pseudo is Ultrasoft + core correction, Zval = 12.0
     Generated using &quot;atomic&quot; code by A. Dal Corso  v.6.3
     Using radial grid of 1239 points,  6 beta functions with: 
                l(1) =   0
                l(2) =   0
                l(3) =   1
                l(4) =   1
                l(5) =   2
                l(6) =   2
     Q(r) pseudized with 0 coefficients 


     PseudoPot. # 2 for Te read from file:
     /home/User/opencode_workspace/DFT/pseudopotentials/Te.pbe-n-rrkjus_psl.1.0.0.UPF
     MD5 check sum: 203a1e86ef55f0cd9de2762a27c58f54
     Pseudo is Ultrasoft + core correction, Zval =  6.0
     Generated using &quot;atomic&quot; code by A. Dal Corso  v.6.3
     Using radial grid of 1245 points,  6 beta functions with: 
                l(1) =   0
                l(2) =   0
                l(3) =   1
                l(4) =   1
                l(5) =   2
                l(6) =   2
     Q(r) pseudized with 0 coefficients 


     atomic species   valence    mass     pseudopotential
     Cd               12.00   112.41400     Cd( 1.00)
     Te                6.00   127.60000     Te( 1.00)

     24 Sym. Ops. (no inversion) found


                                    s                        frac. trans.

      isym =  1     identity                                     

 cryst.   s( 1) = (     1          0          0      )
                  (     0          1          0      )
                  (     0          0          1      )

 cart.    s( 1) = (  1.0000000  0.0000000  0.0000000 )
                  (  0.0000000  1.0000000  0.0000000 )
                  (  0.0000000  0.0000000  1.0000000 )


      isym =  2     180 deg rotation - cart. axis [0,0,1]        

 cryst.   s( 2) = (     0          1         -1      )
                  (     1          0         -1      )
                  (     0          0         -1      )

 cart.    s( 2) = ( -1.0000000  0.0000000  0.0000000 )
                  (  0.0000000 -1.0000000  0.0000000 )
                  (  0.0000000  0.0000000  1.0000000 )


      isym =  3     180 deg rotation - cart. axis [0,1,0]        

 cryst.   s( 3) = (     0         -1          1      )
                  (     0         -1          0      )
                  (     1         -1          0      )

 cart.    s( 3) = ( -1.0000000  0.0000000  0.0000000 )
                  (  0.0000000  1.0000000  0.0000000 )
                  (  0.0000000  0.0000000 -1.0000000 )


      isym =  4     180 deg rotation - cart. axis [1,0,0]        

 cryst.   s( 4) = (    -1          0          0      )
                  (    -1          0          1      )
                  (    -1          1          0      )

 cart.    s( 4) = (  1.0000000  0.0000000  0.0000000 )
                  (  0.0000000 -1.0000000  0.0000000 )
                  (  0.0000000  0.0000000 -1.0000000 )


      isym =  5     120 deg rotation - cart. axis [-1,-1,-1]     

 cryst.   s( 5) = (     0          0          1      )
                  (     1          0          0      )
                  (     0          1          0      )

 cart.    s( 5) = (  0.0000000  1.0000000  0.0000000 )
                  (  0.0000000  0.0000000  1.0000000 )
                  (  1.0000000  0.0000000  0.0000000 )


      isym =  6     120 deg rotation - cart. axis [-1,1,1]       

 cryst.   s( 6) = (     1         -1          0      )
                  (     0         -1          1      )
                  (     0         -1          0      )

 cart.    s( 6) = (  0.0000000 -1.0000000  0.0000000 )
                  (  0.0000000  0.0000000  1.0000000 )
                  ( -1.0000000  0.0000000  0.0000000 )


      isym =  7     120 deg rotation - cart. axis [1,1,-1]       

 cryst.   s( 7) = (    -1          1          0      )
                  (    -1          0          0      )
                  (    -1          0          1      )

 cart.    s( 7) = (  0.0000000  1.0000000  0.0000000 )
                  (  0.0000000  0.0000000 -1.0000000 )
                  ( -1.0000000  0.0000000  0.0000000 )


      isym =  8     120 deg rotation - cart. axis [1,-1,1]       

 cryst.   s( 8) = (     0          0         -1      )
                  (     0          1         -1      )
                  (     1          0         -1      )

 cart.    s( 8) = (  0.0000000 -1.0000000  0.0000000 )
                  (  0.0000000  0.0000000 -1.0000000 )
                  (  1.0000000  0.0000000  0.0000000 )


      isym =  9     120 deg rotation - cart. axis [1,1,1]        

 cryst.   s( 9) = (     0          1          0      )
                  (     0          0          1      )
                  (     1          0          0      )

 cart.    s( 9) = (  0.0000000  0.0000000  1.0000000 )
                  (  1.0000000  0.0000000  0.0000000 )
                  (  0.0000000  1.0000000  0.0000000 )


      isym = 10     120 deg rotation - cart. axis [-1,1,-1]      

 cryst.   s(10) = (    -1          0          1      )
                  (    -1          1          0      )
                  (    -1          0          0      )

 cart.    s(10) = (  0.0000000  0.0000000  1.0000000 )
                  ( -1.0000000  0.0000000  0.0000000 )
                  (  0.0000000 -1.0000000  0.0000000 )


      isym = 11     120 deg rotation - cart. axis [1,-1,-1]      

 cryst.   s(11) = (     1          0         -1      )
                  (     0          0         -1      )
                  (     0          1         -1      )

 cart.    s(11) = (  0.0000000  0.0000000 -1.0000000 )
                  ( -1.0000000  0.0000000  0.0000000 )
                  (  0.0000000  1.0000000  0.0000000 )


      isym = 12     120 deg rotation - cart. axis [-1,-1,1]      

 cryst.   s(12) = (     0         -1          0      )
                  (     1         -1          0      )
                  (     0         -1          1      )

 cart.    s(12) = (  0.0000000  0.0000000 -1.0000000 )
                  (  1.0000000  0.0000000  0.0000000 )
                  (  0.0000000 -1.0000000  0.0000000 )


      isym = 13     inv. 180 deg rotation - cart. axis [1,1,0]   

 cryst.   s(13) = (     1          0         -1      )
                  (     0          1         -1      )
                  (     0          0         -1      )

 cart.    s(13) = (  0.0000000 -1.0000000  0.0000000 )
                  ( -1.0000000  0.0000000  0.0000000 )
                  (  0.0000000  0.0000000  1.0000000 )


      isym = 14     inv. 180 deg rotation - cart. axis [1,-1,0]  

 cryst.   s(14) = (     0          1          0      )
                  (     1          0          0      )
                  (     0          0          1      )

 cart.    s(14) = (  0.0000000  1.0000000  0.0000000 )
                  (  1.0000000  0.0000000  0.0000000 )
                  (  0.0000000  0.0000000  1.0000000 )


      isym = 15     inv.  90 deg rotation - cart. axis [0,0,-1]  

 cryst.   s(15) = (     0         -1          0      )
                  (     0         -1          1      )
                  (     1         -1          0      )

 cart.    s(15) = (  0.0000000 -1.0000000  0.0000000 )
                  (  1.0000000  0.0000000  0.0000000 )
                  (  0.0000000  0.0000000 -1.0000000 )


      isym = 16     inv.  90 deg rotation - cart. axis [0,0,1]   

 cryst.   s(16) = (    -1          0          1      )
                  (    -1          0          0      )
                  (    -1          1          0      )

 cart.    s(16) = (  0.0000000  1.0000000  0.0000000 )
                  ( -1.0000000  0.0000000  0.0000000 )
                  (  0.0000000  0.0000000 -1.0000000 )


      isym = 17     inv. 180 deg rotation - cart. axis [1,0,1]   

 cryst.   s(17) = (     1         -1          0      )
                  (     0         -1          0      )
                  (     0         -1          1      )

 cart.    s(17) = (  0.0000000  0.0000000 -1.0000000 )
                  (  0.0000000  1.0000000  0.0000000 )
                  ( -1.0000000  0.0000000  0.0000000 )


      isym = 18     inv. 180 deg rotation - cart. axis [-1,0,1]  

 cryst.   s(18) = (     0          0          1      )
                  (     0          1          0      )
                  (     1          0          0      )

 cart.    s(18) = (  0.0000000  0.0000000  1.0000000 )
                  (  0.0000000  1.0000000  0.0000000 )
                  (  1.0000000  0.0000000  0.0000000 )


      isym = 19     inv.  90 deg rotation - cart. axis [0,1,0]   

 cryst.   s(19) = (     0          0         -1      )
                  (     1          0         -1      )
                  (     0          1         -1      )

 cart.    s(19) = (  0.0000000  0.0000000 -1.0000000 )
                  (  0.0000000 -1.0000000  0.0000000 )
                  (  1.0000000  0.0000000  0.0000000 )


      isym = 20     inv.  90 deg rotation - cart. axis [0,-1,0]  

 cryst.   s(20) = (    -1          1          0      )
                  (    -1          0          1      )
                  (    -1          0          0      )

 cart.    s(20) = (  0.0000000  0.0000000  1.0000000 )
                  (  0.0000000 -1.0000000  0.0000000 )
                  ( -1.0000000  0.0000000  0.0000000 )


      isym = 21     inv. 180 deg rotation - cart. axis [0,1,1]   

 cryst.   s(21) = (    -1          0          0      )
                  (    -1          1          0      )
                  (    -1          0          1      )

 cart.    s(21) = (  1.0000000  0.0000000  0.0000000 )
                  (  0.0000000  0.0000000 -1.0000000 )
                  (  0.0000000 -1.0000000  0.0000000 )


      isym = 22     inv. 180 deg rotation - cart. axis [0,1,-1]  

 cryst.   s(22) = (     1          0          0      )
                  (     0          0          1      )
                  (     0          1          0      )

 cart.    s(22) = (  1.0000000  0.0000000  0.0000000 )
                  (  0.0000000  0.0000000  1.0000000 )
                  (  0.0000000  1.0000000  0.0000000 )


      isym = 23     inv.  90 deg rotation - cart. axis [-1,0,0]  

 cryst.   s(23) = (     0          1         -1      )
                  (     0          0         -1      )
                  (     1          0         -1      )

 cart.    s(23) = ( -1.0000000  0.0000000  0.0000000 )
                  (  0.0000000  0.0000000 -1.0000000 )
                  (  0.0000000  1.0000000  0.0000000 )


      isym = 24     inv.  90 deg rotation - cart. axis [1,0,0]   

 cryst.   s(24) = (     0         -1          1      )
                  (     1         -1          0      )
                  (     0         -1          0      )

 cart.    s(24) = ( -1.0000000  0.0000000  0.0000000 )
                  (  0.0000000  0.0000000  1.0000000 )
                  (  0.0000000 -1.0000000  0.0000000 )


   Cartesian axes

     site n.     atom                  positions (alat units)
         1        Cd     tau(   1) = (   0.0000000   0.0000000   0.0000000  )
         2        Te     tau(   2) = (   0.3535534   0.3535534   0.3535534  )

   Crystallographic axes

     site n.     atom                  positions (cryst. coord.)
         1        Cd     tau(   1) = (  0.0000000  0.0000000  0.0000000  )
         2        Te     tau(   2) = (  0.2500000  0.2500000  0.2500000  )

     number of k points=    29
                       cart. coord. in units 2pi/alat
        k(    1) = (   0.0000000   0.0000000   0.0000000), wk =   0.0039062
        k(    2) = (   0.0883883   0.0883883  -0.0883883), wk =   0.0312500
        k(    3) = (   0.1767767   0.1767767  -0.1767767), wk =   0.0312500
        k(    4) = (   0.2651650   0.2651650  -0.2651650), wk =   0.0312500
        k(    5) = (  -0.3535534  -0.3535534   0.3535534), wk =   0.0156250
        k(    6) = (   0.1767767   0.0000000   0.0000000), wk =   0.0234375
        k(    7) = (   0.2651650   0.0883883  -0.0883883), wk =   0.0937500
        k(    8) = (   0.3535534   0.1767767  -0.1767767), wk =   0.0937500
        k(    9) = (  -0.2651650  -0.4419417   0.4419417), wk =   0.0937500
        k(   10) = (  -0.1767767  -0.3535534   0.3535534), wk =   0.0937500
        k(   11) = (  -0.0883883  -0.2651650   0.2651650), wk =   0.0937500
        k(   12) = (   0.0000000  -0.1767767   0.1767767), wk =   0.0468750
        k(   13) = (   0.3535534   0.0000000   0.0000000), wk =   0.0234375
        k(   14) = (   0.4419417   0.0883883  -0.0883883), wk =   0.0937500
        k(   15) = (  -0.1767767  -0.5303301   0.5303301), wk =   0.0937500
        k(   16) = (  -0.0883883  -0.4419417   0.4419417), wk =   0.0937500
        k(   17) = (   0.0000000  -0.3535534   0.3535534), wk =   0.0468750
        k(   18) = (   0.5303301   0.0000000   0.0000000), wk =   0.0234375
        k(   19) = (  -0.0883883  -0.6187184   0.6187184), wk =   0.0937500
        k(   20) = (   0.0000000  -0.5303301   0.5303301), wk =   0.0468750
        k(   21) = (  -0.7071068   0.0000000   0.0000000), wk =   0.0117188
        k(   22) = (   0.3535534   0.1767767   0.0000000), wk =   0.0937500
        k(   23) = (  -0.2651650  -0.4419417   0.6187184), wk =   0.1875000
        k(   24) = (  -0.1767767  -0.3535534   0.5303301), wk =   0.0937500
        k(   25) = (  -0.1767767  -0.5303301   0.7071068), wk =   0.0937500
        k(   26) = (  -0.0883883  -0.4419417   0.6187184), wk =   0.1875000
        k(   27) = (   0.0000000  -0.3535534   0.5303301), wk =   0.0937500
        k(   28) = (  -0.7071068   0.1767767   0.0000000), wk =   0.0468750
        k(   29) = (  -0.7071068   0.3535534   0.0000000), wk =   0.0234375

                       cryst. coord.
        k(    1) = (   0.0000000   0.0000000   0.0000000), wk =   0.0039062
        k(    2) = (   0.0000000   0.0000000   0.1250000), wk =   0.0312500
        k(    3) = (   0.0000000   0.0000000   0.2500000), wk =   0.0312500
        k(    4) = (   0.0000000   0.0000000   0.3750000), wk =   0.0312500
        k(    5) = (   0.0000000   0.0000000  -0.5000000), wk =   0.0156250
        k(    6) = (   0.0000000   0.1250000   0.1250000), wk =   0.0234375
        k(    7) = (   0.0000000   0.1250000   0.2500000), wk =   0.0937500
        k(    8) = (   0.0000000   0.1250000   0.3750000), wk =   0.0937500
        k(    9) = (   0.0000000   0.1250000  -0.5000000), wk =   0.0937500
        k(   10) = (   0.0000000   0.1250000  -0.3750000), wk =   0.0937500
        k(   11) = (   0.0000000   0.1250000  -0.2500000), wk =   0.0937500
        k(   12) = (   0.0000000   0.1250000  -0.1250000), wk =   0.0468750
        k(   13) = (   0.0000000   0.2500000   0.2500000), wk =   0.0234375
        k(   14) = (   0.0000000   0.2500000   0.3750000), wk =   0.0937500
        k(   15) = (   0.0000000   0.2500000  -0.5000000), wk =   0.0937500
        k(   16) = (   0.0000000   0.2500000  -0.3750000), wk =   0.0937500
        k(   17) = (   0.0000000   0.2500000  -0.2500000), wk =   0.0468750
        k(   18) = (   0.0000000   0.3750000   0.3750000), wk =   0.0234375
        k(   19) = (   0.0000000   0.3750000  -0.5000000), wk =   0.0937500
        k(   20) = (   0.0000000   0.3750000  -0.3750000), wk =   0.0468750
        k(   21) = (   0.0000000  -0.5000000  -0.5000000), wk =   0.0117188
        k(   22) = (   0.1250000   0.2500000   0.3750000), wk =   0.0937500
        k(   23) = (   0.1250000   0.2500000  -0.5000000), wk =   0.1875000
        k(   24) = (   0.1250000   0.2500000  -0.3750000), wk =   0.0937500
        k(   25) = (   0.1250000   0.3750000  -0.5000000), wk =   0.0937500
        k(   26) = (   0.1250000   0.3750000  -0.3750000), wk =   0.1875000
        k(   27) = (   0.1250000   0.3750000  -0.2500000), wk =   0.0937500
        k(   28) = (   0.1250000  -0.5000000  -0.3750000), wk =   0.0468750
        k(   29) = (   0.2500000  -0.5000000  -0.2500000), wk =   0.0234375

     Dense  grid:    97541 G-vectors     FFT dimensions: (  72,  72,  72)

     Smooth grid:    53089 G-vectors     FFT dimensions: (  54,  54,  54)

     Dynamical RAM for                 wfc:       0.15 MB

     Dynamical RAM for     wfc (w. buffer):       4.55 MB

     Dynamical RAM for           str. fact:       0.50 MB

     Dynamical RAM for           local pot:       0.00 MB

     Dynamical RAM for          nlocal pot:       0.61 MB

     Dynamical RAM for                qrad:       3.73 MB

     Dynamical RAM for          rho,v,vnew:       2.17 MB

     Dynamical RAM for               rhoin:       0.72 MB

     Dynamical RAM for            rho*nmix:       3.97 MB

     Dynamical RAM for           G-vectors:       1.00 MB

     Dynamical RAM for          h,s,v(r/c):       0.01 MB

     Dynamical RAM for          <psi|beta>:       0.00 MB

     Dynamical RAM for                 psi:       0.30 MB

     Dynamical RAM for                hpsi:       0.30 MB

     Dynamical RAM for                spsi:       0.30 MB

     Dynamical RAM for      wfcinit/wfcrot:       0.31 MB

     Dynamical RAM for           addusdens:      46.39 MB

     Estimated static dynamical RAM per process >      16.39 MB

     Estimated max dynamical RAM per process >      66.74 MB

     Estimated total dynamical RAM >     400.47 MB

     Initial potential from superposition of free atoms

     starting charge      17.9949, renormalised to      18.0000
     Starting wfcs are   13 randomized atomic wfcs

     total cpu time spent up to now is        1.5 secs

     per-process dynamical memory:    27.3 Mb

     Self-consistent Calculation

     iteration #  1     ecut=    90.00 Ry     beta= 0.30
     Davidson diagonalization with overlap

---- Real-time Memory Report at c_bands before calling an iterative solver
           109 MiB given to the printing process from OS
            26 MiB allocation reported by mallinfo(arena+hblkhd)
          2556 MiB available memory on the node where the printing process lives
------------------
     ethr =  1.00E-02,  avg # of iterations =  1.1

     Threshold (ethr) on eigenvalues was too large:
     Diagonalizing with lowered threshold

     Davidson diagonalization with overlap

---- Real-time Memory Report at c_bands before calling an iterative solver
           114 MiB given to the printing process from OS
            30 MiB allocation reported by mallinfo(arena+hblkhd)
          2544 MiB available memory on the node where the printing process lives
------------------
     ethr =  2.05E-04,  avg # of iterations =  5.0

     total cpu time spent up to now is        3.2 secs

     total energy              =    -128.97507769 Ry
     estimated scf accuracy    <       0.04146435 Ry

     iteration #  2     ecut=    90.00 Ry     beta= 0.30
     Davidson diagonalization with overlap

---- Real-time Memory Report at c_bands before calling an iterative solver
           116 MiB given to the printing process from OS
            32 MiB allocation reported by mallinfo(arena+hblkhd)
          2534 MiB available memory on the node where the printing process lives
------------------
     ethr =  2.30E-04,  avg # of iterations =  1.7

     total cpu time spent up to now is        4.0 secs

     total energy              =    -128.97328670 Ry
     estimated scf accuracy    <       0.01252883 Ry

     iteration #  3     ecut=    90.00 Ry     beta= 0.30
     Davidson diagonalization with overlap

---- Real-time Memory Report at c_bands before calling an iterative solver
           116 MiB given to the printing process from OS
            32 MiB allocation reported by mallinfo(arena+hblkhd)
          2533 MiB available memory on the node where the printing process lives
------------------
     ethr =  6.96E-05,  avg # of iterations =  2.2

     total cpu time spent up to now is        5.0 secs

     total energy              =    -128.97669579 Ry
     estimated scf accuracy    <       0.00137566 Ry

     iteration #  4     ecut=    90.00 Ry     beta= 0.30
     Davidson diagonalization with overlap

---- Real-time Memory Report at c_bands before calling an iterative solver
           117 MiB given to the printing process from OS
            32 MiB allocation reported by mallinfo(arena+hblkhd)
          2528 MiB available memory on the node where the printing process lives
------------------
     ethr =  7.64E-06,  avg # of iterations =  5.1

     total cpu time spent up to now is        6.0 secs

     total energy              =    -128.97744019 Ry
     estimated scf accuracy    <       0.00020674 Ry

     iteration #  5     ecut=    90.00 Ry     beta= 0.30
     Davidson diagonalization with overlap

---- Real-time Memory Report at c_bands before calling an iterative solver
           117 MiB given to the printing process from OS
            33 MiB allocation reported by mallinfo(arena+hblkhd)
          2524 MiB available memory on the node where the printing process lives
------------------
     ethr =  1.15E-06,  avg # of iterations =  5.3

     total cpu time spent up to now is        7.1 secs

     total energy              =    -128.97752477 Ry
     estimated scf accuracy    <       0.00007527 Ry

     iteration #  6     ecut=    90.00 Ry     beta= 0.30
     Davidson diagonalization with overlap

---- Real-time Memory Report at c_bands before calling an iterative solver
           117 MiB given to the printing process from OS
            33 MiB allocation reported by mallinfo(arena+hblkhd)
          2521 MiB available memory on the node where the printing process lives
------------------
     ethr =  4.18E-07,  avg # of iterations =  5.6

     total cpu time spent up to now is        8.2 secs

     total energy              =    -128.97754727 Ry
     estimated scf accuracy    <       0.00007551 Ry

     iteration #  7     ecut=    90.00 Ry     beta= 0.30
     Davidson diagonalization with overlap

---- Real-time Memory Report at c_bands before calling an iterative solver
           117 MiB given to the printing process from OS
            33 MiB allocation reported by mallinfo(arena+hblkhd)
          2517 MiB available memory on the node where the printing process lives
------------------
     ethr =  4.18E-07,  avg # of iterations =  1.2

     total cpu time spent up to now is        8.9 secs

     total energy              =    -128.97753352 Ry
     estimated scf accuracy    <       0.00002621 Ry

     iteration #  8     ecut=    90.00 Ry     beta= 0.30
     Davidson diagonalization with overlap

---- Real-time Memory Report at c_bands before calling an iterative solver
           118 MiB given to the printing process from OS
            33 MiB allocation reported by mallinfo(arena+hblkhd)
          2516 MiB available memory on the node where the printing process lives
------------------
     ethr =  1.46E-07,  avg # of iterations =  4.1

     total cpu time spent up to now is       10.0 secs

     total energy              =    -128.97754716 Ry
     estimated scf accuracy    <       0.00000238 Ry

     iteration #  9     ecut=    90.00 Ry     beta= 0.30
     Davidson diagonalization with overlap

---- Real-time Memory Report at c_bands before calling an iterative solver
           118 MiB given to the printing process from OS
            34 MiB allocation reported by mallinfo(arena+hblkhd)
          2516 MiB available memory on the node where the printing process lives
------------------
     ethr =  1.32E-08,  avg # of iterations =  8.0

     total cpu time spent up to now is       11.3 secs

     total energy              =    -128.97754723 Ry
     estimated scf accuracy    <       0.00001429 Ry

     iteration # 10     ecut=    90.00 Ry     beta= 0.30
     Davidson diagonalization with overlap

---- Real-time Memory Report at c_bands before calling an iterative solver
           118 MiB given to the printing process from OS
            34 MiB allocation reported by mallinfo(arena+hblkhd)
          2543 MiB available memory on the node where the printing process lives
------------------
     ethr =  1.32E-08,  avg # of iterations =  5.7

     total cpu time spent up to now is       12.4 secs

     total energy              =    -128.97754804 Ry
     estimated scf accuracy    <       0.00000647 Ry

     iteration # 11     ecut=    90.00 Ry     beta= 0.30
     Davidson diagonalization with overlap

---- Real-time Memory Report at c_bands before calling an iterative solver
           118 MiB given to the printing process from OS
            34 MiB allocation reported by mallinfo(arena+hblkhd)
          2507 MiB available memory on the node where the printing process lives
------------------
     ethr =  1.32E-08,  avg # of iterations =  1.4

     total cpu time spent up to now is       13.2 secs

     total energy              =    -128.97754517 Ry
     estimated scf accuracy    <       0.00000376 Ry

     iteration # 12     ecut=    90.00 Ry     beta= 0.30
     Davidson diagonalization with overlap

---- Real-time Memory Report at c_bands before calling an iterative solver
           118 MiB given to the printing process from OS
            34 MiB allocation reported by mallinfo(arena+hblkhd)
          2507 MiB available memory on the node where the printing process lives
------------------
     ethr =  1.32E-08,  avg # of iterations =  8.2

     total cpu time spent up to now is       14.6 secs

     total energy              =    -128.97754633 Ry
     estimated scf accuracy    <       0.00000679 Ry

     iteration # 13     ecut=    90.00 Ry     beta= 0.30
     Davidson diagonalization with overlap

---- Real-time Memory Report at c_bands before calling an iterative solver
           118 MiB given to the printing process from OS
            34 MiB allocation reported by mallinfo(arena+hblkhd)
          2523 MiB available memory on the node where the printing process lives
------------------
     ethr =  1.32E-08,  avg # of iterations =  2.6

     total cpu time spent up to now is       15.6 secs

     total energy              =    -128.97754794 Ry
     estimated scf accuracy    <       0.00000114 Ry

     iteration # 14     ecut=    90.00 Ry     beta= 0.30
     Davidson diagonalization with overlap

---- Real-time Memory Report at c_bands before calling an iterative solver
           118 MiB given to the printing process from OS
            34 MiB allocation reported by mallinfo(arena+hblkhd)
          2521 MiB available memory on the node where the printing process lives
------------------
     ethr =  6.33E-09,  avg # of iterations =  1.5

     total cpu time spent up to now is       16.4 secs

     total energy              =    -128.97754658 Ry
     estimated scf accuracy    <       0.00000268 Ry

     iteration # 15     ecut=    90.00 Ry     beta= 0.30
     Davidson diagonalization with overlap

---- Real-time Memory Report at c_bands before calling an iterative solver
           118 MiB given to the printing process from OS
            34 MiB allocation reported by mallinfo(arena+hblkhd)
          2519 MiB available memory on the node where the printing process lives
------------------
     ethr =  6.33E-09,  avg # of iterations =  3.7

     total cpu time spent up to now is       17.5 secs

     total energy              =    -128.97754738 Ry
     estimated scf accuracy    <       0.00000035 Ry

     iteration # 16     ecut=    90.00 Ry     beta= 0.30
     Davidson diagonalization with overlap

---- Real-time Memory Report at c_bands before calling an iterative solver
           118 MiB given to the printing process from OS
            34 MiB allocation reported by mallinfo(arena+hblkhd)
          2520 MiB available memory on the node where the printing process lives
------------------
     ethr =  1.95E-09,  avg # of iterations = 12.2

     total cpu time spent up to now is       19.8 secs

     total energy              =    -128.97754519 Ry
     estimated scf accuracy    <       0.00001120 Ry

     iteration # 17     ecut=    90.00 Ry     beta= 0.30
     Davidson diagonalization with overlap

---- Real-time Memory Report at c_bands before calling an iterative solver
           118 MiB given to the printing process from OS
            34 MiB allocation reported by mallinfo(arena+hblkhd)
          2520 MiB available memory on the node where the printing process lives
------------------
     ethr =  1.95E-09,  avg # of iterations =  9.5

     total cpu time spent up to now is       21.5 secs

     total energy              =    -128.97754700 Ry
     estimated scf accuracy    <       0.00000022 Ry

     iteration # 18     ecut=    90.00 Ry     beta= 0.30
     Davidson diagonalization with overlap

---- Real-time Memory Report at c_bands before calling an iterative solver
           118 MiB given to the printing process from OS
            34 MiB allocation reported by mallinfo(arena+hblkhd)
          2513 MiB available memory on the node where the printing process lives
------------------
     ethr =  1.22E-09,  avg # of iterations =  1.7

     total cpu time spent up to now is       22.3 secs

     total energy              =    -128.97754706 Ry
     estimated scf accuracy    <       0.00000018 Ry

     iteration # 19     ecut=    90.00 Ry     beta= 0.30
     Davidson diagonalization with overlap

---- Real-time Memory Report at c_bands before calling an iterative solver
           118 MiB given to the printing process from OS
            34 MiB allocation reported by mallinfo(arena+hblkhd)
          2510 MiB available memory on the node where the printing process lives
------------------
     ethr =  9.96E-10,  avg # of iterations =  1.2

     total cpu time spent up to now is       23.1 secs

     total energy              =    -128.97754697 Ry
     estimated scf accuracy    <       0.00000025 Ry

     iteration # 20     ecut=    90.00 Ry     beta= 0.30
     Davidson diagonalization with overlap

---- Real-time Memory Report at c_bands before calling an iterative solver
           118 MiB given to the printing process from OS
            34 MiB allocation reported by mallinfo(arena+hblkhd)
          2521 MiB available memory on the node where the printing process lives
------------------
     ethr =  9.96E-10,  avg # of iterations =  1.6

     total cpu time spent up to now is       23.9 secs

     total energy              =    -128.97754692 Ry
     estimated scf accuracy    <       0.00000009 Ry

     iteration # 21     ecut=    90.00 Ry     beta= 0.30
     Davidson diagonalization with overlap

---- Real-time Memory Report at c_bands before calling an iterative solver
           118 MiB given to the printing process from OS
            34 MiB allocation reported by mallinfo(arena+hblkhd)
          2514 MiB available memory on the node where the printing process lives
------------------
     ethr =  4.82E-10,  avg # of iterations =  6.0

     total cpu time spent up to now is       25.2 secs

     total energy              =    -128.97754699 Ry
     estimated scf accuracy    <       0.00000004 Ry

     iteration # 22     ecut=    90.00 Ry     beta= 0.30
     Davidson diagonalization with overlap

---- Real-time Memory Report at c_bands before calling an iterative solver
           118 MiB given to the printing process from OS
            34 MiB allocation reported by mallinfo(arena+hblkhd)
          2519 MiB available memory on the node where the printing process lives
------------------
     ethr =  2.07E-10,  avg # of iterations =  1.4

     total cpu time spent up to now is       26.0 secs

     total energy              =    -128.97754697 Ry
     estimated scf accuracy    <       0.00000003 Ry

     iteration # 23     ecut=    90.00 Ry     beta= 0.30
     Davidson diagonalization with overlap

---- Real-time Memory Report at c_bands before calling an iterative solver
           118 MiB given to the printing process from OS
            34 MiB allocation reported by mallinfo(arena+hblkhd)
          2513 MiB available memory on the node where the printing process lives
------------------
     ethr =  1.84E-10,  avg # of iterations =  5.4

     total cpu time spent up to now is       27.1 secs

     total energy              =    -128.97754700 Ry
     estimated scf accuracy    <       0.00000002 Ry

     iteration # 24     ecut=    90.00 Ry     beta= 0.30
     Davidson diagonalization with overlap

---- Real-time Memory Report at c_bands before calling an iterative solver
           118 MiB given to the printing process from OS
            34 MiB allocation reported by mallinfo(arena+hblkhd)
          2517 MiB available memory on the node where the printing process lives
------------------
     ethr =  9.19E-11,  avg # of iterations =  3.5

     total cpu time spent up to now is       28.2 secs

     total energy              =    -128.97754697 Ry
     estimated scf accuracy    <       0.00000006 Ry

     iteration # 25     ecut=    90.00 Ry     beta= 0.30
     Davidson diagonalization with overlap

---- Real-time Memory Report at c_bands before calling an iterative solver
           118 MiB given to the printing process from OS
            34 MiB allocation reported by mallinfo(arena+hblkhd)
          2517 MiB available memory on the node where the printing process lives
------------------
     ethr =  9.19E-11,  avg # of iterations =  4.6

     total cpu time spent up to now is       29.3 secs

     total energy              =    -128.97754698 Ry
     estimated scf accuracy    <          1.0E-09 Ry

     iteration # 26     ecut=    90.00 Ry     beta= 0.30
     Davidson diagonalization with overlap

---- Real-time Memory Report at c_bands before calling an iterative solver
           118 MiB given to the printing process from OS
            34 MiB allocation reported by mallinfo(arena+hblkhd)
          2555 MiB available memory on the node where the printing process lives
------------------
     ethr =  5.82E-12,  avg # of iterations =  9.4

     total cpu time spent up to now is       30.9 secs

     total energy              =    -128.97754699 Ry
     estimated scf accuracy    <          8.7E-09 Ry

     iteration # 27     ecut=    90.00 Ry     beta= 0.30
     Davidson diagonalization with overlap

---- Real-time Memory Report at c_bands before calling an iterative solver
           118 MiB given to the printing process from OS
            34 MiB allocation reported by mallinfo(arena+hblkhd)
          2519 MiB available memory on the node where the printing process lives
------------------
     ethr =  5.82E-12,  avg # of iterations =  8.3

     total cpu time spent up to now is       32.4 secs

     total energy              =    -128.97754697 Ry
     estimated scf accuracy    <       0.00000004 Ry

     iteration # 28     ecut=    90.00 Ry     beta= 0.30
     Davidson diagonalization with overlap

---- Real-time Memory Report at c_bands before calling an iterative solver
           118 MiB given to the printing process from OS
            34 MiB allocation reported by mallinfo(arena+hblkhd)
          2519 MiB available memory on the node where the printing process lives
------------------
     ethr =  5.82E-12,  avg # of iterations = 10.9

     total cpu time spent up to now is       34.3 secs

     total energy              =    -128.97754698 Ry
     estimated scf accuracy    <          2.6E-09 Ry

     iteration # 29     ecut=    90.00 Ry     beta= 0.30
     Davidson diagonalization with overlap

---- Real-time Memory Report at c_bands before calling an iterative solver
           118 MiB given to the printing process from OS
            34 MiB allocation reported by mallinfo(arena+hblkhd)
          2536 MiB available memory on the node where the printing process lives
------------------
     ethr =  5.82E-12,  avg # of iterations =  1.3

     total cpu time spent up to now is       35.1 secs

     total energy              =    -128.97754698 Ry
     estimated scf accuracy    <          3.1E-09 Ry

     iteration # 30     ecut=    90.00 Ry     beta= 0.30
     Davidson diagonalization with overlap

---- Real-time Memory Report at c_bands before calling an iterative solver
           118 MiB given to the printing process from OS
            34 MiB allocation reported by mallinfo(arena+hblkhd)
          2512 MiB available memory on the node where the printing process lives
------------------
     ethr =  5.82E-12,  avg # of iterations =  1.0

     total cpu time spent up to now is       35.9 secs

     total energy              =    -128.97754698 Ry
     estimated scf accuracy    <          2.7E-09 Ry

     iteration # 31     ecut=    90.00 Ry     beta= 0.30
     Davidson diagonalization with overlap

---- Real-time Memory Report at c_bands before calling an iterative solver
           118 MiB given to the printing process from OS
            34 MiB allocation reported by mallinfo(arena+hblkhd)
          2520 MiB available memory on the node where the printing process lives
------------------
     ethr =  5.82E-12,  avg # of iterations =  2.2

     total cpu time spent up to now is       36.9 secs

     total energy              =    -128.97754698 Ry
     estimated scf accuracy    <          3.9E-10 Ry

     iteration # 32     ecut=    90.00 Ry     beta= 0.30
     Davidson diagonalization with overlap

---- Real-time Memory Report at c_bands before calling an iterative solver
           118 MiB given to the printing process from OS
            34 MiB allocation reported by mallinfo(arena+hblkhd)
          2517 MiB available memory on the node where the printing process lives
------------------
     ethr =  2.16E-12,  avg # of iterations =  8.3

     total cpu time spent up to now is       38.5 secs

     total energy              =    -128.97754698 Ry
     estimated scf accuracy    <          1.9E-09 Ry

     iteration # 33     ecut=    90.00 Ry     beta= 0.30
     Davidson diagonalization with overlap

---- Real-time Memory Report at c_bands before calling an iterative solver
           118 MiB given to the printing process from OS
            34 MiB allocation reported by mallinfo(arena+hblkhd)
          2507 MiB available memory on the node where the printing process lives
------------------
     ethr =  2.16E-12,  avg # of iterations =  1.0

     total cpu time spent up to now is       39.2 secs

     total energy              =    -128.97754698 Ry
     estimated scf accuracy    <          1.5E-09 Ry

     iteration # 34     ecut=    90.00 Ry     beta= 0.30
     Davidson diagonalization with overlap

---- Real-time Memory Report at c_bands before calling an iterative solver
           118 MiB given to the printing process from OS
            34 MiB allocation reported by mallinfo(arena+hblkhd)
          2507 MiB available memory on the node where the printing process lives
------------------
     ethr =  2.16E-12,  avg # of iterations =  4.4

     total cpu time spent up to now is       40.2 secs

     total energy              =    -128.97754698 Ry
     estimated scf accuracy    <          1.1E-10 Ry

     iteration # 35     ecut=    90.00 Ry     beta= 0.30
     Davidson diagonalization with overlap

---- Real-time Memory Report at c_bands before calling an iterative solver
           118 MiB given to the printing process from OS
            34 MiB allocation reported by mallinfo(arena+hblkhd)
          2513 MiB available memory on the node where the printing process lives
------------------
     ethr =  5.90E-13,  avg # of iterations =  8.2

     total cpu time spent up to now is       41.7 secs

     total energy              =    -128.97754698 Ry
     estimated scf accuracy    <          5.1E-10 Ry

     iteration # 36     ecut=    90.00 Ry     beta= 0.30
     Davidson diagonalization with overlap

---- Real-time Memory Report at c_bands before calling an iterative solver
           118 MiB given to the printing process from OS
            34 MiB allocation reported by mallinfo(arena+hblkhd)
          2517 MiB available memory on the node where the printing process lives
------------------
     ethr =  5.90E-13,  avg # of iterations =  1.0

     total cpu time spent up to now is       42.6 secs

     total energy              =    -128.97754698 Ry
     estimated scf accuracy    <          5.1E-10 Ry

     iteration # 37     ecut=    90.00 Ry     beta= 0.30
     Davidson diagonalization with overlap

---- Real-time Memory Report at c_bands before calling an iterative solver
           118 MiB given to the printing process from OS
            34 MiB allocation reported by mallinfo(arena+hblkhd)
          2518 MiB available memory on the node where the printing process lives
------------------
     ethr =  5.90E-13,  avg # of iterations =  6.2

     total cpu time spent up to now is       43.9 secs

     End of self-consistent calculation

          k = 0.0000 0.0000 0.0000 (  6615 PWs)   bands (ev):

    -6.0534  -3.1528  -3.1528  -3.1528  -2.8922  -2.8922   5.1240   5.1240
     5.1240

     occupation numbers 
     1.0000   1.0000   1.0000   1.0000   1.0000   1.0000   1.0000   1.0000
     1.0000

          k = 0.0884 0.0884-0.0884 (  6630 PWs)   bands (ev):

    -5.9950  -3.1416  -3.1416  -3.1072  -2.8930  -2.8930   3.8990   4.9862
     4.9862

     occupation numbers 
     1.0000   1.0000   1.0000   1.0000   1.0000   1.0000   1.0000   1.0000
     1.0000

          k = 0.1768 0.1768-0.1768 (  6609 PWs)   bands (ev):

    -5.8535  -3.1169  -3.1169  -2.9542  -2.8922  -2.8922   2.3956   4.6947
     4.6947

     occupation numbers 
     1.0000   1.0000   1.0000   1.0000   1.0000   1.0000   1.0000   1.0000
     1.0000

          k = 0.2652 0.2652-0.2652 (  6604 PWs)   bands (ev):

    -5.7131  -3.0964  -3.0964  -2.8864  -2.8864  -2.7007   1.1947   4.4436
     4.4436

     occupation numbers 
     1.0000   1.0000   1.0000   1.0000   1.0000   1.0000   1.0000   1.0000
     1.0000

          k =-0.3536-0.3536 0.3536 (  6586 PWs)   bands (ev):

    -5.6561  -3.0894  -3.0894  -2.8822  -2.8822  -2.5408   0.6961   4.3482
     4.3482

     occupation numbers 
     1.0000   1.0000   1.0000   1.0000   1.0000   1.0000   1.0000   1.0000
     1.0000

          k = 0.1768 0.0000 0.0000 (  6607 PWs)   bands (ev):

    -5.9757  -3.1309  -3.1309  -3.1067  -2.8986  -2.8874   3.8705   4.7482
     4.7482

     occupation numbers 
     1.0000   1.0000   1.0000   1.0000   1.0000   1.0000   1.0000   1.0000
     1.0000

          k = 0.2652 0.0884-0.0884 (  6602 PWs)   bands (ev):

    -5.8622  -3.1125  -3.1049  -3.0004  -2.8946  -2.8833   2.7457   4.4153
     4.4458

     occupation numbers 
     1.0000   1.0000   1.0000   1.0000   1.0000   1.0000   1.0000   1.0000
     1.0000

          k = 0.3536 0.1768-0.1768 (  6618 PWs)   bands (ev):

    -5.7222  -3.0929  -3.0820  -2.9150  -2.8794  -2.7451   1.5477   4.0609
     4.1850

     occupation numbers 
     1.0000   1.0000   1.0000   1.0000   1.0000   1.0000   1.0000   1.0000
     1.0000

          k =-0.2652-0.4419 0.4419 (  6608 PWs)   bands (ev):

    -5.6388  -3.0815  -3.0739  -2.8971  -2.8805  -2.5270   0.8251   3.7585
     4.1542

     occupation numbers 
     1.0000   1.0000   1.0000   1.0000   1.0000   1.0000   1.0000   1.0000
     1.0000

          k =-0.1768-0.3536 0.3536 (  6615 PWs)   bands (ev):

    -5.6575  -3.0814  -3.0809  -2.8905  -2.8893  -2.5809   0.9884   3.6647
     4.3323

     occupation numbers 
     1.0000   1.0000   1.0000   1.0000   1.0000   1.0000   1.0000   1.0000
     1.0000

          k =-0.0884-0.2652 0.2652 (  6627 PWs)   bands (ev):

    -5.7684  -3.1030  -3.0924  -2.9021  -2.8996  -2.8200   1.9152   3.8424
     4.6468

     occupation numbers 
     1.0000   1.0000   1.0000   1.0000   1.0000   1.0000   1.0000   1.0000
     1.0000

          k = 0.0000-0.1768 0.1768 (  6579 PWs)   bands (ev):

    -5.9090  -3.1292  -3.1166  -3.0327  -2.8991  -2.8860   3.0784   4.3459
     4.9358

     occupation numbers 
     1.0000   1.0000   1.0000   1.0000   1.0000   1.0000   1.0000   1.0000
     1.0000

          k = 0.3536 0.0000 0.0000 (  6606 PWs)   bands (ev):

    -5.7887  -3.0751  -3.0751  -2.9934  -2.8759  -2.8639   2.4555   4.0361
     4.0361

     occupation numbers 
     1.0000   1.0000   1.0000   1.0000   1.0000   1.0000   1.0000   1.0000
     1.0000

          k = 0.4419 0.0884-0.0884 (  6614 PWs)   bands (ev):

    -5.6779  -3.0578  -3.0475  -2.9595  -2.8714  -2.7112   1.6784   3.5790
     3.7767

     occupation numbers 
     1.0000   1.0000   1.0000   1.0000   1.0000   1.0000   1.0000   1.0000
     1.0000

          k =-0.1768-0.5303 0.5303 (  6630 PWs)   bands (ev):

    -5.5964  -3.0557  -3.0369  -2.9326  -2.8748  -2.4869   1.0438   3.0430
     3.7451

     occupation numbers 
     1.0000   1.0000   1.0000   1.0000   1.0000   1.0000   1.0000   1.0000
     1.0000

          k =-0.0884-0.4419 0.4419 (  6641 PWs)   bands (ev):

    -5.5891  -3.0600  -3.0461  -2.9091  -2.8881  -2.4363   0.9657   2.7549
     3.9526

     occupation numbers 
     1.0000   1.0000   1.0000   1.0000   1.0000   1.0000   1.0000   1.0000
     1.0000

          k = 0.0000-0.3536 0.3536 (  6603 PWs)   bands (ev):

    -5.6589  -3.0725  -3.0706  -2.8995  -2.8987  -2.6183   1.4098   2.9748
     4.3166

     occupation numbers 
     1.0000   1.0000   1.0000   1.0000   1.0000   1.0000   1.0000   1.0000
     1.0000

          k = 0.5303 0.0000 0.0000 (  6634 PWs)   bands (ev):

    -5.6071  -3.0148  -3.0148  -2.9874  -2.8644  -2.5966   1.3108   3.4682
     3.4682

     occupation numbers 
     1.0000   1.0000   1.0000   1.0000   1.0000   1.0000   1.0000   1.0000
     1.0000

          k =-0.0884-0.6187 0.6187 (  6636 PWs)   bands (ev):

    -5.5532  -3.0197  -3.0017  -2.9683  -2.8653  -2.4322   0.9541   3.0405
     3.3924

     occupation numbers 
     1.0000   1.0000   1.0000   1.0000   1.0000   1.0000   1.0000   1.0000
     1.0000

          k = 0.0000-0.5303 0.5303 (  6605 PWs)   bands (ev):

    -5.5465  -3.0386  -3.0133  -2.9381  -2.8771  -2.3573   0.9143   2.5655
     3.5776

     occupation numbers 
     1.0000   1.0000   1.0000   1.0000   1.0000   1.0000   1.0000   1.0000
     1.0000

          k =-0.7071 0.0000 0.0000 (  6710 PWs)   bands (ev):

    -5.5351  -2.9968  -2.9883  -2.9883  -2.8596  -2.4030   0.8145   3.2581
     3.2581

     occupation numbers 
     1.0000   1.0000   1.0000   1.0000   1.0000   1.0000   1.0000   1.0000
     1.0000

          k = 0.3536 0.1768 0.0000 (  6611 PWs)   bands (ev):

    -5.7500  -3.0887  -3.0767  -2.9402  -2.8819  -2.8070   2.0359   3.6325
     4.3047

     occupation numbers 
     1.0000   1.0000   1.0000   1.0000   1.0000   1.0000   1.0000   1.0000
     1.0000

          k =-0.2652-0.4419 0.6187 (  6626 PWs)   bands (ev):

    -5.6404  -3.0690  -3.0588  -2.9194  -2.8813  -2.5830   1.2521   3.1773
     4.0038

     occupation numbers 
     1.0000   1.0000   1.0000   1.0000   1.0000   1.0000   1.0000   1.0000
     1.0000

          k =-0.1768-0.3536 0.5303 (  6620 PWs)   bands (ev):

    -5.5961  -3.0639  -3.0515  -2.9071  -2.8856  -2.4457   0.8847   3.0558
     3.8558

     occupation numbers 
     1.0000   1.0000   1.0000   1.0000   1.0000   1.0000   1.0000   1.0000
     1.0000

          k =-0.1768-0.5303 0.7071 (  6646 PWs)   bands (ev):

    -5.5968  -3.0361  -3.0313  -2.9519  -2.8714  -2.5280   1.2156   3.1244
     3.4924

     occupation numbers 
     1.0000   1.0000   1.0000   1.0000   1.0000   1.0000   1.0000   1.0000
     1.0000

          k =-0.0884-0.4419 0.6187 (  6640 PWs)   bands (ev):

    -5.5539  -3.0390  -3.0241  -2.9297  -2.8816  -2.3735   0.9560   2.7147
     3.3736

     occupation numbers 
     1.0000   1.0000   1.0000   1.0000   1.0000   1.0000   1.0000   1.0000
     1.0000

          k = 0.0000-0.3536 0.5303 (  6634 PWs)   bands (ev):

    -5.5717  -3.0490  -3.0359  -2.9161  -2.8891  -2.4083   1.0332   2.6263
     3.6190

     occupation numbers 
     1.0000   1.0000   1.0000   1.0000   1.0000   1.0000   1.0000   1.0000
     1.0000

          k =-0.7071 0.1768 0.0000 (  6628 PWs)   bands (ev):

    -5.5360  -3.0164  -3.0100  -2.9534  -2.8702  -2.3608   0.8712   3.0209
     3.0810

     occupation numbers 
     1.0000   1.0000   1.0000   1.0000   1.0000   1.0000   1.0000   1.0000
     1.0000

          k =-0.7071 0.3536 0.0000 (  6652 PWs)   bands (ev):

    -5.5368  -3.0293  -3.0237  -2.9212  -2.8905  -2.3204   0.9365   2.7980
     2.9229

     occupation numbers 
     1.0000   1.0000   1.0000   1.0000   1.0000   1.0000   1.0000   1.0000
     1.0000

     highest occupied level (ev):     5.1240

!    total energy              =    -128.97754698 Ry
     estimated scf accuracy    <          7.3E-12 Ry

     The total energy is the sum of the following terms:
     one-electron contribution =     -48.73632410 Ry
     hartree contribution      =      36.06008428 Ry
     xc contribution           =     -39.50008022 Ry
     ewald contribution        =     -76.80122694 Ry

     convergence has been achieved in  37 iterations

     Writing all to output data dir /home/User/opencode_workspace/DFT/calculations/cdte/conv_scf_e90/out/pwscf.save/ :
     XML data file, charge density, pseudopotentials, collected wavefunctions

     init_run     :      1.08s CPU      1.19s WALL (       1 calls)
     electrons    :     34.81s CPU     42.45s WALL (       1 calls)

     Called by init_run:
     wfcinit      :      0.25s CPU      0.29s WALL (       1 calls)
     wfcinit:atom :      0.00s CPU      0.01s WALL (      29 calls)
     wfcinit:wfcr :      0.22s CPU      0.25s WALL (      29 calls)
     potinit      :      0.14s CPU      0.15s WALL (       1 calls)
     hinit0       :      0.45s CPU      0.46s WALL (       1 calls)

     Called by electrons:
     c_bands      :     24.70s CPU     27.66s WALL (      38 calls)
     sum_band     :      6.29s CPU      8.79s WALL (      38 calls)
     v_of_rho     :      0.77s CPU      1.01s WALL (      38 calls)
     v_h          :      0.03s CPU      0.07s WALL (      38 calls)
     v_xc         :      0.74s CPU      0.94s WALL (      38 calls)
     newd         :      2.97s CPU      4.94s WALL (      38 calls)
     mix_rho      :      0.10s CPU      0.11s WALL (      38 calls)

     Called by c_bands:
     init_us_2    :      0.62s CPU      0.66s WALL (    2233 calls)
     cegterg      :     23.47s CPU     26.37s WALL (    1102 calls)

     Called by sum_band:
     sum_band:wei :      0.00s CPU      0.00s WALL (      38 calls)
     sum_band:loo :      3.11s CPU      3.49s WALL (      38 calls)
     sum_band:buf :      0.01s CPU      0.02s WALL (    1102 calls)
     sum_band:ini :      0.30s CPU      0.32s WALL (    1102 calls)
     sum_band:cal :      0.25s CPU      0.27s WALL (    1102 calls)
     sum_band:bec :      0.01s CPU      0.01s WALL (    1102 calls)
     addusdens    :      2.91s CPU      5.00s WALL (      38 calls)
                                        0.00s GPU  (      38 calls)
     addusd:skk   :      0.00s CPU      0.00s WALL (      76 calls)
                                        0.00s GPU  (      76 calls)

     Called by *egterg:
     cdiaghg      :      0.54s CPU      0.58s WALL (    6054 calls)
     cegterg:over :      0.67s CPU      0.73s WALL (    4981 calls)
     cegterg:upda :      0.23s CPU      0.24s WALL (    4981 calls)
     cegterg:last :      0.45s CPU      0.47s WALL (    3534 calls)
     h_psi        :     20.73s CPU     23.45s WALL (    6112 calls)
     s_psi        :      0.36s CPU      0.40s WALL (    6112 calls)
     g_psi        :      0.16s CPU      0.17s WALL (    4981 calls)

     Called by h_psi:
     h_psi:calbec :      1.03s CPU      1.16s WALL (    6112 calls)
     vloc_psi     :     19.16s CPU     21.71s WALL (    6112 calls)
                                        0.00s GPU  (    6112 calls)
     add_vuspsi   :      0.43s CPU      0.48s WALL (    6112 calls)

     General routines
     calbec       :      1.25s CPU      1.41s WALL (    7214 calls)
     fft          :      0.68s CPU      0.80s WALL (     493 calls)
     ffts         :      0.13s CPU      0.14s WALL (      76 calls)
     fftw         :     20.31s CPU     23.02s WALL (   85178 calls)
     interpolate  :      0.14s CPU      0.15s WALL (      38 calls)

     Parallel routines

     PWSCF        :     36.18s CPU     43.98s WALL


   This run was terminated on:  19: 3:26  22Sep2026            

=------------------------------------------------------------------------------=
   JOB DONE.
=------------------------------------------------------------------------------=
