
     Program PWSCF v.7.5 starts on 22Sep2026 at 19:17:57 

     This program is part of the open-source Quantum ESPRESSO suite
     for quantum simulation of materials; please cite
         "P. Giannozzi et al., J. Phys.:Condens. Matter 21 395502 (2009);
         "P. Giannozzi et al., J. Phys.:Condens. Matter 29 465901 (2017);
         "P. Giannozzi et al., J. Chem. Phys. 152 154105 (2020);
          URL http://www.quantum-espresso.org", 
     in publications or presentations arising from this work. More details at
     http://www.quantum-espresso.org/quote

     Parallel version (MPI & OpenMP), running on       6 processor cores
     Number of MPI processes:                 6
     Threads/MPI process:                     1

     MPI processes distributed on     1 nodes
     1460 MiB available memory on the printing compute node when the environment starts

     Reading input from pw.in

     Current dimensions of program PWSCF are:
     Max number of different atomic species (ntypx) = 10
     Max number of k-points (npk) =  40000
     Max angular momentum in pseudopotentials (lmaxx) =  4
     file Hg.pbe-spn-rrkjus_psl.1.0.0.UPF: wavefunction(s)  5P renormalized
     file Te.pbe-n-rrkjus_psl.1.0.0.UPF: wavefunction(s)  5S renormalized
     Message from routine setup:
     using ibrav=0 with symmetry is DISCOURAGED, use correct ibrav instead

     R & G space division:  proc/nbgrp/npool/nimage =       6
     Subspace diagonalization in iterative solution of the eigenvalue problem:
     a serial algorithm will be used


     Parallelization info
     --------------------
     sticks:   dense  smooth     PW     G-vecs:    dense   smooth      PW
     Min         408     273     79                13390     7315    1142
     Max         410     274     80                13393     7319    1145
     Sum        2455    1639    475                80347    43895    6855

     Using Slab Decomposition



     bravais-lattice index     =            0
     lattice parameter (alat)  =       8.6227  a.u.
     unit-cell volume          =     453.3375 (a.u.)^3
     number of atoms/cell      =            2
     number of atomic types    =            2
     number of electrons       =        26.00
     number of Kohn-Sham states=           13
     kinetic-energy cutoff     =      80.0000  Ry
     charge density cutoff     =     480.0000  Ry
     scf convergence threshold =      1.0E-10
     mixing beta               =       0.3000
     number of iterations used =            8  plain     mixing
     Exchange-correlation= PBE
                           (   1   4   3   4   0   0   0)

     celldm(1)=   8.622745  celldm(2)=   0.000000  celldm(3)=   0.000000
     celldm(4)=   0.000000  celldm(5)=   0.000000  celldm(6)=   0.000000

     crystal axes: (cart. coord. in units of alat)
               a(1) = (   0.000000   0.707107   0.707107 )  
               a(2) = (   0.707107   0.000000   0.707107 )  
               a(3) = (   0.707107   0.707107   0.000000 )  

     reciprocal axes: (cart. coord. in units 2 pi/alat)
               b(1) = ( -0.707107  0.707107  0.707107 )  
               b(2) = (  0.707107 -0.707107  0.707107 )  
               b(3) = (  0.707107  0.707107 -0.707107 )  


     PseudoPot. # 1 for Hg read from file:
     /home/User/opencode_workspace/DFT/pseudopotentials/Hg.pbe-spn-rrkjus_psl.1.0.0.UPF
     MD5 check sum: f568566075d917e14d67c96ef6763253
     Pseudo is Ultrasoft + core correction, Zval = 20.0
     Generated using &quot;atomic&quot; code by A. Dal Corso  v.6.3
     Using radial grid of 1279 points,  6 beta functions with: 
                l(1) =   0
                l(2) =   0
                l(3) =   1
                l(4) =   1
                l(5) =   2
                l(6) =   2
     Q(r) pseudized with 0 coefficients 


     PseudoPot. # 2 for Te read from file:
     /home/User/opencode_workspace/DFT/pseudopotentials/Te.pbe-n-rrkjus_psl.1.0.0.UPF
     MD5 check sum: 203a1e86ef55f0cd9de2762a27c58f54
     Pseudo is Ultrasoft + core correction, Zval =  6.0
     Generated using &quot;atomic&quot; code by A. Dal Corso  v.6.3
     Using radial grid of 1245 points,  6 beta functions with: 
                l(1) =   0
                l(2) =   0
                l(3) =   1
                l(4) =   1
                l(5) =   2
                l(6) =   2
     Q(r) pseudized with 0 coefficients 


     atomic species   valence    mass     pseudopotential
     Hg               20.00   200.59200     Hg( 1.00)
     Te                6.00   127.60000     Te( 1.00)

     24 Sym. Ops. (no inversion) found


                                    s                        frac. trans.

      isym =  1     identity                                     

 cryst.   s( 1) = (     1          0          0      )
                  (     0          1          0      )
                  (     0          0          1      )

 cart.    s( 1) = (  1.0000000  0.0000000  0.0000000 )
                  (  0.0000000  1.0000000  0.0000000 )
                  (  0.0000000  0.0000000  1.0000000 )


      isym =  2     180 deg rotation - cart. axis [0,0,1]        

 cryst.   s( 2) = (     0          1         -1      )
                  (     1          0         -1      )
                  (     0          0         -1      )

 cart.    s( 2) = ( -1.0000000  0.0000000  0.0000000 )
                  (  0.0000000 -1.0000000  0.0000000 )
                  (  0.0000000  0.0000000  1.0000000 )


      isym =  3     180 deg rotation - cart. axis [0,1,0]        

 cryst.   s( 3) = (     0         -1          1      )
                  (     0         -1          0      )
                  (     1         -1          0      )

 cart.    s( 3) = ( -1.0000000  0.0000000  0.0000000 )
                  (  0.0000000  1.0000000  0.0000000 )
                  (  0.0000000  0.0000000 -1.0000000 )


      isym =  4     180 deg rotation - cart. axis [1,0,0]        

 cryst.   s( 4) = (    -1          0          0      )
                  (    -1          0          1      )
                  (    -1          1          0      )

 cart.    s( 4) = (  1.0000000  0.0000000  0.0000000 )
                  (  0.0000000 -1.0000000  0.0000000 )
                  (  0.0000000  0.0000000 -1.0000000 )


      isym =  5     120 deg rotation - cart. axis [-1,-1,-1]     

 cryst.   s( 5) = (     0          0          1      )
                  (     1          0          0      )
                  (     0          1          0      )

 cart.    s( 5) = (  0.0000000  1.0000000  0.0000000 )
                  (  0.0000000  0.0000000  1.0000000 )
                  (  1.0000000  0.0000000  0.0000000 )


      isym =  6     120 deg rotation - cart. axis [-1,1,1]       

 cryst.   s( 6) = (     1         -1          0      )
                  (     0         -1          1      )
                  (     0         -1          0      )

 cart.    s( 6) = (  0.0000000 -1.0000000  0.0000000 )
                  (  0.0000000  0.0000000  1.0000000 )
                  ( -1.0000000  0.0000000  0.0000000 )


      isym =  7     120 deg rotation - cart. axis [1,1,-1]       

 cryst.   s( 7) = (    -1          1          0      )
                  (    -1          0          0      )
                  (    -1          0          1      )

 cart.    s( 7) = (  0.0000000  1.0000000  0.0000000 )
                  (  0.0000000  0.0000000 -1.0000000 )
                  ( -1.0000000  0.0000000  0.0000000 )


      isym =  8     120 deg rotation - cart. axis [1,-1,1]       

 cryst.   s( 8) = (     0          0         -1      )
                  (     0          1         -1      )
                  (     1          0         -1      )

 cart.    s( 8) = (  0.0000000 -1.0000000  0.0000000 )
                  (  0.0000000  0.0000000 -1.0000000 )
                  (  1.0000000  0.0000000  0.0000000 )


      isym =  9     120 deg rotation - cart. axis [1,1,1]        

 cryst.   s( 9) = (     0          1          0      )
                  (     0          0          1      )
                  (     1          0          0      )

 cart.    s( 9) = (  0.0000000  0.0000000  1.0000000 )
                  (  1.0000000  0.0000000  0.0000000 )
                  (  0.0000000  1.0000000  0.0000000 )


      isym = 10     120 deg rotation - cart. axis [-1,1,-1]      

 cryst.   s(10) = (    -1          0          1      )
                  (    -1          1          0      )
                  (    -1          0          0      )

 cart.    s(10) = (  0.0000000  0.0000000  1.0000000 )
                  ( -1.0000000  0.0000000  0.0000000 )
                  (  0.0000000 -1.0000000  0.0000000 )


      isym = 11     120 deg rotation - cart. axis [1,-1,-1]      

 cryst.   s(11) = (     1          0         -1      )
                  (     0          0         -1      )
                  (     0          1         -1      )

 cart.    s(11) = (  0.0000000  0.0000000 -1.0000000 )
                  ( -1.0000000  0.0000000  0.0000000 )
                  (  0.0000000  1.0000000  0.0000000 )


      isym = 12     120 deg rotation - cart. axis [-1,-1,1]      

 cryst.   s(12) = (     0         -1          0      )
                  (     1         -1          0      )
                  (     0         -1          1      )

 cart.    s(12) = (  0.0000000  0.0000000 -1.0000000 )
                  (  1.0000000  0.0000000  0.0000000 )
                  (  0.0000000 -1.0000000  0.0000000 )


      isym = 13     inv. 180 deg rotation - cart. axis [1,1,0]   

 cryst.   s(13) = (     1          0         -1      )
                  (     0          1         -1      )
                  (     0          0         -1      )

 cart.    s(13) = (  0.0000000 -1.0000000  0.0000000 )
                  ( -1.0000000  0.0000000  0.0000000 )
                  (  0.0000000  0.0000000  1.0000000 )


      isym = 14     inv. 180 deg rotation - cart. axis [1,-1,0]  

 cryst.   s(14) = (     0          1          0      )
                  (     1          0          0      )
                  (     0          0          1      )

 cart.    s(14) = (  0.0000000  1.0000000  0.0000000 )
                  (  1.0000000  0.0000000  0.0000000 )
                  (  0.0000000  0.0000000  1.0000000 )


      isym = 15     inv.  90 deg rotation - cart. axis [0,0,-1]  

 cryst.   s(15) = (     0         -1          0      )
                  (     0         -1          1      )
                  (     1         -1          0      )

 cart.    s(15) = (  0.0000000 -1.0000000  0.0000000 )
                  (  1.0000000  0.0000000  0.0000000 )
                  (  0.0000000  0.0000000 -1.0000000 )


      isym = 16     inv.  90 deg rotation - cart. axis [0,0,1]   

 cryst.   s(16) = (    -1          0          1      )
                  (    -1          0          0      )
                  (    -1          1          0      )

 cart.    s(16) = (  0.0000000  1.0000000  0.0000000 )
                  ( -1.0000000  0.0000000  0.0000000 )
                  (  0.0000000  0.0000000 -1.0000000 )


      isym = 17     inv. 180 deg rotation - cart. axis [1,0,1]   

 cryst.   s(17) = (     1         -1          0      )
                  (     0         -1          0      )
                  (     0         -1          1      )

 cart.    s(17) = (  0.0000000  0.0000000 -1.0000000 )
                  (  0.0000000  1.0000000  0.0000000 )
                  ( -1.0000000  0.0000000  0.0000000 )


      isym = 18     inv. 180 deg rotation - cart. axis [-1,0,1]  

 cryst.   s(18) = (     0          0          1      )
                  (     0          1          0      )
                  (     1          0          0      )

 cart.    s(18) = (  0.0000000  0.0000000  1.0000000 )
                  (  0.0000000  1.0000000  0.0000000 )
                  (  1.0000000  0.0000000  0.0000000 )


      isym = 19     inv.  90 deg rotation - cart. axis [0,1,0]   

 cryst.   s(19) = (     0          0         -1      )
                  (     1          0         -1      )
                  (     0          1         -1      )

 cart.    s(19) = (  0.0000000  0.0000000 -1.0000000 )
                  (  0.0000000 -1.0000000  0.0000000 )
                  (  1.0000000  0.0000000  0.0000000 )


      isym = 20     inv.  90 deg rotation - cart. axis [0,-1,0]  

 cryst.   s(20) = (    -1          1          0      )
                  (    -1          0          1      )
                  (    -1          0          0      )

 cart.    s(20) = (  0.0000000  0.0000000  1.0000000 )
                  (  0.0000000 -1.0000000  0.0000000 )
                  ( -1.0000000  0.0000000  0.0000000 )


      isym = 21     inv. 180 deg rotation - cart. axis [0,1,1]   

 cryst.   s(21) = (    -1          0          0      )
                  (    -1          1          0      )
                  (    -1          0          1      )

 cart.    s(21) = (  1.0000000  0.0000000  0.0000000 )
                  (  0.0000000  0.0000000 -1.0000000 )
                  (  0.0000000 -1.0000000  0.0000000 )


      isym = 22     inv. 180 deg rotation - cart. axis [0,1,-1]  

 cryst.   s(22) = (     1          0          0      )
                  (     0          0          1      )
                  (     0          1          0      )

 cart.    s(22) = (  1.0000000  0.0000000  0.0000000 )
                  (  0.0000000  0.0000000  1.0000000 )
                  (  0.0000000  1.0000000  0.0000000 )


      isym = 23     inv.  90 deg rotation - cart. axis [-1,0,0]  

 cryst.   s(23) = (     0          1         -1      )
                  (     0          0         -1      )
                  (     1          0         -1      )

 cart.    s(23) = ( -1.0000000  0.0000000  0.0000000 )
                  (  0.0000000  0.0000000 -1.0000000 )
                  (  0.0000000  1.0000000  0.0000000 )


      isym = 24     inv.  90 deg rotation - cart. axis [1,0,0]   

 cryst.   s(24) = (     0         -1          1      )
                  (     1         -1          0      )
                  (     0         -1          0      )

 cart.    s(24) = ( -1.0000000  0.0000000  0.0000000 )
                  (  0.0000000  0.0000000  1.0000000 )
                  (  0.0000000 -1.0000000  0.0000000 )


   Cartesian axes

     site n.     atom                  positions (alat units)
         1        Hg     tau(   1) = (   0.0000000   0.0000000   0.0000000  )
         2        Te     tau(   2) = (   0.3535534   0.3535534   0.3535534  )

   Crystallographic axes

     site n.     atom                  positions (cryst. coord.)
         1        Hg     tau(   1) = (  0.0000000  0.0000000  0.0000000  )
         2        Te     tau(   2) = (  0.2500000  0.2500000  0.2500000  )

     number of k points=    47
                       cart. coord. in units 2pi/alat
        k(    1) = (   0.0000000   0.0000000   0.0000000), wk =   0.0020000
        k(    2) = (   0.0707107   0.0707107  -0.0707107), wk =   0.0160000
        k(    3) = (   0.1414214   0.1414214  -0.1414214), wk =   0.0160000
        k(    4) = (   0.2121320   0.2121320  -0.2121320), wk =   0.0160000
        k(    5) = (   0.2828427   0.2828427  -0.2828427), wk =   0.0160000
        k(    6) = (  -0.3535534  -0.3535534   0.3535534), wk =   0.0080000
        k(    7) = (   0.1414214   0.0000000   0.0000000), wk =   0.0120000
        k(    8) = (   0.2121320   0.0707107  -0.0707107), wk =   0.0480000
        k(    9) = (   0.2828427   0.1414214  -0.1414214), wk =   0.0480000
        k(   10) = (   0.3535534   0.2121320  -0.2121320), wk =   0.0480000
        k(   11) = (  -0.2828427  -0.4242641   0.4242641), wk =   0.0480000
        k(   12) = (  -0.2121320  -0.3535534   0.3535534), wk =   0.0480000
        k(   13) = (  -0.1414214  -0.2828427   0.2828427), wk =   0.0480000
        k(   14) = (  -0.0707107  -0.2121320   0.2121320), wk =   0.0480000
        k(   15) = (   0.0000000  -0.1414214   0.1414214), wk =   0.0240000
        k(   16) = (   0.2828427   0.0000000   0.0000000), wk =   0.0120000
        k(   17) = (   0.3535534   0.0707107  -0.0707107), wk =   0.0480000
        k(   18) = (   0.4242641   0.1414214  -0.1414214), wk =   0.0480000
        k(   19) = (  -0.2121320  -0.4949747   0.4949747), wk =   0.0480000
        k(   20) = (  -0.1414214  -0.4242641   0.4242641), wk =   0.0480000
        k(   21) = (  -0.0707107  -0.3535534   0.3535534), wk =   0.0480000
        k(   22) = (   0.0000000  -0.2828427   0.2828427), wk =   0.0240000
        k(   23) = (   0.4242641   0.0000000   0.0000000), wk =   0.0120000
        k(   24) = (   0.4949747   0.0707107  -0.0707107), wk =   0.0480000
        k(   25) = (  -0.1414214  -0.5656854   0.5656854), wk =   0.0480000
        k(   26) = (  -0.0707107  -0.4949747   0.4949747), wk =   0.0480000
        k(   27) = (  -0.0000000  -0.4242641   0.4242641), wk =   0.0240000
        k(   28) = (   0.5656854   0.0000000   0.0000000), wk =   0.0120000
        k(   29) = (  -0.0707107  -0.6363961   0.6363961), wk =   0.0480000
        k(   30) = (   0.0000000  -0.5656854   0.5656854), wk =   0.0240000
        k(   31) = (  -0.7071068   0.0000000   0.0000000), wk =   0.0060000
        k(   32) = (   0.2828427   0.1414214   0.0000000), wk =   0.0480000
        k(   33) = (   0.3535534   0.2121320  -0.0707107), wk =   0.0960000
        k(   34) = (  -0.2828427  -0.4242641   0.5656854), wk =   0.0960000
        k(   35) = (  -0.2121320  -0.3535534   0.4949747), wk =   0.0480000
        k(   36) = (   0.4242641   0.1414214  -0.0000000), wk =   0.0480000
        k(   37) = (  -0.2121320  -0.4949747   0.6363961), wk =   0.0960000
        k(   38) = (  -0.1414214  -0.4242641   0.5656854), wk =   0.0960000
        k(   39) = (  -0.0707107  -0.3535534   0.4949747), wk =   0.0960000
        k(   40) = (   0.0000000  -0.2828427   0.4242641), wk =   0.0480000
        k(   41) = (  -0.1414214  -0.5656854   0.7071068), wk =   0.0480000
        k(   42) = (  -0.0707107  -0.4949747   0.6363961), wk =   0.0960000
        k(   43) = (  -0.0000000  -0.4242641   0.5656854), wk =   0.0480000
        k(   44) = (  -0.7071068   0.1414214   0.0000000), wk =   0.0240000
        k(   45) = (  -0.1414214  -0.4242641   0.7071068), wk =   0.0480000
        k(   46) = (  -0.0707107  -0.3535534   0.6363961), wk =   0.0480000
        k(   47) = (  -0.7071068   0.2828427   0.0000000), wk =   0.0240000

                       cryst. coord.
        k(    1) = (   0.0000000   0.0000000   0.0000000), wk =   0.0020000
        k(    2) = (   0.0000000   0.0000000   0.1000000), wk =   0.0160000
        k(    3) = (   0.0000000   0.0000000   0.2000000), wk =   0.0160000
        k(    4) = (   0.0000000   0.0000000   0.3000000), wk =   0.0160000
        k(    5) = (   0.0000000   0.0000000   0.4000000), wk =   0.0160000
        k(    6) = (   0.0000000   0.0000000  -0.5000000), wk =   0.0080000
        k(    7) = (   0.0000000   0.1000000   0.1000000), wk =   0.0120000
        k(    8) = (   0.0000000   0.1000000   0.2000000), wk =   0.0480000
        k(    9) = (   0.0000000   0.1000000   0.3000000), wk =   0.0480000
        k(   10) = (   0.0000000   0.1000000   0.4000000), wk =   0.0480000
        k(   11) = (   0.0000000   0.1000000  -0.5000000), wk =   0.0480000
        k(   12) = (   0.0000000   0.1000000  -0.4000000), wk =   0.0480000
        k(   13) = (   0.0000000   0.1000000  -0.3000000), wk =   0.0480000
        k(   14) = (   0.0000000   0.1000000  -0.2000000), wk =   0.0480000
        k(   15) = (   0.0000000   0.1000000  -0.1000000), wk =   0.0240000
        k(   16) = (   0.0000000   0.2000000   0.2000000), wk =   0.0120000
        k(   17) = (   0.0000000   0.2000000   0.3000000), wk =   0.0480000
        k(   18) = (   0.0000000   0.2000000   0.4000000), wk =   0.0480000
        k(   19) = (   0.0000000   0.2000000  -0.5000000), wk =   0.0480000
        k(   20) = (   0.0000000   0.2000000  -0.4000000), wk =   0.0480000
        k(   21) = (   0.0000000   0.2000000  -0.3000000), wk =   0.0480000
        k(   22) = (   0.0000000   0.2000000  -0.2000000), wk =   0.0240000
        k(   23) = (   0.0000000   0.3000000   0.3000000), wk =   0.0120000
        k(   24) = (   0.0000000   0.3000000   0.4000000), wk =   0.0480000
        k(   25) = (   0.0000000   0.3000000  -0.5000000), wk =   0.0480000
        k(   26) = (   0.0000000   0.3000000  -0.4000000), wk =   0.0480000
        k(   27) = (   0.0000000   0.3000000  -0.3000000), wk =   0.0240000
        k(   28) = (   0.0000000   0.4000000   0.4000000), wk =   0.0120000
        k(   29) = (   0.0000000   0.4000000  -0.5000000), wk =   0.0480000
        k(   30) = (   0.0000000   0.4000000  -0.4000000), wk =   0.0240000
        k(   31) = (   0.0000000  -0.5000000  -0.5000000), wk =   0.0060000
        k(   32) = (   0.1000000   0.2000000   0.3000000), wk =   0.0480000
        k(   33) = (   0.1000000   0.2000000   0.4000000), wk =   0.0960000
        k(   34) = (   0.1000000   0.2000000  -0.5000000), wk =   0.0960000
        k(   35) = (   0.1000000   0.2000000  -0.4000000), wk =   0.0480000
        k(   36) = (   0.1000000   0.3000000   0.4000000), wk =   0.0480000
        k(   37) = (   0.1000000   0.3000000  -0.5000000), wk =   0.0960000
        k(   38) = (   0.1000000   0.3000000  -0.4000000), wk =   0.0960000
        k(   39) = (   0.1000000   0.3000000  -0.3000000), wk =   0.0960000
        k(   40) = (   0.1000000   0.3000000  -0.2000000), wk =   0.0480000
        k(   41) = (   0.1000000   0.4000000  -0.5000000), wk =   0.0480000
        k(   42) = (   0.1000000   0.4000000  -0.4000000), wk =   0.0960000
        k(   43) = (   0.1000000   0.4000000  -0.3000000), wk =   0.0480000
        k(   44) = (   0.1000000  -0.5000000  -0.4000000), wk =   0.0240000
        k(   45) = (   0.2000000   0.4000000  -0.4000000), wk =   0.0480000
        k(   46) = (   0.2000000   0.4000000  -0.3000000), wk =   0.0480000
        k(   47) = (   0.2000000  -0.5000000  -0.3000000), wk =   0.0240000

     Dense  grid:    80347 G-vectors     FFT dimensions: (  64,  64,  64)

     Smooth grid:    43895 G-vectors     FFT dimensions: (  50,  50,  50)

     Dynamical RAM for                 wfc:       0.18 MB

     Dynamical RAM for     wfc (w. buffer):       8.69 MB

     Dynamical RAM for           str. fact:       0.41 MB

     Dynamical RAM for           local pot:       0.00 MB

     Dynamical RAM for          nlocal pot:       0.50 MB

     Dynamical RAM for                qrad:       3.52 MB

     Dynamical RAM for          rho,v,vnew:       1.64 MB

     Dynamical RAM for               rhoin:       0.55 MB

     Dynamical RAM for            rho*nmix:       3.27 MB

     Dynamical RAM for           G-vectors:       0.82 MB

     Dynamical RAM for          h,s,v(r/c):       0.03 MB

     Dynamical RAM for          <psi|beta>:       0.01 MB

     Dynamical RAM for                 psi:       0.36 MB

     Dynamical RAM for                hpsi:       0.36 MB

     Dynamical RAM for                spsi:       0.36 MB

     Dynamical RAM for      wfcinit/wfcrot:       0.37 MB

     Dynamical RAM for           addusdens:      38.22 MB

     Estimated static dynamical RAM per process >      18.47 MB

     Estimated max dynamical RAM per process >      59.95 MB

     Estimated total dynamical RAM >     359.70 MB

     Initial potential from superposition of free atoms

     starting charge      25.9997, renormalised to      26.0000
     Starting wfcs are   14 randomized atomic wfcs

     total cpu time spent up to now is        1.7 secs

     per-process dynamical memory:    29.7 Mb

     Self-consistent Calculation

     iteration #  1     ecut=    80.00 Ry     beta= 0.30
     Davidson diagonalization with overlap

---- Real-time Memory Report at c_bands before calling an iterative solver
            99 MiB given to the printing process from OS
            29 MiB allocation reported by mallinfo(arena+hblkhd)
          1133 MiB available memory on the node where the printing process lives
------------------
     ethr =  1.00E-02,  avg # of iterations =  2.0

     Threshold (ethr) on eigenvalues was too large:
     Diagonalizing with lowered threshold

     Davidson diagonalization with overlap

---- Real-time Memory Report at c_bands before calling an iterative solver
           109 MiB given to the printing process from OS
            32 MiB allocation reported by mallinfo(arena+hblkhd)
          1330 MiB available memory on the node where the printing process lives
------------------
     ethr =  2.04E-04,  avg # of iterations =  4.1

     total cpu time spent up to now is        8.5 secs

     total energy              =    -346.19755654 Ry
     estimated scf accuracy    <       0.05252697 Ry

     iteration #  2     ecut=    80.00 Ry     beta= 0.30
     Davidson diagonalization with overlap

---- Real-time Memory Report at c_bands before calling an iterative solver
           111 MiB given to the printing process from OS
            33 MiB allocation reported by mallinfo(arena+hblkhd)
          1254 MiB available memory on the node where the printing process lives
------------------
     ethr =  2.02E-04,  avg # of iterations =  2.3

     total cpu time spent up to now is       10.3 secs

     total energy              =    -346.20284263 Ry
     estimated scf accuracy    <       0.00614252 Ry

     iteration #  3     ecut=    80.00 Ry     beta= 0.30
     Davidson diagonalization with overlap

---- Real-time Memory Report at c_bands before calling an iterative solver
           111 MiB given to the printing process from OS
            33 MiB allocation reported by mallinfo(arena+hblkhd)
          1222 MiB available memory on the node where the printing process lives
------------------
     ethr =  2.36E-05,  avg # of iterations =  2.5

     total cpu time spent up to now is       12.1 secs

     total energy              =    -346.20376055 Ry
     estimated scf accuracy    <       0.00136813 Ry

     iteration #  4     ecut=    80.00 Ry     beta= 0.30
     Davidson diagonalization with overlap

---- Real-time Memory Report at c_bands before calling an iterative solver
           111 MiB given to the printing process from OS
            34 MiB allocation reported by mallinfo(arena+hblkhd)
          1251 MiB available memory on the node where the printing process lives
------------------
     ethr =  5.26E-06,  avg # of iterations =  2.0

     total cpu time spent up to now is       13.6 secs

     total energy              =    -346.20387513 Ry
     estimated scf accuracy    <       0.00008250 Ry

     iteration #  5     ecut=    80.00 Ry     beta= 0.30
     Davidson diagonalization with overlap

---- Real-time Memory Report at c_bands before calling an iterative solver
           111 MiB given to the printing process from OS
            34 MiB allocation reported by mallinfo(arena+hblkhd)
          1284 MiB available memory on the node where the printing process lives
------------------
     ethr =  3.17E-07,  avg # of iterations =  3.6

     total cpu time spent up to now is       15.3 secs

     total energy              =    -346.20388842 Ry
     estimated scf accuracy    <       0.00001132 Ry

     iteration #  6     ecut=    80.00 Ry     beta= 0.30
     Davidson diagonalization with overlap

---- Real-time Memory Report at c_bands before calling an iterative solver
           112 MiB given to the printing process from OS
            34 MiB allocation reported by mallinfo(arena+hblkhd)
          1248 MiB available memory on the node where the printing process lives
------------------
     ethr =  4.35E-08,  avg # of iterations =  3.9

     total cpu time spent up to now is       17.0 secs

     total energy              =    -346.20389160 Ry
     estimated scf accuracy    <       0.00000240 Ry

     iteration #  7     ecut=    80.00 Ry     beta= 0.30
     Davidson diagonalization with overlap

---- Real-time Memory Report at c_bands before calling an iterative solver
           112 MiB given to the printing process from OS
            34 MiB allocation reported by mallinfo(arena+hblkhd)
          1247 MiB available memory on the node where the printing process lives
------------------
     ethr =  9.22E-09,  avg # of iterations =  2.0

     total cpu time spent up to now is       18.9 secs

     total energy              =    -346.20389207 Ry
     estimated scf accuracy    <       0.00000078 Ry

     iteration #  8     ecut=    80.00 Ry     beta= 0.30
     Davidson diagonalization with overlap

---- Real-time Memory Report at c_bands before calling an iterative solver
           112 MiB given to the printing process from OS
            34 MiB allocation reported by mallinfo(arena+hblkhd)
          1242 MiB available memory on the node where the printing process lives
------------------
     ethr =  3.00E-09,  avg # of iterations =  2.9

     total cpu time spent up to now is       20.7 secs

     total energy              =    -346.20389227 Ry
     estimated scf accuracy    <       0.00000004 Ry

     iteration #  9     ecut=    80.00 Ry     beta= 0.30
     Davidson diagonalization with overlap

---- Real-time Memory Report at c_bands before calling an iterative solver
           112 MiB given to the printing process from OS
            35 MiB allocation reported by mallinfo(arena+hblkhd)
          1216 MiB available memory on the node where the printing process lives
------------------
     ethr =  1.41E-10,  avg # of iterations =  3.4

     total cpu time spent up to now is       22.3 secs

     total energy              =    -346.20389228 Ry
     estimated scf accuracy    <       0.00000002 Ry

     iteration # 10     ecut=    80.00 Ry     beta= 0.30
     Davidson diagonalization with overlap

---- Real-time Memory Report at c_bands before calling an iterative solver
           113 MiB given to the printing process from OS
            35 MiB allocation reported by mallinfo(arena+hblkhd)
          1238 MiB available memory on the node where the printing process lives
------------------
     ethr =  7.41E-11,  avg # of iterations =  4.1

     total cpu time spent up to now is       24.4 secs

     total energy              =    -346.20389228 Ry
     estimated scf accuracy    <       0.00000002 Ry

     iteration # 11     ecut=    80.00 Ry     beta= 0.30
     Davidson diagonalization with overlap

---- Real-time Memory Report at c_bands before calling an iterative solver
           113 MiB given to the printing process from OS
            35 MiB allocation reported by mallinfo(arena+hblkhd)
          1234 MiB available memory on the node where the printing process lives
------------------
     ethr =  6.54E-11,  avg # of iterations =  4.0

     total cpu time spent up to now is       26.2 secs

     total energy              =    -346.20389229 Ry
     estimated scf accuracy    <          1.8E-09 Ry

     iteration # 12     ecut=    80.00 Ry     beta= 0.30
     Davidson diagonalization with overlap

---- Real-time Memory Report at c_bands before calling an iterative solver
           113 MiB given to the printing process from OS
            35 MiB allocation reported by mallinfo(arena+hblkhd)
          1215 MiB available memory on the node where the printing process lives
------------------
     ethr =  6.91E-12,  avg # of iterations =  2.0

     total cpu time spent up to now is       27.6 secs

     total energy              =    -346.20389229 Ry
     estimated scf accuracy    <          6.7E-10 Ry

     iteration # 13     ecut=    80.00 Ry     beta= 0.30
     Davidson diagonalization with overlap

---- Real-time Memory Report at c_bands before calling an iterative solver
           113 MiB given to the printing process from OS
            35 MiB allocation reported by mallinfo(arena+hblkhd)
          1249 MiB available memory on the node where the printing process lives
------------------
     ethr =  2.56E-12,  avg # of iterations =  3.9

     total cpu time spent up to now is       29.3 secs

     End of self-consistent calculation

          k = 0.0000 0.0000 0.0000 (  5577 PWs)   bands (ev):

  -107.6601 -55.9877 -55.9877 -55.9877  -4.5636   0.0905   0.0905   0.0905
     0.6271   0.6271   6.7455   7.4605   7.4605

     occupation numbers 
     1.0000   1.0000   1.0000   1.0000   1.0000   1.0000   1.0000   1.0000
     1.0000   1.0000   1.0000   1.0000   1.0000

          k = 0.0707 0.0707-0.0707 (  5495 PWs)   bands (ev):

  -107.6600 -55.9877 -55.9877 -55.9876  -4.5129   0.1048   0.1048   0.1081
     0.6257   0.6257   5.9085   7.3435   7.3435

     occupation numbers 
     1.0000   1.0000   1.0000   1.0000   1.0000   1.0000   1.0000   1.0000
     1.0000   1.0000   1.0000   1.0000   1.0000

          k = 0.1414 0.1414-0.1414 (  5498 PWs)   bands (ev):

  -107.6600 -55.9877 -55.9877 -55.9877  -4.3757   0.1405   0.1405   0.1791
     0.6248   0.6248   4.6919   7.0669   7.0669

     occupation numbers 
     1.0000   1.0000   1.0000   1.0000   1.0000   1.0000   1.0000   1.0000
     1.0000   1.0000   1.0000   1.0000   1.0000

          k = 0.2121 0.2121-0.2121 (  5471 PWs)   bands (ev):

  -107.6599 -55.9877 -55.9876 -55.9876  -4.1968   0.1799   0.1799   0.3510
     0.6311   0.6311   3.4922   6.7662   6.7662

     occupation numbers 
     1.0000   1.0000   1.0000   1.0000   1.0000   1.0000   1.0000   1.0000
     1.0000   1.0000   1.0000   1.0000   1.0000

          k = 0.2828 0.2828-0.2828 (  5486 PWs)   bands (ev):

  -107.6600 -55.9878 -55.9876 -55.9876  -4.0438   0.2066   0.2066   0.6437
     0.6437   0.6636   2.4691   6.5453   6.5453

     occupation numbers 
     1.0000   1.0000   1.0000   1.0000   1.0000   1.0000   1.0000   1.0000
     1.0000   1.0000   1.0000   1.0000   1.0000

          k =-0.3536-0.3536 0.3536 (  5480 PWs)   bands (ev):

  -107.6600 -55.9878 -55.9876 -55.9876  -3.9834   0.2153   0.2153   0.6506
     0.6506   0.9383   1.9404   6.4648   6.4648

     occupation numbers 
     1.0000   1.0000   1.0000   1.0000   1.0000   1.0000   1.0000   1.0000
     1.0000   1.0000   1.0000   1.0000   1.0000

          k = 0.1414 0.0000 0.0000 (  5493 PWs)   bands (ev):

  -107.6600 -55.9877 -55.9877 -55.9876  -4.4959   0.0966   0.1182   0.1182
     0.6167   0.6335   5.8222   7.1477   7.1477

     occupation numbers 
     1.0000   1.0000   1.0000   1.0000   1.0000   1.0000   1.0000   1.0000
     1.0000   1.0000   1.0000   1.0000   1.0000

          k = 0.2121 0.0707-0.0707 (  5491 PWs)   bands (ev):

  -107.6600 -55.9877 -55.9877 -55.9876  -4.3872   0.1217   0.1547   0.1660
     0.6092   0.6390   4.9379   6.8313   6.8666

     occupation numbers 
     1.0000   1.0000   1.0000   1.0000   1.0000   1.0000   1.0000   1.0000
     1.0000   1.0000   1.0000   1.0000   1.0000

          k = 0.2828 0.1414-0.1414 (  5479 PWs)   bands (ev):

  -107.6600 -55.9877 -55.9877 -55.9876  -4.2212   0.1663   0.1969   0.2888
     0.6142   0.6457   3.8271   6.5113   6.5323

     occupation numbers 
     1.0000   1.0000   1.0000   1.0000   1.0000   1.0000   1.0000   1.0000
     1.0000   1.0000   1.0000   1.0000   1.0000

          k = 0.3536 0.2121-0.2121 (  5486 PWs)   bands (ev):

  -107.6600 -55.9878 -55.9877 -55.9876  -4.0579   0.2022   0.2265   0.5175
     0.6533   0.6624   2.7830   6.1721   6.3444

     occupation numbers 
     1.0000   1.0000   1.0000   1.0000   1.0000   1.0000   1.0000   1.0000
     1.0000   1.0000   1.0000   1.0000   1.0000

          k =-0.2828-0.4243 0.4243 (  5484 PWs)   bands (ev):

  -107.6600 -55.9878 -55.9877 -55.9877  -3.9653   0.2209   0.2362   0.6226
     0.6524   0.9152   2.0535   5.9418   6.3171

     occupation numbers 
     1.0000   1.0000   1.0000   1.0000   1.0000   1.0000   1.0000   1.0000
     1.0000   1.0000   1.0000   1.0000   1.0000

          k =-0.2121-0.3536 0.3536 (  5484 PWs)   bands (ev):

  -107.6600 -55.9878 -55.9877 -55.9877  -3.9855   0.2234   0.2268   0.6304
     0.6374   0.8182   2.2368   5.8735   6.4579

     occupation numbers 
     1.0000   1.0000   1.0000   1.0000   1.0000   1.0000   1.0000   1.0000
     1.0000   1.0000   1.0000   1.0000   1.0000

          k =-0.1414-0.2828 0.2828 (  5468 PWs)   bands (ev):

  -107.6599 -55.9878 -55.9876 -55.9876  -4.1091   0.1992   0.2089   0.4459
     0.6187   0.6600   3.1125   5.9934   6.7303

     occupation numbers 
     1.0000   1.0000   1.0000   1.0000   1.0000   1.0000   1.0000   1.0000
     1.0000   1.0000   1.0000   1.0000   1.0000

          k =-0.0707-0.2121 0.2121 (  5471 PWs)   bands (ev):

  -107.6599 -55.9877 -55.9876 -55.9876  -4.2812   0.1584   0.1755   0.2384
     0.6109   0.6422   4.1871   6.3084   7.0536

     occupation numbers 
     1.0000   1.0000   1.0000   1.0000   1.0000   1.0000   1.0000   1.0000
     1.0000   1.0000   1.0000   1.0000   1.0000

          k = 0.0000-0.1414 0.1414 (  5489 PWs)   bands (ev):

  -107.6600 -55.9877 -55.9876 -55.9876  -4.4332   0.1209   0.1302   0.1446
     0.6159   0.6329   5.2204   6.8143   7.3028

     occupation numbers 
     1.0000   1.0000   1.0000   1.0000   1.0000   1.0000   1.0000   1.0000
     1.0000   1.0000   1.0000   1.0000   1.0000

          k = 0.2828 0.0000 0.0000 (  5469 PWs)   bands (ev):

  -107.6599 -55.9876 -55.9876 -55.9876  -4.3120   0.1283   0.1952   0.1952
     0.5980   0.6503   4.6473   6.4814   6.4814

     occupation numbers 
     1.0000   1.0000   1.0000   1.0000   1.0000   1.0000   1.0000   1.0000
     1.0000   1.0000   1.0000   1.0000   1.0000

          k = 0.3536 0.0707-0.0707 (  5475 PWs)   bands (ev):

  -107.6599 -55.9877 -55.9877 -55.9876  -4.1738   0.1714   0.2437   0.2699
     0.6072   0.6594   3.8931   6.0781   6.1629

     occupation numbers 
     1.0000   1.0000   1.0000   1.0000   1.0000   1.0000   1.0000   1.0000
     1.0000   1.0000   1.0000   1.0000   1.0000

          k = 0.4243 0.1414-0.1414 (  5484 PWs)   bands (ev):

  -107.6600 -55.9878 -55.9877 -55.9877  -4.0218   0.2168   0.2796   0.4146
     0.6649   0.6821   3.0110   5.6138   5.9732

     occupation numbers 
     1.0000   1.0000   1.0000   1.0000   1.0000   1.0000   1.0000   1.0000
     1.0000   1.0000   1.0000   1.0000   1.0000

          k =-0.2121-0.4950 0.4950 (  5472 PWs)   bands (ev):

  -107.6599 -55.9878 -55.9877 -55.9877  -3.9166   0.2403   0.2919   0.5444
     0.6586   0.9041   2.2671   5.2318   5.9628

     occupation numbers 
     1.0000   1.0000   1.0000   1.0000   1.0000   1.0000   1.0000   1.0000
     1.0000   1.0000   1.0000   1.0000   1.0000

          k =-0.1414-0.4243 0.4243 (  5463 PWs)   bands (ev):

  -107.6599 -55.9878 -55.9877 -55.9876  -3.9038   0.2476   0.2804   0.6008
     0.6375   0.9662   2.1289   5.0313   6.1358

     occupation numbers 
     1.0000   1.0000   1.0000   1.0000   1.0000   1.0000   1.0000   1.0000
     1.0000   1.0000   1.0000   1.0000   1.0000

          k =-0.0707-0.3536 0.3536 (  5480 PWs)   bands (ev):

  -107.6600 -55.9878 -55.9877 -55.9876  -3.9889   0.2423   0.2473   0.5545
     0.6143   0.7281   2.7399   5.0921   6.4468

     occupation numbers 
     1.0000   1.0000   1.0000   1.0000   1.0000   1.0000   1.0000   1.0000
     1.0000   1.0000   1.0000   1.0000   1.0000

          k = 0.0000-0.2828 0.2828 (  5494 PWs)   bands (ev):

  -107.6600 -55.9878 -55.9877 -55.9876  -4.1344   0.2003   0.2184   0.3614
     0.6048   0.6652   3.5186   5.5101   6.8003

     occupation numbers 
     1.0000   1.0000   1.0000   1.0000   1.0000   1.0000   1.0000   1.0000
     1.0000   1.0000   1.0000   1.0000   1.0000

          k = 0.4243 0.0000 0.0000 (  5473 PWs)   bands (ev):

  -107.6599 -55.9877 -55.9877 -55.9877  -4.0701   0.1996   0.3012   0.3012
     0.6269   0.6711   3.5189   5.8147   5.8147

     occupation numbers 
     1.0000   1.0000   1.0000   1.0000   1.0000   1.0000   1.0000   1.0000
     1.0000   1.0000   1.0000   1.0000   1.0000

          k = 0.4950 0.0707-0.0707 (  5494 PWs)   bands (ev):

  -107.6600 -55.9878 -55.9877 -55.9877  -3.9473   0.2421   0.3456   0.3731
     0.6776   0.7243   2.9125   5.4094   5.5973

     occupation numbers 
     1.0000   1.0000   1.0000   1.0000   1.0000   1.0000   1.0000   1.0000
     1.0000   1.0000   1.0000   1.0000   1.0000

          k =-0.1414-0.5657 0.5657 (  5479 PWs)   bands (ev):

  -107.6600 -55.9878 -55.9877 -55.9877  -3.8537   0.2682   0.3620   0.4634
     0.6706   0.9446   2.3221   4.9118   5.5704

     occupation numbers 
     1.0000   1.0000   1.0000   1.0000   1.0000   1.0000   1.0000   1.0000
     1.0000   1.0000   1.0000   1.0000   1.0000

          k =-0.0707-0.4950 0.4950 (  5469 PWs)   bands (ev):

  -107.6599 -55.9878 -55.9877 -55.9877  -3.8282   0.2725   0.3472   0.5466
     0.6480   1.1048   2.0460   4.5684   5.7426

     occupation numbers 
     1.0000   1.0000   1.0000   1.0000   1.0000   1.0000   1.0000   1.0000
     1.0000   1.0000   1.0000   1.0000   1.0000

          k =-0.0000-0.4243 0.4243 (  5466 PWs)   bands (ev):

  -107.6599 -55.9878 -55.9877 -55.9876  -3.8808   0.2642   0.3045   0.5907
     0.6243   0.9200   2.3315   4.5817   6.0678

     occupation numbers 
     1.0000   1.0000   1.0000   1.0000   1.0000   1.0000   1.0000   1.0000
     1.0000   1.0000   1.0000   1.0000   1.0000

          k = 0.5657 0.0000 0.0000 (  5498 PWs)   bands (ev):

  -107.6600 -55.9879 -55.9877 -55.9877  -3.8620   0.2560   0.3980   0.3980
     0.6881   0.8318   2.5318   5.3408   5.3408

     occupation numbers 
     1.0000   1.0000   1.0000   1.0000   1.0000   1.0000   1.0000   1.0000
     1.0000   1.0000   1.0000   1.0000   1.0000

          k =-0.0707-0.6364 0.6364 (  5480 PWs)   bands (ev):

  -107.6600 -55.9878 -55.9877 -55.9877  -3.8004   0.2742   0.4177   0.4347
     0.6863   1.0295   2.1356   5.0315   5.2772

     occupation numbers 
     1.0000   1.0000   1.0000   1.0000   1.0000   1.0000   1.0000   1.0000
     1.0000   1.0000   1.0000   1.0000   1.0000

          k = 0.0000-0.5657 0.5657 (  5478 PWs)   bands (ev):

  -107.6600 -55.9878 -55.9877 -55.9877  -3.7879   0.2850   0.3994   0.4818
     0.6683   1.1775   1.9547   4.6440   5.4247

     occupation numbers 
     1.0000   1.0000   1.0000   1.0000   1.0000   1.0000   1.0000   1.0000
     1.0000   1.0000   1.0000   1.0000   1.0000

          k =-0.7071 0.0000 0.0000 (  5466 PWs)   bands (ev):

  -107.6599 -55.9878 -55.9877 -55.9877  -3.7795   0.2666   0.4381   0.4381
     0.6946   1.0891   1.9996   5.1693   5.1693

     occupation numbers 
     1.0000   1.0000   1.0000   1.0000   1.0000   1.0000   1.0000   1.0000
     1.0000   1.0000   1.0000   1.0000   1.0000

          k = 0.2828 0.1414 0.0000 (  5480 PWs)   bands (ev):

  -107.6600 -55.9877 -55.9877 -55.9876  -4.2635   0.1538   0.1985   0.2316
     0.6042   0.6494   4.2491   6.1448   6.7464

     occupation numbers 
     1.0000   1.0000   1.0000   1.0000   1.0000   1.0000   1.0000   1.0000
     1.0000   1.0000   1.0000   1.0000   1.0000

          k = 0.3536 0.2121-0.0707 (  5474 PWs)   bands (ev):

  -107.6599 -55.9878 -55.9877 -55.9876  -4.1036   0.2007   0.2370   0.3782
     0.6204   0.6659   3.3577   5.6382   6.4731

     occupation numbers 
     1.0000   1.0000   1.0000   1.0000   1.0000   1.0000   1.0000   1.0000
     1.0000   1.0000   1.0000   1.0000   1.0000

          k =-0.2828-0.4243 0.5657 (  5474 PWs)   bands (ev):

  -107.6599 -55.9878 -55.9877 -55.9876  -3.9683   0.2327   0.2599   0.5537
     0.6473   0.7821   2.4977   5.3766   6.2078

     occupation numbers 
     1.0000   1.0000   1.0000   1.0000   1.0000   1.0000   1.0000   1.0000
     1.0000   1.0000   1.0000   1.0000   1.0000

          k =-0.2121-0.3536 0.4950 (  5478 PWs)   bands (ev):

  -107.6600 -55.9878 -55.9877 -55.9877  -3.9153   0.2420   0.2681   0.6049
     0.6421   0.9872   2.0486   5.3008   6.0993

     occupation numbers 
     1.0000   1.0000   1.0000   1.0000   1.0000   1.0000   1.0000   1.0000
     1.0000   1.0000   1.0000   1.0000   1.0000

          k = 0.4243 0.1414-0.0000 (  5478 PWs)   bands (ev):

  -107.6600 -55.9878 -55.9877 -55.9877  -4.0425   0.2176   0.2864   0.3539
     0.6463   0.6737   3.2898   5.5194   5.9649

     occupation numbers 
     1.0000   1.0000   1.0000   1.0000   1.0000   1.0000   1.0000   1.0000
     1.0000   1.0000   1.0000   1.0000   1.0000

          k =-0.2121-0.4950 0.6364 (  5484 PWs)   bands (ev):

  -107.6600 -55.9878 -55.9877 -55.9877  -3.9187   0.2589   0.3116   0.4676
     0.6616   0.8102   2.6164   5.0784   5.7367

     occupation numbers 
     1.0000   1.0000   1.0000   1.0000   1.0000   1.0000   1.0000   1.0000
     1.0000   1.0000   1.0000   1.0000   1.0000

          k =-0.1414-0.4243 0.5657 (  5478 PWs)   bands (ev):

  -107.6600 -55.9878 -55.9877 -55.9877  -3.8529   0.2721   0.3213   0.5547
     0.6418   1.0422   2.1163   4.7944   5.6852

     occupation numbers 
     1.0000   1.0000   1.0000   1.0000   1.0000   1.0000   1.0000   1.0000
     1.0000   1.0000   1.0000   1.0000   1.0000

          k =-0.0707-0.3536 0.4950 (  5473 PWs)   bands (ev):

  -107.6599 -55.9878 -55.9877 -55.9877  -3.8730   0.2726   0.3021   0.5773
     0.6288   0.9613   2.2513   4.7199   5.8640

     occupation numbers 
     1.0000   1.0000   1.0000   1.0000   1.0000   1.0000   1.0000   1.0000
     1.0000   1.0000   1.0000   1.0000   1.0000

          k = 0.0000-0.2828 0.4243 (  5480 PWs)   bands (ev):

  -107.6600 -55.9878 -55.9877 -55.9877  -3.9702   0.2538   0.2655   0.5025
     0.6353   0.7395   2.8063   4.9777   6.1821

     occupation numbers 
     1.0000   1.0000   1.0000   1.0000   1.0000   1.0000   1.0000   1.0000
     1.0000   1.0000   1.0000   1.0000   1.0000

          k =-0.1414-0.5657 0.7071 (  5481 PWs)   bands (ev):

  -107.6600 -55.9878 -55.9877 -55.9877  -3.8542   0.2746   0.3686   0.4330
     0.6771   0.8909   2.4389   5.1173   5.3448

     occupation numbers 
     1.0000   1.0000   1.0000   1.0000   1.0000   1.0000   1.0000   1.0000
     1.0000   1.0000   1.0000   1.0000   1.0000

          k =-0.0707-0.4950 0.6364 (  5489 PWs)   bands (ev):

  -107.6600 -55.9878 -55.9877 -55.9877  -3.8008   0.2936   0.3754   0.4941
     0.6580   1.1213   2.0512   4.7447   5.2869

     occupation numbers 
     1.0000   1.0000   1.0000   1.0000   1.0000   1.0000   1.0000   1.0000
     1.0000   1.0000   1.0000   1.0000   1.0000

          k =-0.0000-0.4243 0.5657 (  5474 PWs)   bands (ev):

  -107.6599 -55.9878 -55.9877 -55.9877  -3.8084   0.2904   0.3529   0.5581
     0.6283   1.1526   2.0135   4.5169   5.5022

     occupation numbers 
     1.0000   1.0000   1.0000   1.0000   1.0000   1.0000   1.0000   1.0000
     1.0000   1.0000   1.0000   1.0000   1.0000

          k =-0.7071 0.1414 0.0000 (  5480 PWs)   bands (ev):

  -107.6600 -55.9878 -55.9877 -55.9877  -3.7800   0.2872   0.4097   0.4609
     0.6785   1.1496   1.9684   5.0247   5.0654

     occupation numbers 
     1.0000   1.0000   1.0000   1.0000   1.0000   1.0000   1.0000   1.0000
     1.0000   1.0000   1.0000   1.0000   1.0000

          k =-0.1414-0.4243 0.7071 (  5486 PWs)   bands (ev):

  -107.6600 -55.9878 -55.9877 -55.9877  -3.8337   0.3022   0.3272   0.5287
     0.6389   1.0224   2.2182   4.7244   5.4043

     occupation numbers 
     1.0000   1.0000   1.0000   1.0000   1.0000   1.0000   1.0000   1.0000
     1.0000   1.0000   1.0000   1.0000   1.0000

          k =-0.0707-0.3536 0.6364 (  5474 PWs)   bands (ev):

  -107.6599 -55.9878 -55.9877 -55.9877  -3.8010   0.3069   0.3473   0.5751
     0.6027   1.1793   1.9916   4.6310   5.2361

     occupation numbers 
     1.0000   1.0000   1.0000   1.0000   1.0000   1.0000   1.0000   1.0000
     1.0000   1.0000   1.0000   1.0000   1.0000

          k =-0.7071 0.2828 0.0000 (  5478 PWs)   bands (ev):

  -107.6600 -55.9878 -55.9877 -55.9877  -3.7808   0.3133   0.3709   0.5351
     0.6248   1.2433   1.9147   4.8085   4.9170

     occupation numbers 
     1.0000   1.0000   1.0000   1.0000   1.0000   1.0000   1.0000   1.0000
     1.0000   1.0000   1.0000   1.0000   1.0000

     highest occupied level (ev):     7.4605

!    total energy              =    -346.20389229 Ry
     estimated scf accuracy    <          5.0E-11 Ry

     The total energy is the sum of the following terms:
     one-electron contribution =    -226.97697339 Ry
     hartree contribution      =     116.20664442 Ry
     xc contribution           =     -55.72287521 Ry
     ewald contribution        =    -179.71068811 Ry

     convergence has been achieved in  13 iterations

     Writing all to output data dir /home/User/opencode_workspace/DFT/calculations/hgte/conv_scf_k10/out/pwscf.save/ :
     XML data file, charge density, pseudopotentials, collected wavefunctions

     init_run     :      1.27s CPU      1.41s WALL (       1 calls)
     electrons    :     23.44s CPU     27.62s WALL (       1 calls)

     Called by init_run:
     wfcinit      :      0.62s CPU      0.68s WALL (       1 calls)
     wfcinit:atom :      0.01s CPU      0.01s WALL (      47 calls)
     wfcinit:wfcr :      0.56s CPU      0.62s WALL (      47 calls)
     potinit      :      0.13s CPU      0.14s WALL (       1 calls)
     hinit0       :      0.33s CPU      0.34s WALL (       1 calls)

     Called by electrons:
     c_bands      :     17.80s CPU     19.61s WALL (      14 calls)
     sum_band     :      4.44s CPU      6.09s WALL (      14 calls)
     v_of_rho     :      0.24s CPU      0.30s WALL (      14 calls)
     v_h          :      0.01s CPU      0.02s WALL (      14 calls)
     v_xc         :      0.23s CPU      0.28s WALL (      14 calls)
     newd         :      1.00s CPU      1.72s WALL (      14 calls)
     mix_rho      :      0.03s CPU      0.03s WALL (      14 calls)

     Called by c_bands:
     init_us_2    :      0.39s CPU      0.42s WALL (    1363 calls)
     cegterg      :     16.99s CPU     18.76s WALL (     658 calls)

     Called by sum_band:
     sum_band:wei :      0.00s CPU      0.00s WALL (      14 calls)
     sum_band:loo :      2.87s CPU      3.19s WALL (      14 calls)
     sum_band:buf :      0.01s CPU      0.01s WALL (     658 calls)
     sum_band:ini :      0.19s CPU      0.21s WALL (     658 calls)
     sum_band:cal :      0.20s CPU      0.22s WALL (     658 calls)
     sum_band:bec :      0.01s CPU      0.01s WALL (     658 calls)
     addusdens    :      1.02s CPU      2.34s WALL (      14 calls)
                                        0.00s GPU  (      14 calls)
     addusd:skk   :      0.00s CPU      0.00s WALL (      28 calls)
                                        0.00s GPU  (      28 calls)

     Called by *egterg:
     cdiaghg      :      0.50s CPU      0.53s WALL (    2616 calls)
     cegterg:over :      0.59s CPU      0.63s WALL (    2005 calls)
     cegterg:upda :      0.14s CPU      0.15s WALL (    2005 calls)
     cegterg:last :      0.25s CPU      0.26s WALL (    1370 calls)
     h_psi        :     15.18s CPU     16.88s WALL (    2710 calls)
     s_psi        :      0.20s CPU      0.22s WALL (    2710 calls)
     g_psi        :      0.08s CPU      0.08s WALL (    2005 calls)

     Called by h_psi:
     h_psi:calbec :      0.72s CPU      0.79s WALL (    2710 calls)
     vloc_psi     :     14.15s CPU     15.76s WALL (    2710 calls)
                                        0.00s GPU  (    2710 calls)
     add_vuspsi   :      0.24s CPU      0.27s WALL (    2710 calls)

     General routines
     calbec       :      0.91s CPU      1.00s WALL (    3368 calls)
     fft          :      0.28s CPU      0.31s WALL (     181 calls)
     ffts         :      0.11s CPU      0.11s WALL (      28 calls)
     fftw         :     15.59s CPU     17.38s WALL (   55476 calls)
     interpolate  :      0.11s CPU      0.11s WALL (      14 calls)

     Parallel routines

     PWSCF        :     25.09s CPU     29.49s WALL


   This run was terminated on:  19:18:27  22Sep2026            

=------------------------------------------------------------------------------=
   JOB DONE.
=------------------------------------------------------------------------------=
