
     Program PWSCF v.7.5 starts on 22Sep2026 at 19:43:13 

     This program is part of the open-source Quantum ESPRESSO suite
     for quantum simulation of materials; please cite
         "P. Giannozzi et al., J. Phys.:Condens. Matter 21 395502 (2009);
         "P. Giannozzi et al., J. Phys.:Condens. Matter 29 465901 (2017);
         "P. Giannozzi et al., J. Chem. Phys. 152 154105 (2020);
          URL http://www.quantum-espresso.org", 
     in publications or presentations arising from this work. More details at
     http://www.quantum-espresso.org/quote

     Parallel version (MPI & OpenMP), running on       6 processor cores
     Number of MPI processes:                 6
     Threads/MPI process:                     1

     MPI processes distributed on     1 nodes
     1671 MiB available memory on the printing compute node when the environment starts

     Reading input from pw.in

     Current dimensions of program PWSCF are:
     Max number of different atomic species (ntypx) = 10
     Max number of k-points (npk) =  40000
     Max angular momentum in pseudopotentials (lmaxx) =  4
     file Hg.pbe-spn-rrkjus_psl.1.0.0.UPF: wavefunction(s)  5P renormalized
     file Te.pbe-n-rrkjus_psl.1.0.0.UPF: wavefunction(s)  5S renormalized
     Message from routine setup:
     using ibrav=0 with symmetry is DISCOURAGED, use correct ibrav instead

     R & G space division:  proc/nbgrp/npool/nimage =       6
     Subspace diagonalization in iterative solution of the eigenvalue problem:
     a serial algorithm will be used


     Parallelization info
     --------------------
     sticks:   dense  smooth     PW     G-vecs:    dense   smooth      PW
     Min         566     374    108                21667    11786    1776
     Max         568     375    109                21668    11789    1777
     Sum        3403    2245    649               130005    70721   10657

     Using Slab Decomposition



     bravais-lattice index     =            0
     lattice parameter (alat)  =       8.6227  a.u.
     unit-cell volume          =     453.3375 (a.u.)^3
     number of atoms/cell      =            2
     number of atomic types    =            2
     number of electrons       =        26.00
     number of Kohn-Sham states=           13
     kinetic-energy cutoff     =     110.0000  Ry
     charge density cutoff     =     660.0000  Ry
     scf convergence threshold =      1.0E-10
     mixing beta               =       0.3000
     number of iterations used =            8  plain     mixing
     Exchange-correlation= PBE
                           (   1   4   3   4   0   0   0)

     celldm(1)=   8.622745  celldm(2)=   0.000000  celldm(3)=   0.000000
     celldm(4)=   0.000000  celldm(5)=   0.000000  celldm(6)=   0.000000

     crystal axes: (cart. coord. in units of alat)
               a(1) = (   0.000000   0.707107   0.707107 )  
               a(2) = (   0.707107   0.000000   0.707107 )  
               a(3) = (   0.707107   0.707107   0.000000 )  

     reciprocal axes: (cart. coord. in units 2 pi/alat)
               b(1) = ( -0.707107  0.707107  0.707107 )  
               b(2) = (  0.707107 -0.707107  0.707107 )  
               b(3) = (  0.707107  0.707107 -0.707107 )  


     PseudoPot. # 1 for Hg read from file:
     /home/User/opencode_workspace/DFT/pseudopotentials/Hg.pbe-spn-rrkjus_psl.1.0.0.UPF
     MD5 check sum: f568566075d917e14d67c96ef6763253
     Pseudo is Ultrasoft + core correction, Zval = 20.0
     Generated using &quot;atomic&quot; code by A. Dal Corso  v.6.3
     Using radial grid of 1279 points,  6 beta functions with: 
                l(1) =   0
                l(2) =   0
                l(3) =   1
                l(4) =   1
                l(5) =   2
                l(6) =   2
     Q(r) pseudized with 0 coefficients 


     PseudoPot. # 2 for Te read from file:
     /home/User/opencode_workspace/DFT/pseudopotentials/Te.pbe-n-rrkjus_psl.1.0.0.UPF
     MD5 check sum: 203a1e86ef55f0cd9de2762a27c58f54
     Pseudo is Ultrasoft + core correction, Zval =  6.0
     Generated using &quot;atomic&quot; code by A. Dal Corso  v.6.3
     Using radial grid of 1245 points,  6 beta functions with: 
                l(1) =   0
                l(2) =   0
                l(3) =   1
                l(4) =   1
                l(5) =   2
                l(6) =   2
     Q(r) pseudized with 0 coefficients 


     atomic species   valence    mass     pseudopotential
     Hg               20.00   200.59200     Hg( 1.00)
     Te                6.00   127.60000     Te( 1.00)

     24 Sym. Ops. (no inversion) found


                                    s                        frac. trans.

      isym =  1     identity                                     

 cryst.   s( 1) = (     1          0          0      )
                  (     0          1          0      )
                  (     0          0          1      )

 cart.    s( 1) = (  1.0000000  0.0000000  0.0000000 )
                  (  0.0000000  1.0000000  0.0000000 )
                  (  0.0000000  0.0000000  1.0000000 )


      isym =  2     180 deg rotation - cart. axis [0,0,1]        

 cryst.   s( 2) = (     0          1         -1      )
                  (     1          0         -1      )
                  (     0          0         -1      )

 cart.    s( 2) = ( -1.0000000  0.0000000  0.0000000 )
                  (  0.0000000 -1.0000000  0.0000000 )
                  (  0.0000000  0.0000000  1.0000000 )


      isym =  3     180 deg rotation - cart. axis [0,1,0]        

 cryst.   s( 3) = (     0         -1          1      )
                  (     0         -1          0      )
                  (     1         -1          0      )

 cart.    s( 3) = ( -1.0000000  0.0000000  0.0000000 )
                  (  0.0000000  1.0000000  0.0000000 )
                  (  0.0000000  0.0000000 -1.0000000 )


      isym =  4     180 deg rotation - cart. axis [1,0,0]        

 cryst.   s( 4) = (    -1          0          0      )
                  (    -1          0          1      )
                  (    -1          1          0      )

 cart.    s( 4) = (  1.0000000  0.0000000  0.0000000 )
                  (  0.0000000 -1.0000000  0.0000000 )
                  (  0.0000000  0.0000000 -1.0000000 )


      isym =  5     120 deg rotation - cart. axis [-1,-1,-1]     

 cryst.   s( 5) = (     0          0          1      )
                  (     1          0          0      )
                  (     0          1          0      )

 cart.    s( 5) = (  0.0000000  1.0000000  0.0000000 )
                  (  0.0000000  0.0000000  1.0000000 )
                  (  1.0000000  0.0000000  0.0000000 )


      isym =  6     120 deg rotation - cart. axis [-1,1,1]       

 cryst.   s( 6) = (     1         -1          0      )
                  (     0         -1          1      )
                  (     0         -1          0      )

 cart.    s( 6) = (  0.0000000 -1.0000000  0.0000000 )
                  (  0.0000000  0.0000000  1.0000000 )
                  ( -1.0000000  0.0000000  0.0000000 )


      isym =  7     120 deg rotation - cart. axis [1,1,-1]       

 cryst.   s( 7) = (    -1          1          0      )
                  (    -1          0          0      )
                  (    -1          0          1      )

 cart.    s( 7) = (  0.0000000  1.0000000  0.0000000 )
                  (  0.0000000  0.0000000 -1.0000000 )
                  ( -1.0000000  0.0000000  0.0000000 )


      isym =  8     120 deg rotation - cart. axis [1,-1,1]       

 cryst.   s( 8) = (     0          0         -1      )
                  (     0          1         -1      )
                  (     1          0         -1      )

 cart.    s( 8) = (  0.0000000 -1.0000000  0.0000000 )
                  (  0.0000000  0.0000000 -1.0000000 )
                  (  1.0000000  0.0000000  0.0000000 )


      isym =  9     120 deg rotation - cart. axis [1,1,1]        

 cryst.   s( 9) = (     0          1          0      )
                  (     0          0          1      )
                  (     1          0          0      )

 cart.    s( 9) = (  0.0000000  0.0000000  1.0000000 )
                  (  1.0000000  0.0000000  0.0000000 )
                  (  0.0000000  1.0000000  0.0000000 )


      isym = 10     120 deg rotation - cart. axis [-1,1,-1]      

 cryst.   s(10) = (    -1          0          1      )
                  (    -1          1          0      )
                  (    -1          0          0      )

 cart.    s(10) = (  0.0000000  0.0000000  1.0000000 )
                  ( -1.0000000  0.0000000  0.0000000 )
                  (  0.0000000 -1.0000000  0.0000000 )


      isym = 11     120 deg rotation - cart. axis [1,-1,-1]      

 cryst.   s(11) = (     1          0         -1      )
                  (     0          0         -1      )
                  (     0          1         -1      )

 cart.    s(11) = (  0.0000000  0.0000000 -1.0000000 )
                  ( -1.0000000  0.0000000  0.0000000 )
                  (  0.0000000  1.0000000  0.0000000 )


      isym = 12     120 deg rotation - cart. axis [-1,-1,1]      

 cryst.   s(12) = (     0         -1          0      )
                  (     1         -1          0      )
                  (     0         -1          1      )

 cart.    s(12) = (  0.0000000  0.0000000 -1.0000000 )
                  (  1.0000000  0.0000000  0.0000000 )
                  (  0.0000000 -1.0000000  0.0000000 )


      isym = 13     inv. 180 deg rotation - cart. axis [1,1,0]   

 cryst.   s(13) = (     1          0         -1      )
                  (     0          1         -1      )
                  (     0          0         -1      )

 cart.    s(13) = (  0.0000000 -1.0000000  0.0000000 )
                  ( -1.0000000  0.0000000  0.0000000 )
                  (  0.0000000  0.0000000  1.0000000 )


      isym = 14     inv. 180 deg rotation - cart. axis [1,-1,0]  

 cryst.   s(14) = (     0          1          0      )
                  (     1          0          0      )
                  (     0          0          1      )

 cart.    s(14) = (  0.0000000  1.0000000  0.0000000 )
                  (  1.0000000  0.0000000  0.0000000 )
                  (  0.0000000  0.0000000  1.0000000 )


      isym = 15     inv.  90 deg rotation - cart. axis [0,0,-1]  

 cryst.   s(15) = (     0         -1          0      )
                  (     0         -1          1      )
                  (     1         -1          0      )

 cart.    s(15) = (  0.0000000 -1.0000000  0.0000000 )
                  (  1.0000000  0.0000000  0.0000000 )
                  (  0.0000000  0.0000000 -1.0000000 )


      isym = 16     inv.  90 deg rotation - cart. axis [0,0,1]   

 cryst.   s(16) = (    -1          0          1      )
                  (    -1          0          0      )
                  (    -1          1          0      )

 cart.    s(16) = (  0.0000000  1.0000000  0.0000000 )
                  ( -1.0000000  0.0000000  0.0000000 )
                  (  0.0000000  0.0000000 -1.0000000 )


      isym = 17     inv. 180 deg rotation - cart. axis [1,0,1]   

 cryst.   s(17) = (     1         -1          0      )
                  (     0         -1          0      )
                  (     0         -1          1      )

 cart.    s(17) = (  0.0000000  0.0000000 -1.0000000 )
                  (  0.0000000  1.0000000  0.0000000 )
                  ( -1.0000000  0.0000000  0.0000000 )


      isym = 18     inv. 180 deg rotation - cart. axis [-1,0,1]  

 cryst.   s(18) = (     0          0          1      )
                  (     0          1          0      )
                  (     1          0          0      )

 cart.    s(18) = (  0.0000000  0.0000000  1.0000000 )
                  (  0.0000000  1.0000000  0.0000000 )
                  (  1.0000000  0.0000000  0.0000000 )


      isym = 19     inv.  90 deg rotation - cart. axis [0,1,0]   

 cryst.   s(19) = (     0          0         -1      )
                  (     1          0         -1      )
                  (     0          1         -1      )

 cart.    s(19) = (  0.0000000  0.0000000 -1.0000000 )
                  (  0.0000000 -1.0000000  0.0000000 )
                  (  1.0000000  0.0000000  0.0000000 )


      isym = 20     inv.  90 deg rotation - cart. axis [0,-1,0]  

 cryst.   s(20) = (    -1          1          0      )
                  (    -1          0          1      )
                  (    -1          0          0      )

 cart.    s(20) = (  0.0000000  0.0000000  1.0000000 )
                  (  0.0000000 -1.0000000  0.0000000 )
                  ( -1.0000000  0.0000000  0.0000000 )


      isym = 21     inv. 180 deg rotation - cart. axis [0,1,1]   

 cryst.   s(21) = (    -1          0          0      )
                  (    -1          1          0      )
                  (    -1          0          1      )

 cart.    s(21) = (  1.0000000  0.0000000  0.0000000 )
                  (  0.0000000  0.0000000 -1.0000000 )
                  (  0.0000000 -1.0000000  0.0000000 )


      isym = 22     inv. 180 deg rotation - cart. axis [0,1,-1]  

 cryst.   s(22) = (     1          0          0      )
                  (     0          0          1      )
                  (     0          1          0      )

 cart.    s(22) = (  1.0000000  0.0000000  0.0000000 )
                  (  0.0000000  0.0000000  1.0000000 )
                  (  0.0000000  1.0000000  0.0000000 )


      isym = 23     inv.  90 deg rotation - cart. axis [-1,0,0]  

 cryst.   s(23) = (     0          1         -1      )
                  (     0          0         -1      )
                  (     1          0         -1      )

 cart.    s(23) = ( -1.0000000  0.0000000  0.0000000 )
                  (  0.0000000  0.0000000 -1.0000000 )
                  (  0.0000000  1.0000000  0.0000000 )


      isym = 24     inv.  90 deg rotation - cart. axis [1,0,0]   

 cryst.   s(24) = (     0         -1          1      )
                  (     1         -1          0      )
                  (     0         -1          0      )

 cart.    s(24) = ( -1.0000000  0.0000000  0.0000000 )
                  (  0.0000000  0.0000000  1.0000000 )
                  (  0.0000000 -1.0000000  0.0000000 )


   Cartesian axes

     site n.     atom                  positions (alat units)
         1        Hg     tau(   1) = (   0.0000000   0.0000000   0.0000000  )
         2        Te     tau(   2) = (   0.3535534   0.3535534   0.3535534  )

   Crystallographic axes

     site n.     atom                  positions (cryst. coord.)
         1        Hg     tau(   1) = (  0.0000000  0.0000000  0.0000000  )
         2        Te     tau(   2) = (  0.2500000  0.2500000  0.2500000  )

     number of k points=    29
                       cart. coord. in units 2pi/alat
        k(    1) = (   0.0000000   0.0000000   0.0000000), wk =   0.0039062
        k(    2) = (   0.0883883   0.0883883  -0.0883883), wk =   0.0312500
        k(    3) = (   0.1767767   0.1767767  -0.1767767), wk =   0.0312500
        k(    4) = (   0.2651650   0.2651650  -0.2651650), wk =   0.0312500
        k(    5) = (  -0.3535534  -0.3535534   0.3535534), wk =   0.0156250
        k(    6) = (   0.1767767   0.0000000   0.0000000), wk =   0.0234375
        k(    7) = (   0.2651650   0.0883883  -0.0883883), wk =   0.0937500
        k(    8) = (   0.3535534   0.1767767  -0.1767767), wk =   0.0937500
        k(    9) = (  -0.2651650  -0.4419417   0.4419417), wk =   0.0937500
        k(   10) = (  -0.1767767  -0.3535534   0.3535534), wk =   0.0937500
        k(   11) = (  -0.0883883  -0.2651650   0.2651650), wk =   0.0937500
        k(   12) = (   0.0000000  -0.1767767   0.1767767), wk =   0.0468750
        k(   13) = (   0.3535534   0.0000000   0.0000000), wk =   0.0234375
        k(   14) = (   0.4419417   0.0883883  -0.0883883), wk =   0.0937500
        k(   15) = (  -0.1767767  -0.5303301   0.5303301), wk =   0.0937500
        k(   16) = (  -0.0883883  -0.4419417   0.4419417), wk =   0.0937500
        k(   17) = (   0.0000000  -0.3535534   0.3535534), wk =   0.0468750
        k(   18) = (   0.5303301   0.0000000   0.0000000), wk =   0.0234375
        k(   19) = (  -0.0883883  -0.6187184   0.6187184), wk =   0.0937500
        k(   20) = (   0.0000000  -0.5303301   0.5303301), wk =   0.0468750
        k(   21) = (  -0.7071068   0.0000000   0.0000000), wk =   0.0117188
        k(   22) = (   0.3535534   0.1767767   0.0000000), wk =   0.0937500
        k(   23) = (  -0.2651650  -0.4419417   0.6187184), wk =   0.1875000
        k(   24) = (  -0.1767767  -0.3535534   0.5303301), wk =   0.0937500
        k(   25) = (  -0.1767767  -0.5303301   0.7071068), wk =   0.0937500
        k(   26) = (  -0.0883883  -0.4419417   0.6187184), wk =   0.1875000
        k(   27) = (   0.0000000  -0.3535534   0.5303301), wk =   0.0937500
        k(   28) = (  -0.7071068   0.1767767   0.0000000), wk =   0.0468750
        k(   29) = (  -0.7071068   0.3535534   0.0000000), wk =   0.0234375

                       cryst. coord.
        k(    1) = (   0.0000000   0.0000000   0.0000000), wk =   0.0039062
        k(    2) = (   0.0000000   0.0000000   0.1250000), wk =   0.0312500
        k(    3) = (   0.0000000   0.0000000   0.2500000), wk =   0.0312500
        k(    4) = (   0.0000000   0.0000000   0.3750000), wk =   0.0312500
        k(    5) = (   0.0000000   0.0000000  -0.5000000), wk =   0.0156250
        k(    6) = (   0.0000000   0.1250000   0.1250000), wk =   0.0234375
        k(    7) = (   0.0000000   0.1250000   0.2500000), wk =   0.0937500
        k(    8) = (   0.0000000   0.1250000   0.3750000), wk =   0.0937500
        k(    9) = (   0.0000000   0.1250000  -0.5000000), wk =   0.0937500
        k(   10) = (   0.0000000   0.1250000  -0.3750000), wk =   0.0937500
        k(   11) = (   0.0000000   0.1250000  -0.2500000), wk =   0.0937500
        k(   12) = (   0.0000000   0.1250000  -0.1250000), wk =   0.0468750
        k(   13) = (   0.0000000   0.2500000   0.2500000), wk =   0.0234375
        k(   14) = (   0.0000000   0.2500000   0.3750000), wk =   0.0937500
        k(   15) = (   0.0000000   0.2500000  -0.5000000), wk =   0.0937500
        k(   16) = (   0.0000000   0.2500000  -0.3750000), wk =   0.0937500
        k(   17) = (   0.0000000   0.2500000  -0.2500000), wk =   0.0468750
        k(   18) = (   0.0000000   0.3750000   0.3750000), wk =   0.0234375
        k(   19) = (   0.0000000   0.3750000  -0.5000000), wk =   0.0937500
        k(   20) = (   0.0000000   0.3750000  -0.3750000), wk =   0.0468750
        k(   21) = (   0.0000000  -0.5000000  -0.5000000), wk =   0.0117188
        k(   22) = (   0.1250000   0.2500000   0.3750000), wk =   0.0937500
        k(   23) = (   0.1250000   0.2500000  -0.5000000), wk =   0.1875000
        k(   24) = (   0.1250000   0.2500000  -0.3750000), wk =   0.0937500
        k(   25) = (   0.1250000   0.3750000  -0.5000000), wk =   0.0937500
        k(   26) = (   0.1250000   0.3750000  -0.3750000), wk =   0.1875000
        k(   27) = (   0.1250000   0.3750000  -0.2500000), wk =   0.0937500
        k(   28) = (   0.1250000  -0.5000000  -0.3750000), wk =   0.0468750
        k(   29) = (   0.2500000  -0.5000000  -0.2500000), wk =   0.0234375

     Dense  grid:   130005 G-vectors     FFT dimensions: (  72,  72,  72)

     Smooth grid:    70721 G-vectors     FFT dimensions: (  60,  60,  60)

     Dynamical RAM for                 wfc:       0.29 MB

     Dynamical RAM for     wfc (w. buffer):       8.76 MB

     Dynamical RAM for           str. fact:       0.66 MB

     Dynamical RAM for           local pot:       0.00 MB

     Dynamical RAM for          nlocal pot:       0.81 MB

     Dynamical RAM for                qrad:       4.12 MB

     Dynamical RAM for          rho,v,vnew:       2.42 MB

     Dynamical RAM for               rhoin:       0.81 MB

     Dynamical RAM for            rho*nmix:       5.29 MB

     Dynamical RAM for           G-vectors:       1.33 MB

     Dynamical RAM for          h,s,v(r/c):       0.03 MB

     Dynamical RAM for          <psi|beta>:       0.01 MB

     Dynamical RAM for                 psi:       0.58 MB

     Dynamical RAM for                hpsi:       0.58 MB

     Dynamical RAM for                spsi:       0.58 MB

     Dynamical RAM for      wfcinit/wfcrot:       0.59 MB

     Dynamical RAM for           addusdens:      61.83 MB

     Estimated static dynamical RAM per process >      22.27 MB

     Estimated max dynamical RAM per process >      89.39 MB

     Estimated total dynamical RAM >     536.31 MB

     Initial potential from superposition of free atoms

     starting charge      25.9997, renormalised to      26.0000
     Starting wfcs are   14 randomized atomic wfcs

     total cpu time spent up to now is        2.4 secs

     per-process dynamical memory:    34.3 Mb

     Self-consistent Calculation

     iteration #  1     ecut=   110.00 Ry     beta= 0.30
     Davidson diagonalization with overlap

---- Real-time Memory Report at c_bands before calling an iterative solver
           126 MiB given to the printing process from OS
            33 MiB allocation reported by mallinfo(arena+hblkhd)
          1218 MiB available memory on the node where the printing process lives
------------------
     ethr =  1.00E-02,  avg # of iterations =  2.0

     Threshold (ethr) on eigenvalues was too large:
     Diagonalizing with lowered threshold

     Davidson diagonalization with overlap

---- Real-time Memory Report at c_bands before calling an iterative solver
           136 MiB given to the printing process from OS
            38 MiB allocation reported by mallinfo(arena+hblkhd)
          1212 MiB available memory on the node where the printing process lives
------------------
     ethr =  2.04E-04,  avg # of iterations =  3.9

     total cpu time spent up to now is        6.1 secs

     total energy              =    -346.19948820 Ry
     estimated scf accuracy    <       0.05265748 Ry

     iteration #  2     ecut=   110.00 Ry     beta= 0.30
     Davidson diagonalization with overlap

---- Real-time Memory Report at c_bands before calling an iterative solver
           141 MiB given to the printing process from OS
            43 MiB allocation reported by mallinfo(arena+hblkhd)
          1204 MiB available memory on the node where the printing process lives
------------------
     ethr =  2.03E-04,  avg # of iterations =  2.0

     total cpu time spent up to now is        7.6 secs

     total energy              =    -346.20453420 Ry
     estimated scf accuracy    <       0.00631643 Ry

     iteration #  3     ecut=   110.00 Ry     beta= 0.30
     Davidson diagonalization with overlap

---- Real-time Memory Report at c_bands before calling an iterative solver
           141 MiB given to the printing process from OS
            43 MiB allocation reported by mallinfo(arena+hblkhd)
          1230 MiB available memory on the node where the printing process lives
------------------
     ethr =  2.43E-05,  avg # of iterations =  3.1

     total cpu time spent up to now is        9.1 secs

     total energy              =    -346.20583201 Ry
     estimated scf accuracy    <       0.00136071 Ry

     iteration #  4     ecut=   110.00 Ry     beta= 0.30
     Davidson diagonalization with overlap

---- Real-time Memory Report at c_bands before calling an iterative solver
           142 MiB given to the printing process from OS
            43 MiB allocation reported by mallinfo(arena+hblkhd)
          1233 MiB available memory on the node where the printing process lives
------------------
     ethr =  5.23E-06,  avg # of iterations =  2.0

     total cpu time spent up to now is       10.6 secs

     total energy              =    -346.20594378 Ry
     estimated scf accuracy    <       0.00012590 Ry

     iteration #  5     ecut=   110.00 Ry     beta= 0.30
     Davidson diagonalization with overlap

---- Real-time Memory Report at c_bands before calling an iterative solver
           142 MiB given to the printing process from OS
            44 MiB allocation reported by mallinfo(arena+hblkhd)
          1231 MiB available memory on the node where the printing process lives
------------------
     ethr =  4.84E-07,  avg # of iterations =  2.6

     total cpu time spent up to now is       12.2 secs

     total energy              =    -346.20596031 Ry
     estimated scf accuracy    <       0.00000772 Ry

     iteration #  6     ecut=   110.00 Ry     beta= 0.30
     Davidson diagonalization with overlap

---- Real-time Memory Report at c_bands before calling an iterative solver
           143 MiB given to the printing process from OS
            44 MiB allocation reported by mallinfo(arena+hblkhd)
          1224 MiB available memory on the node where the printing process lives
------------------
     ethr =  2.97E-08,  avg # of iterations =  4.2

     total cpu time spent up to now is       13.9 secs

     total energy              =    -346.20596290 Ry
     estimated scf accuracy    <       0.00000223 Ry

     iteration #  7     ecut=   110.00 Ry     beta= 0.30
     Davidson diagonalization with overlap

---- Real-time Memory Report at c_bands before calling an iterative solver
           143 MiB given to the printing process from OS
            44 MiB allocation reported by mallinfo(arena+hblkhd)
          1227 MiB available memory on the node where the printing process lives
------------------
     ethr =  8.59E-09,  avg # of iterations =  3.7

     total cpu time spent up to now is       15.8 secs

     total energy              =    -346.20596306 Ry
     estimated scf accuracy    <       0.00000441 Ry

     iteration #  8     ecut=   110.00 Ry     beta= 0.30
     Davidson diagonalization with overlap

---- Real-time Memory Report at c_bands before calling an iterative solver
           143 MiB given to the printing process from OS
            45 MiB allocation reported by mallinfo(arena+hblkhd)
          1247 MiB available memory on the node where the printing process lives
------------------
     ethr =  8.59E-09,  avg # of iterations =  2.2

     total cpu time spent up to now is       17.6 secs

     total energy              =    -346.20596376 Ry
     estimated scf accuracy    <       0.00000009 Ry

     iteration #  9     ecut=   110.00 Ry     beta= 0.30
     Davidson diagonalization with overlap

---- Real-time Memory Report at c_bands before calling an iterative solver
           144 MiB given to the printing process from OS
            45 MiB allocation reported by mallinfo(arena+hblkhd)
          1213 MiB available memory on the node where the printing process lives
------------------
     ethr =  3.46E-10,  avg # of iterations =  4.9

     total cpu time spent up to now is       20.0 secs

     total energy              =    -346.20596382 Ry
     estimated scf accuracy    <       0.00000002 Ry

     iteration # 10     ecut=   110.00 Ry     beta= 0.30
     Davidson diagonalization with overlap

---- Real-time Memory Report at c_bands before calling an iterative solver
           144 MiB given to the printing process from OS
            46 MiB allocation reported by mallinfo(arena+hblkhd)
          1215 MiB available memory on the node where the printing process lives
------------------
     ethr =  7.91E-11,  avg # of iterations =  3.8

     total cpu time spent up to now is       21.6 secs

     total energy              =    -346.20596383 Ry
     estimated scf accuracy    <          1.1E-09 Ry

     iteration # 11     ecut=   110.00 Ry     beta= 0.30
     Davidson diagonalization with overlap

---- Real-time Memory Report at c_bands before calling an iterative solver
           144 MiB given to the printing process from OS
            46 MiB allocation reported by mallinfo(arena+hblkhd)
          1215 MiB available memory on the node where the printing process lives
------------------
     ethr =  4.28E-12,  avg # of iterations =  5.0

     total cpu time spent up to now is       23.5 secs

     total energy              =    -346.20596383 Ry
     estimated scf accuracy    <          4.1E-09 Ry

     iteration # 12     ecut=   110.00 Ry     beta= 0.30
     Davidson diagonalization with overlap

---- Real-time Memory Report at c_bands before calling an iterative solver
           144 MiB given to the printing process from OS
            46 MiB allocation reported by mallinfo(arena+hblkhd)
          1218 MiB available memory on the node where the printing process lives
------------------
     ethr =  4.28E-12,  avg # of iterations =  2.2

     total cpu time spent up to now is       25.2 secs

     total energy              =    -346.20596383 Ry
     estimated scf accuracy    <          1.4E-09 Ry

     iteration # 13     ecut=   110.00 Ry     beta= 0.30
     Davidson diagonalization with overlap

---- Real-time Memory Report at c_bands before calling an iterative solver
           144 MiB given to the printing process from OS
            46 MiB allocation reported by mallinfo(arena+hblkhd)
          1214 MiB available memory on the node where the printing process lives
------------------
     ethr =  4.28E-12,  avg # of iterations =  3.5

     total cpu time spent up to now is       26.7 secs

     End of self-consistent calculation

          k = 0.0000 0.0000 0.0000 (  8801 PWs)   bands (ev):

  -107.6615 -55.9932 -55.9932 -55.9932  -4.5630   0.0894   0.0894   0.0894
     0.6257   0.6257   6.7451   7.4608   7.4608

     occupation numbers 
     1.0000   1.0000   1.0000   1.0000   1.0000   1.0000   1.0000   1.0000
     1.0000   1.0000   1.0000   1.0000   1.0000

          k = 0.0884 0.0884-0.0884 (  8855 PWs)   bands (ev):

  -107.6615 -55.9933 -55.9933 -55.9933  -4.4849   0.1111   0.1111   0.1182
     0.6237   0.6237   5.6129   7.2842   7.2842

     occupation numbers 
     1.0000   1.0000   1.0000   1.0000   1.0000   1.0000   1.0000   1.0000
     1.0000   1.0000   1.0000   1.0000   1.0000

          k = 0.1768 0.1768-0.1768 (  8841 PWs)   bands (ev):

  -107.6615 -55.9934 -55.9933 -55.9933  -4.2870   0.1598   0.1598   0.2479
     0.6254   0.6254   4.0795   6.9122   6.9122

     occupation numbers 
     1.0000   1.0000   1.0000   1.0000   1.0000   1.0000   1.0000   1.0000
     1.0000   1.0000   1.0000   1.0000   1.0000

          k = 0.2652 0.2652-0.2652 (  8826 PWs)   bands (ev):

  -107.6614 -55.9935 -55.9933 -55.9933  -4.0749   0.2004   0.2004   0.5721
     0.6391   0.6391   2.6981   6.5893   6.5893

     occupation numbers 
     1.0000   1.0000   1.0000   1.0000   1.0000   1.0000   1.0000   1.0000
     1.0000   1.0000   1.0000   1.0000   1.0000

          k =-0.3536-0.3536 0.3536 (  8802 PWs)   bands (ev):

  -107.6614 -55.9935 -55.9933 -55.9933  -3.9827   0.2141   0.2141   0.6491
     0.6491   0.9370   1.9401   6.4651   6.4651

     occupation numbers 
     1.0000   1.0000   1.0000   1.0000   1.0000   1.0000   1.0000   1.0000
     1.0000   1.0000   1.0000   1.0000   1.0000

          k = 0.1768 0.0000 0.0000 (  8845 PWs)   bands (ev):

  -107.6615 -55.9933 -55.9933 -55.9933  -4.4586   0.1000   0.1321   0.1321
     0.6103   0.6355   5.5281   6.9975   6.9975

     occupation numbers 
     1.0000   1.0000   1.0000   1.0000   1.0000   1.0000   1.0000   1.0000
     1.0000   1.0000   1.0000   1.0000   1.0000

          k = 0.2652 0.0884-0.0884 (  8856 PWs)   bands (ev):

  -107.6615 -55.9934 -55.9933 -55.9933  -4.2998   0.1409   0.1840   0.2115
     0.6041   0.6441   4.4151   6.5797   6.5873

     occupation numbers 
     1.0000   1.0000   1.0000   1.0000   1.0000   1.0000   1.0000   1.0000
     1.0000   1.0000   1.0000   1.0000   1.0000

          k = 0.3536 0.1768-0.1768 (  8831 PWs)   bands (ev):

  -107.6615 -55.9934 -55.9933 -55.9933  -4.0898   0.1948   0.2302   0.4297
     0.6407   0.6534   3.0992   6.0993   6.2929

     occupation numbers 
     1.0000   1.0000   1.0000   1.0000   1.0000   1.0000   1.0000   1.0000
     1.0000   1.0000   1.0000   1.0000   1.0000

          k =-0.2652-0.4419 0.4419 (  8824 PWs)   bands (ev):

  -107.6614 -55.9935 -55.9933 -55.9933  -3.9548   0.2231   0.2462   0.6053
     0.6521   0.9071   2.1064   5.7476   6.2416

     occupation numbers 
     1.0000   1.0000   1.0000   1.0000   1.0000   1.0000   1.0000   1.0000
     1.0000   1.0000   1.0000   1.0000   1.0000

          k =-0.1768-0.3536 0.3536 (  8818 PWs)   bands (ev):

  -107.6614 -55.9935 -55.9933 -55.9933  -3.9858   0.2265   0.2310   0.6141
     0.6298   0.7812   2.3670   5.6523   6.4550

     occupation numbers 
     1.0000   1.0000   1.0000   1.0000   1.0000   1.0000   1.0000   1.0000
     1.0000   1.0000   1.0000   1.0000   1.0000

          k =-0.0884-0.2652 0.2652 (  8843 PWs)   bands (ev):

  -107.6615 -55.9934 -55.9933 -55.9933  -4.1611   0.1878   0.2035   0.3520
     0.6090   0.6548   3.5201   5.8852   6.8448

     occupation numbers 
     1.0000   1.0000   1.0000   1.0000   1.0000   1.0000   1.0000   1.0000
     1.0000   1.0000   1.0000   1.0000   1.0000

          k = 0.0000-0.1768 0.1768 (  8863 PWs)   bands (ev):

  -107.6615 -55.9934 -55.9933 -55.9933  -4.3662   0.1359   0.1518   0.1759
     0.6101   0.6360   4.7653   6.5029   7.2102

     occupation numbers 
     1.0000   1.0000   1.0000   1.0000   1.0000   1.0000   1.0000   1.0000
     1.0000   1.0000   1.0000   1.0000   1.0000

          k = 0.3536 0.0000 0.0000 (  8868 PWs)   bands (ev):

  -107.6615 -55.9934 -55.9933 -55.9933  -4.1925   0.1592   0.2453   0.2453
     0.5984   0.6593   4.0726   6.1335   6.1335

     occupation numbers 
     1.0000   1.0000   1.0000   1.0000   1.0000   1.0000   1.0000   1.0000
     1.0000   1.0000   1.0000   1.0000   1.0000

          k = 0.4419 0.0884-0.0884 (  8839 PWs)   bands (ev):

  -107.6615 -55.9934 -55.9933 -55.9933  -4.0208   0.2186   0.3036   0.3529
     0.6640   0.6692   3.1997   5.5913   5.8112

     occupation numbers 
     1.0000   1.0000   1.0000   1.0000   1.0000   1.0000   1.0000   1.0000
     1.0000   1.0000   1.0000   1.0000   1.0000

          k =-0.1768-0.5303 0.5303 (  8834 PWs)   bands (ev):

  -107.6614 -55.9935 -55.9934 -55.9933  -3.8848   0.2534   0.3257   0.4988
     0.6624   0.9166   2.3292   5.0066   5.7618

     occupation numbers 
     1.0000   1.0000   1.0000   1.0000   1.0000   1.0000   1.0000   1.0000
     1.0000   1.0000   1.0000   1.0000   1.0000

          k =-0.0884-0.4419 0.4419 (  8825 PWs)   bands (ev):

  -107.6614 -55.9935 -55.9934 -55.9933  -3.8715   0.2591   0.3054   0.5859
     0.6332   0.9936   2.1613   4.7091   6.0076

     occupation numbers 
     1.0000   1.0000   1.0000   1.0000   1.0000   1.0000   1.0000   1.0000
     1.0000   1.0000   1.0000   1.0000   1.0000

          k = 0.0000-0.3536 0.3536 (  8822 PWs)   bands (ev):

  -107.6614 -55.9935 -55.9934 -55.9933  -3.9888   0.2456   0.2498   0.5350
     0.6087   0.7199   2.8419   4.9520   6.4451

     occupation numbers 
     1.0000   1.0000   1.0000   1.0000   1.0000   1.0000   1.0000   1.0000
     1.0000   1.0000   1.0000   1.0000   1.0000

          k = 0.5303 0.0000 0.0000 (  8840 PWs)   bands (ev):

  -107.6614 -55.9935 -55.9934 -55.9934  -3.9046   0.2462   0.3761   0.3761
     0.6832   0.7579   2.7563   5.4343   5.4343

     occupation numbers 
     1.0000   1.0000   1.0000   1.0000   1.0000   1.0000   1.0000   1.0000
     1.0000   1.0000   1.0000   1.0000   1.0000

          k =-0.0884-0.6187 0.6187 (  8831 PWs)   bands (ev):

  -107.6614 -55.9935 -55.9934 -55.9934  -3.8108   0.2746   0.4053   0.4350
     0.6810   1.0047   2.1920   4.9793   5.3358

     occupation numbers 
     1.0000   1.0000   1.0000   1.0000   1.0000   1.0000   1.0000   1.0000
     1.0000   1.0000   1.0000   1.0000   1.0000

          k = 0.0000-0.5303 0.5303 (  8834 PWs)   bands (ev):

  -107.6614 -55.9935 -55.9934 -55.9934  -3.7977   0.2812   0.3780   0.5130
     0.6554   1.1748   1.9675   4.5237   5.5589

     occupation numbers 
     1.0000   1.0000   1.0000   1.0000   1.0000   1.0000   1.0000   1.0000
     1.0000   1.0000   1.0000   1.0000   1.0000

          k =-0.7071 0.0000 0.0000 (  8904 PWs)   bands (ev):

  -107.6615 -55.9935 -55.9934 -55.9934  -3.7788   0.2654   0.4368   0.4368
     0.6931   1.0878   1.9993   5.1695   5.1695

     occupation numbers 
     1.0000   1.0000   1.0000   1.0000   1.0000   1.0000   1.0000   1.0000
     1.0000   1.0000   1.0000   1.0000   1.0000

          k = 0.3536 0.1768 0.0000 (  8861 PWs)   bands (ev):

  -107.6615 -55.9934 -55.9933 -55.9933  -4.1334   0.1908   0.2388   0.3209
     0.6127   0.6612   3.6197   5.6683   6.4309

     occupation numbers 
     1.0000   1.0000   1.0000   1.0000   1.0000   1.0000   1.0000   1.0000
     1.0000   1.0000   1.0000   1.0000   1.0000

          k =-0.2652-0.4419 0.6187 (  8829 PWs)   bands (ev):

  -107.6614 -55.9935 -55.9934 -55.9933  -3.9584   0.2434   0.2736   0.5102
     0.6462   0.7659   2.6550   5.1446   6.0802

     occupation numbers 
     1.0000   1.0000   1.0000   1.0000   1.0000   1.0000   1.0000   1.0000
     1.0000   1.0000   1.0000   1.0000   1.0000

          k =-0.1768-0.3536 0.5303 (  8838 PWs)   bands (ev):

  -107.6614 -55.9935 -55.9934 -55.9933  -3.8835   0.2564   0.2893   0.5897
     0.6340   1.0174   2.0752   5.0028   5.9083

     occupation numbers 
     1.0000   1.0000   1.0000   1.0000   1.0000   1.0000   1.0000   1.0000
     1.0000   1.0000   1.0000   1.0000   1.0000

          k =-0.1768-0.5303 0.7071 (  8809 PWs)   bands (ev):

  -107.6614 -55.9935 -55.9934 -55.9933  -3.8861   0.2712   0.3370   0.4399
     0.6681   0.8384   2.5720   5.0815   5.4962

     occupation numbers 
     1.0000   1.0000   1.0000   1.0000   1.0000   1.0000   1.0000   1.0000
     1.0000   1.0000   1.0000   1.0000   1.0000

          k =-0.0884-0.4419 0.6187 (  8823 PWs)   bands (ev):

  -107.6614 -55.9935 -55.9934 -55.9933  -3.8109   0.2933   0.3516   0.5296
     0.6388   1.1209   2.0547   4.6728   5.3651

     occupation numbers 
     1.0000   1.0000   1.0000   1.0000   1.0000   1.0000   1.0000   1.0000
     1.0000   1.0000   1.0000   1.0000   1.0000

          k = 0.0000-0.3536 0.5303 (  8840 PWs)   bands (ev):

  -107.6614 -55.9935 -55.9934 -55.9933  -3.8418   0.2883   0.3187   0.5708
     0.6196   1.0216   2.1985   4.5887   5.6455

     occupation numbers 
     1.0000   1.0000   1.0000   1.0000   1.0000   1.0000   1.0000   1.0000
     1.0000   1.0000   1.0000   1.0000   1.0000

          k =-0.7071 0.1768 0.0000 (  8814 PWs)   bands (ev):

  -107.6614 -55.9935 -55.9934 -55.9933  -3.7795   0.2942   0.3969   0.4735
     0.6675   1.1746   1.9538   4.9630   5.0221

     occupation numbers 
     1.0000   1.0000   1.0000   1.0000   1.0000   1.0000   1.0000   1.0000
     1.0000   1.0000   1.0000   1.0000   1.0000

          k =-0.7071 0.3536 0.0000 (  8792 PWs)   bands (ev):

  -107.6614 -55.9935 -55.9934 -55.9933  -3.7802   0.3156   0.3636   0.5742
     0.5878   1.2578   1.9050   4.7730   4.8932

     occupation numbers 
     1.0000   1.0000   1.0000   1.0000   1.0000   1.0000   1.0000   1.0000
     1.0000   1.0000   1.0000   1.0000   1.0000

     highest occupied level (ev):     7.4608

!    total energy              =    -346.20596383 Ry
     estimated scf accuracy    <          4.8E-11 Ry

     The total energy is the sum of the following terms:
     one-electron contribution =    -226.97957772 Ry
     hartree contribution      =     116.20557304 Ry
     xc contribution           =     -55.72127104 Ry
     ewald contribution        =    -179.71068811 Ry

     convergence has been achieved in  13 iterations

     Writing all to output data dir /home/User/opencode_workspace/DFT/calculations/hgte/conv_scf_e110/out/pwscf.save/ :
     XML data file, charge density, pseudopotentials, collected wavefunctions

     init_run     :      1.64s CPU      2.15s WALL (       1 calls)
     electrons    :     19.65s CPU     24.29s WALL (       1 calls)

     Called by init_run:
     wfcinit      :      0.37s CPU      0.43s WALL (       1 calls)
     wfcinit:atom :      0.01s CPU      0.01s WALL (      29 calls)
     wfcinit:wfcr :      0.33s CPU      0.38s WALL (      29 calls)
     potinit      :      0.35s CPU      0.46s WALL (       1 calls)
     hinit0       :      0.63s CPU      0.64s WALL (       1 calls)

     Called by electrons:
     c_bands      :     13.80s CPU     15.33s WALL (      14 calls)
     sum_band     :      3.98s CPU      5.42s WALL (      14 calls)
     v_of_rho     :      0.44s CPU      0.57s WALL (      14 calls)
     v_h          :      0.02s CPU      0.02s WALL (      14 calls)
     v_xc         :      0.42s CPU      0.55s WALL (      14 calls)
     newd         :      1.71s CPU      3.69s WALL (      14 calls)
     mix_rho      :      0.05s CPU      0.06s WALL (      14 calls)

     Called by c_bands:
     init_us_2    :      0.37s CPU      0.39s WALL (     841 calls)
     cegterg      :     13.07s CPU     14.57s WALL (     406 calls)

     Called by sum_band:
     sum_band:wei :      0.00s CPU      0.00s WALL (      14 calls)
     sum_band:loo :      2.24s CPU      2.49s WALL (      14 calls)
     sum_band:buf :      0.01s CPU      0.02s WALL (     406 calls)
     sum_band:ini :      0.18s CPU      0.19s WALL (     406 calls)
     sum_band:cal :      0.18s CPU      0.19s WALL (     406 calls)
     sum_band:bec :      0.01s CPU      0.01s WALL (     406 calls)
     addusdens    :      1.53s CPU      2.70s WALL (      14 calls)
                                        0.00s GPU  (      14 calls)
     addusd:skk   :      0.00s CPU      0.00s WALL (      28 calls)
                                        0.00s GPU  (      28 calls)

     Called by *egterg:
     cdiaghg      :      0.32s CPU      0.34s WALL (    1684 calls)
     cegterg:over :      0.51s CPU      0.54s WALL (    1307 calls)
     cegterg:upda :      0.15s CPU      0.15s WALL (    1307 calls)
     cegterg:last :      0.28s CPU      0.29s WALL (     938 calls)
     h_psi        :     11.41s CPU     12.88s WALL (    1742 calls)
     s_psi        :      0.21s CPU      0.22s WALL (    1742 calls)
     g_psi        :      0.08s CPU      0.08s WALL (    1307 calls)

     Called by h_psi:
     h_psi:calbec :      0.59s CPU      0.65s WALL (    1742 calls)
     vloc_psi     :     10.52s CPU     11.90s WALL (    1742 calls)
                                        0.00s GPU  (    1742 calls)
     add_vuspsi   :      0.24s CPU      0.26s WALL (    1742 calls)

     General routines
     calbec       :      0.76s CPU      0.84s WALL (    2148 calls)
     fft          :      0.62s CPU      0.66s WALL (     181 calls)
     ffts         :      0.21s CPU      0.21s WALL (      28 calls)
     fftw         :     11.45s CPU     12.95s WALL (   35558 calls)
     interpolate  :      0.21s CPU      0.22s WALL (      14 calls)

     Parallel routines

     PWSCF        :     21.62s CPU     26.87s WALL


   This run was terminated on:  19:43:40  22Sep2026            

=------------------------------------------------------------------------------=
   JOB DONE.
=------------------------------------------------------------------------------=
