
     Program PWSCF v.7.5 starts on 22Sep2026 at 21:22:24 

     This program is part of the open-source Quantum ESPRESSO suite
     for quantum simulation of materials; please cite
         "P. Giannozzi et al., J. Phys.:Condens. Matter 21 395502 (2009);
         "P. Giannozzi et al., J. Phys.:Condens. Matter 29 465901 (2017);
         "P. Giannozzi et al., J. Chem. Phys. 152 154105 (2020);
          URL http://www.quantum-espresso.org", 
     in publications or presentations arising from this work. More details at
     http://www.quantum-espresso.org/quote

     Parallel version (MPI & OpenMP), running on       6 processor cores
     Number of MPI processes:                 6
     Threads/MPI process:                     1

     MPI processes distributed on     1 nodes
     7977 MiB available memory on the printing compute node when the environment starts

     Reading input from pw.in

     Current dimensions of program PWSCF are:
     Max number of different atomic species (ntypx) = 10
     Max number of k-points (npk) =  40000
     Max angular momentum in pseudopotentials (lmaxx) =  4
     file Cd.rel-pbe-n-rrkjus_psl.1.0.0.UPF: wavefunction(s)  4D 4D renormalized
     file Te.rel-pbe-n-rrkjus_psl.1.0.0.UPF: wavefunction(s)  5S renormalized
     Message from routine setup:
     using ibrav=0 with symmetry is DISCOURAGED, use correct ibrav instead

     R & G space division:  proc/nbgrp/npool/nimage =       6
     Subspace diagonalization in iterative solution of the eigenvalue problem:
     a serial algorithm will be used


     Parallelization info
     --------------------
     sticks:   dense  smooth     PW     G-vecs:    dense   smooth      PW
     Min         647     431    122                26742    14503    2156
     Max         649     432    123                26743    14506    2157
     Sum        3889    2587    733               160453    87027   12939

     Using Slab Decomposition



     bravais-lattice index     =            0
     lattice parameter (alat)  =       8.8545  a.u.
     unit-cell volume          =     490.8777 (a.u.)^3
     number of atoms/cell      =            2
     number of atomic types    =            2
     number of electrons       =        18.00
     number of Kohn-Sham states=           18
     kinetic-energy cutoff     =     120.0000  Ry
     charge density cutoff     =     720.0000  Ry
     scf convergence threshold =      1.0E-10
     mixing beta               =       0.3000
     number of iterations used =            8  plain     mixing
     Exchange-correlation= PBE
                           (   1   4   3   4   0   0   0)
     Non magnetic calculation with spin-orbit


     celldm(1)=   8.854474  celldm(2)=   0.000000  celldm(3)=   0.000000
     celldm(4)=   0.000000  celldm(5)=   0.000000  celldm(6)=   0.000000

     crystal axes: (cart. coord. in units of alat)
               a(1) = (   0.000000   0.707107   0.707107 )  
               a(2) = (   0.707107   0.000000   0.707107 )  
               a(3) = (   0.707107   0.707107   0.000000 )  

     reciprocal axes: (cart. coord. in units 2 pi/alat)
               b(1) = ( -0.707107  0.707107  0.707107 )  
               b(2) = (  0.707107 -0.707107  0.707107 )  
               b(3) = (  0.707107  0.707107 -0.707107 )  


     PseudoPot. # 1 for Cd read from file:
     /home/User/opencode_workspace/DFT/pseudopotentials/Cd.rel-pbe-n-rrkjus_psl.1.0.0.UPF
     MD5 check sum: f55a83cceeb01967e8d662641edf05f4
     Pseudo is Ultrasoft + core correction, Zval = 12.0
     Generated using &quot;atomic&quot; code by A. Dal Corso  v.6.3
     Using radial grid of 1239 points, 10 beta functions with: 
                l(1) =   0
                l(2) =   0
                l(3) =   1
                l(4) =   1
                l(5) =   1
                l(6) =   1
                l(7) =   2
                l(8) =   2
                l(9) =   2
               l(10) =   2
     Q(r) pseudized with 0 coefficients 


     PseudoPot. # 2 for Te read from file:
     /home/User/opencode_workspace/DFT/pseudopotentials/Te.rel-pbe-n-rrkjus_psl.1.0.0.UPF
     MD5 check sum: 7fd30b6833abd190471e4dcc2367351b
     Pseudo is Ultrasoft + core correction, Zval =  6.0
     Generated using &quot;atomic&quot; code by A. Dal Corso  v.6.3
     Using radial grid of 1245 points, 10 beta functions with: 
                l(1) =   0
                l(2) =   0
                l(3) =   1
                l(4) =   1
                l(5) =   1
                l(6) =   1
                l(7) =   2
                l(8) =   2
                l(9) =   2
               l(10) =   2
     Q(r) pseudized with 0 coefficients 


     atomic species   valence    mass     pseudopotential
     Cd               12.00   112.41400     Cd( 1.00)
     Te                6.00   127.60000     Te( 1.00)

     24 Sym. Ops. (no inversion) found


                                    s                        frac. trans.

      isym =  1     identity                                     

 cryst.   s( 1) = (     1          0          0      )
                  (     0          1          0      )
                  (     0          0          1      )

 cart.    s( 1) = (  1.0000000  0.0000000  0.0000000 )
                  (  0.0000000  1.0000000  0.0000000 )
                  (  0.0000000  0.0000000  1.0000000 )


      isym =  2     180 deg rotation - cart. axis [0,0,1]        

 cryst.   s( 2) = (     0          1         -1      )
                  (     1          0         -1      )
                  (     0          0         -1      )

 cart.    s( 2) = ( -1.0000000  0.0000000  0.0000000 )
                  (  0.0000000 -1.0000000  0.0000000 )
                  (  0.0000000  0.0000000  1.0000000 )


      isym =  3     180 deg rotation - cart. axis [0,1,0]        

 cryst.   s( 3) = (     0         -1          1      )
                  (     0         -1          0      )
                  (     1         -1          0      )

 cart.    s( 3) = ( -1.0000000  0.0000000  0.0000000 )
                  (  0.0000000  1.0000000  0.0000000 )
                  (  0.0000000  0.0000000 -1.0000000 )


      isym =  4     180 deg rotation - cart. axis [1,0,0]        

 cryst.   s( 4) = (    -1          0          0      )
                  (    -1          0          1      )
                  (    -1          1          0      )

 cart.    s( 4) = (  1.0000000  0.0000000  0.0000000 )
                  (  0.0000000 -1.0000000  0.0000000 )
                  (  0.0000000  0.0000000 -1.0000000 )


      isym =  5     120 deg rotation - cart. axis [-1,-1,-1]     

 cryst.   s( 5) = (     0          0          1      )
                  (     1          0          0      )
                  (     0          1          0      )

 cart.    s( 5) = (  0.0000000  1.0000000  0.0000000 )
                  (  0.0000000  0.0000000  1.0000000 )
                  (  1.0000000  0.0000000  0.0000000 )


      isym =  6     120 deg rotation - cart. axis [-1,1,1]       

 cryst.   s( 6) = (     1         -1          0      )
                  (     0         -1          1      )
                  (     0         -1          0      )

 cart.    s( 6) = (  0.0000000 -1.0000000  0.0000000 )
                  (  0.0000000  0.0000000  1.0000000 )
                  ( -1.0000000  0.0000000  0.0000000 )


      isym =  7     120 deg rotation - cart. axis [1,1,-1]       

 cryst.   s( 7) = (    -1          1          0      )
                  (    -1          0          0      )
                  (    -1          0          1      )

 cart.    s( 7) = (  0.0000000  1.0000000  0.0000000 )
                  (  0.0000000  0.0000000 -1.0000000 )
                  ( -1.0000000  0.0000000  0.0000000 )


      isym =  8     120 deg rotation - cart. axis [1,-1,1]       

 cryst.   s( 8) = (     0          0         -1      )
                  (     0          1         -1      )
                  (     1          0         -1      )

 cart.    s( 8) = (  0.0000000 -1.0000000  0.0000000 )
                  (  0.0000000  0.0000000 -1.0000000 )
                  (  1.0000000  0.0000000  0.0000000 )


      isym =  9     120 deg rotation - cart. axis [1,1,1]        

 cryst.   s( 9) = (     0          1          0      )
                  (     0          0          1      )
                  (     1          0          0      )

 cart.    s( 9) = (  0.0000000  0.0000000  1.0000000 )
                  (  1.0000000  0.0000000  0.0000000 )
                  (  0.0000000  1.0000000  0.0000000 )


      isym = 10     120 deg rotation - cart. axis [-1,1,-1]      

 cryst.   s(10) = (    -1          0          1      )
                  (    -1          1          0      )
                  (    -1          0          0      )

 cart.    s(10) = (  0.0000000  0.0000000  1.0000000 )
                  ( -1.0000000  0.0000000  0.0000000 )
                  (  0.0000000 -1.0000000  0.0000000 )


      isym = 11     120 deg rotation - cart. axis [1,-1,-1]      

 cryst.   s(11) = (     1          0         -1      )
                  (     0          0         -1      )
                  (     0          1         -1      )

 cart.    s(11) = (  0.0000000  0.0000000 -1.0000000 )
                  ( -1.0000000  0.0000000  0.0000000 )
                  (  0.0000000  1.0000000  0.0000000 )


      isym = 12     120 deg rotation - cart. axis [-1,-1,1]      

 cryst.   s(12) = (     0         -1          0      )
                  (     1         -1          0      )
                  (     0         -1          1      )

 cart.    s(12) = (  0.0000000  0.0000000 -1.0000000 )
                  (  1.0000000  0.0000000  0.0000000 )
                  (  0.0000000 -1.0000000  0.0000000 )


      isym = 13     inv. 180 deg rotation - cart. axis [1,1,0]   

 cryst.   s(13) = (     1          0         -1      )
                  (     0          1         -1      )
                  (     0          0         -1      )

 cart.    s(13) = (  0.0000000 -1.0000000  0.0000000 )
                  ( -1.0000000  0.0000000  0.0000000 )
                  (  0.0000000  0.0000000  1.0000000 )


      isym = 14     inv. 180 deg rotation - cart. axis [1,-1,0]  

 cryst.   s(14) = (     0          1          0      )
                  (     1          0          0      )
                  (     0          0          1      )

 cart.    s(14) = (  0.0000000  1.0000000  0.0000000 )
                  (  1.0000000  0.0000000  0.0000000 )
                  (  0.0000000  0.0000000  1.0000000 )


      isym = 15     inv.  90 deg rotation - cart. axis [0,0,-1]  

 cryst.   s(15) = (     0         -1          0      )
                  (     0         -1          1      )
                  (     1         -1          0      )

 cart.    s(15) = (  0.0000000 -1.0000000  0.0000000 )
                  (  1.0000000  0.0000000  0.0000000 )
                  (  0.0000000  0.0000000 -1.0000000 )


      isym = 16     inv.  90 deg rotation - cart. axis [0,0,1]   

 cryst.   s(16) = (    -1          0          1      )
                  (    -1          0          0      )
                  (    -1          1          0      )

 cart.    s(16) = (  0.0000000  1.0000000  0.0000000 )
                  ( -1.0000000  0.0000000  0.0000000 )
                  (  0.0000000  0.0000000 -1.0000000 )


      isym = 17     inv. 180 deg rotation - cart. axis [1,0,1]   

 cryst.   s(17) = (     1         -1          0      )
                  (     0         -1          0      )
                  (     0         -1          1      )

 cart.    s(17) = (  0.0000000  0.0000000 -1.0000000 )
                  (  0.0000000  1.0000000  0.0000000 )
                  ( -1.0000000  0.0000000  0.0000000 )


      isym = 18     inv. 180 deg rotation - cart. axis [-1,0,1]  

 cryst.   s(18) = (     0          0          1      )
                  (     0          1          0      )
                  (     1          0          0      )

 cart.    s(18) = (  0.0000000  0.0000000  1.0000000 )
                  (  0.0000000  1.0000000  0.0000000 )
                  (  1.0000000  0.0000000  0.0000000 )


      isym = 19     inv.  90 deg rotation - cart. axis [0,1,0]   

 cryst.   s(19) = (     0          0         -1      )
                  (     1          0         -1      )
                  (     0          1         -1      )

 cart.    s(19) = (  0.0000000  0.0000000 -1.0000000 )
                  (  0.0000000 -1.0000000  0.0000000 )
                  (  1.0000000  0.0000000  0.0000000 )


      isym = 20     inv.  90 deg rotation - cart. axis [0,-1,0]  

 cryst.   s(20) = (    -1          1          0      )
                  (    -1          0          1      )
                  (    -1          0          0      )

 cart.    s(20) = (  0.0000000  0.0000000  1.0000000 )
                  (  0.0000000 -1.0000000  0.0000000 )
                  ( -1.0000000  0.0000000  0.0000000 )


      isym = 21     inv. 180 deg rotation - cart. axis [0,1,1]   

 cryst.   s(21) = (    -1          0          0      )
                  (    -1          1          0      )
                  (    -1          0          1      )

 cart.    s(21) = (  1.0000000  0.0000000  0.0000000 )
                  (  0.0000000  0.0000000 -1.0000000 )
                  (  0.0000000 -1.0000000  0.0000000 )


      isym = 22     inv. 180 deg rotation - cart. axis [0,1,-1]  

 cryst.   s(22) = (     1          0          0      )
                  (     0          0          1      )
                  (     0          1          0      )

 cart.    s(22) = (  1.0000000  0.0000000  0.0000000 )
                  (  0.0000000  0.0000000  1.0000000 )
                  (  0.0000000  1.0000000  0.0000000 )


      isym = 23     inv.  90 deg rotation - cart. axis [-1,0,0]  

 cryst.   s(23) = (     0          1         -1      )
                  (     0          0         -1      )
                  (     1          0         -1      )

 cart.    s(23) = ( -1.0000000  0.0000000  0.0000000 )
                  (  0.0000000  0.0000000 -1.0000000 )
                  (  0.0000000  1.0000000  0.0000000 )


      isym = 24     inv.  90 deg rotation - cart. axis [1,0,0]   

 cryst.   s(24) = (     0         -1          1      )
                  (     1         -1          0      )
                  (     0         -1          0      )

 cart.    s(24) = ( -1.0000000  0.0000000  0.0000000 )
                  (  0.0000000  0.0000000  1.0000000 )
                  (  0.0000000 -1.0000000  0.0000000 )


   Cartesian axes

     site n.     atom                  positions (alat units)
         1        Cd     tau(   1) = (   0.0000000   0.0000000   0.0000000  )
         2        Te     tau(   2) = (   0.3535534   0.3535534   0.3535534  )

   Crystallographic axes

     site n.     atom                  positions (cryst. coord.)
         1        Cd     tau(   1) = (  0.0000000  0.0000000  0.0000000  )
         2        Te     tau(   2) = (  0.2500000  0.2500000  0.2500000  )

     number of k points=    47
                       cart. coord. in units 2pi/alat
        k(    1) = (   0.0000000   0.0000000   0.0000000), wk =   0.0010000
        k(    2) = (   0.0707107   0.0707107  -0.0707107), wk =   0.0080000
        k(    3) = (   0.1414214   0.1414214  -0.1414214), wk =   0.0080000
        k(    4) = (   0.2121320   0.2121320  -0.2121320), wk =   0.0080000
        k(    5) = (   0.2828427   0.2828427  -0.2828427), wk =   0.0080000
        k(    6) = (  -0.3535534  -0.3535534   0.3535534), wk =   0.0040000
        k(    7) = (   0.1414214   0.0000000   0.0000000), wk =   0.0060000
        k(    8) = (   0.2121320   0.0707107  -0.0707107), wk =   0.0240000
        k(    9) = (   0.2828427   0.1414214  -0.1414214), wk =   0.0240000
        k(   10) = (   0.3535534   0.2121320  -0.2121320), wk =   0.0240000
        k(   11) = (  -0.2828427  -0.4242641   0.4242641), wk =   0.0240000
        k(   12) = (  -0.2121320  -0.3535534   0.3535534), wk =   0.0240000
        k(   13) = (  -0.1414214  -0.2828427   0.2828427), wk =   0.0240000
        k(   14) = (  -0.0707107  -0.2121320   0.2121320), wk =   0.0240000
        k(   15) = (   0.0000000  -0.1414214   0.1414214), wk =   0.0120000
        k(   16) = (   0.2828427   0.0000000   0.0000000), wk =   0.0060000
        k(   17) = (   0.3535534   0.0707107  -0.0707107), wk =   0.0240000
        k(   18) = (   0.4242641   0.1414214  -0.1414214), wk =   0.0240000
        k(   19) = (  -0.2121320  -0.4949747   0.4949747), wk =   0.0240000
        k(   20) = (  -0.1414214  -0.4242641   0.4242641), wk =   0.0240000
        k(   21) = (  -0.0707107  -0.3535534   0.3535534), wk =   0.0240000
        k(   22) = (   0.0000000  -0.2828427   0.2828427), wk =   0.0120000
        k(   23) = (   0.4242641   0.0000000   0.0000000), wk =   0.0060000
        k(   24) = (   0.4949747   0.0707107  -0.0707107), wk =   0.0240000
        k(   25) = (  -0.1414214  -0.5656854   0.5656854), wk =   0.0240000
        k(   26) = (  -0.0707107  -0.4949747   0.4949747), wk =   0.0240000
        k(   27) = (  -0.0000000  -0.4242641   0.4242641), wk =   0.0120000
        k(   28) = (   0.5656854   0.0000000   0.0000000), wk =   0.0060000
        k(   29) = (  -0.0707107  -0.6363961   0.6363961), wk =   0.0240000
        k(   30) = (   0.0000000  -0.5656854   0.5656854), wk =   0.0120000
        k(   31) = (  -0.7071068   0.0000000   0.0000000), wk =   0.0030000
        k(   32) = (   0.2828427   0.1414214   0.0000000), wk =   0.0240000
        k(   33) = (   0.3535534   0.2121320  -0.0707107), wk =   0.0480000
        k(   34) = (  -0.2828427  -0.4242641   0.5656854), wk =   0.0480000
        k(   35) = (  -0.2121320  -0.3535534   0.4949747), wk =   0.0240000
        k(   36) = (   0.4242641   0.1414214  -0.0000000), wk =   0.0240000
        k(   37) = (  -0.2121320  -0.4949747   0.6363961), wk =   0.0480000
        k(   38) = (  -0.1414214  -0.4242641   0.5656854), wk =   0.0480000
        k(   39) = (  -0.0707107  -0.3535534   0.4949747), wk =   0.0480000
        k(   40) = (   0.0000000  -0.2828427   0.4242641), wk =   0.0240000
        k(   41) = (  -0.1414214  -0.5656854   0.7071068), wk =   0.0240000
        k(   42) = (  -0.0707107  -0.4949747   0.6363961), wk =   0.0480000
        k(   43) = (  -0.0000000  -0.4242641   0.5656854), wk =   0.0240000
        k(   44) = (  -0.7071068   0.1414214   0.0000000), wk =   0.0120000
        k(   45) = (  -0.1414214  -0.4242641   0.7071068), wk =   0.0240000
        k(   46) = (  -0.0707107  -0.3535534   0.6363961), wk =   0.0240000
        k(   47) = (  -0.7071068   0.2828427   0.0000000), wk =   0.0120000

                       cryst. coord.
        k(    1) = (   0.0000000   0.0000000   0.0000000), wk =   0.0010000
        k(    2) = (   0.0000000   0.0000000   0.1000000), wk =   0.0080000
        k(    3) = (   0.0000000   0.0000000   0.2000000), wk =   0.0080000
        k(    4) = (   0.0000000   0.0000000   0.3000000), wk =   0.0080000
        k(    5) = (   0.0000000   0.0000000   0.4000000), wk =   0.0080000
        k(    6) = (   0.0000000   0.0000000  -0.5000000), wk =   0.0040000
        k(    7) = (   0.0000000   0.1000000   0.1000000), wk =   0.0060000
        k(    8) = (   0.0000000   0.1000000   0.2000000), wk =   0.0240000
        k(    9) = (   0.0000000   0.1000000   0.3000000), wk =   0.0240000
        k(   10) = (   0.0000000   0.1000000   0.4000000), wk =   0.0240000
        k(   11) = (   0.0000000   0.1000000  -0.5000000), wk =   0.0240000
        k(   12) = (   0.0000000   0.1000000  -0.4000000), wk =   0.0240000
        k(   13) = (   0.0000000   0.1000000  -0.3000000), wk =   0.0240000
        k(   14) = (   0.0000000   0.1000000  -0.2000000), wk =   0.0240000
        k(   15) = (   0.0000000   0.1000000  -0.1000000), wk =   0.0120000
        k(   16) = (   0.0000000   0.2000000   0.2000000), wk =   0.0060000
        k(   17) = (   0.0000000   0.2000000   0.3000000), wk =   0.0240000
        k(   18) = (   0.0000000   0.2000000   0.4000000), wk =   0.0240000
        k(   19) = (   0.0000000   0.2000000  -0.5000000), wk =   0.0240000
        k(   20) = (   0.0000000   0.2000000  -0.4000000), wk =   0.0240000
        k(   21) = (   0.0000000   0.2000000  -0.3000000), wk =   0.0240000
        k(   22) = (   0.0000000   0.2000000  -0.2000000), wk =   0.0120000
        k(   23) = (   0.0000000   0.3000000   0.3000000), wk =   0.0060000
        k(   24) = (   0.0000000   0.3000000   0.4000000), wk =   0.0240000
        k(   25) = (   0.0000000   0.3000000  -0.5000000), wk =   0.0240000
        k(   26) = (   0.0000000   0.3000000  -0.4000000), wk =   0.0240000
        k(   27) = (   0.0000000   0.3000000  -0.3000000), wk =   0.0120000
        k(   28) = (   0.0000000   0.4000000   0.4000000), wk =   0.0060000
        k(   29) = (   0.0000000   0.4000000  -0.5000000), wk =   0.0240000
        k(   30) = (   0.0000000   0.4000000  -0.4000000), wk =   0.0120000
        k(   31) = (   0.0000000  -0.5000000  -0.5000000), wk =   0.0030000
        k(   32) = (   0.1000000   0.2000000   0.3000000), wk =   0.0240000
        k(   33) = (   0.1000000   0.2000000   0.4000000), wk =   0.0480000
        k(   34) = (   0.1000000   0.2000000  -0.5000000), wk =   0.0480000
        k(   35) = (   0.1000000   0.2000000  -0.4000000), wk =   0.0240000
        k(   36) = (   0.1000000   0.3000000   0.4000000), wk =   0.0240000
        k(   37) = (   0.1000000   0.3000000  -0.5000000), wk =   0.0480000
        k(   38) = (   0.1000000   0.3000000  -0.4000000), wk =   0.0480000
        k(   39) = (   0.1000000   0.3000000  -0.3000000), wk =   0.0480000
        k(   40) = (   0.1000000   0.3000000  -0.2000000), wk =   0.0240000
        k(   41) = (   0.1000000   0.4000000  -0.5000000), wk =   0.0240000
        k(   42) = (   0.1000000   0.4000000  -0.4000000), wk =   0.0480000
        k(   43) = (   0.1000000   0.4000000  -0.3000000), wk =   0.0240000
        k(   44) = (   0.1000000  -0.5000000  -0.4000000), wk =   0.0120000
        k(   45) = (   0.2000000   0.4000000  -0.4000000), wk =   0.0240000
        k(   46) = (   0.2000000   0.4000000  -0.3000000), wk =   0.0240000
        k(   47) = (   0.2000000  -0.5000000  -0.3000000), wk =   0.0120000

     Dense  grid:   160453 G-vectors     FFT dimensions: (  75,  75,  75)

     Smooth grid:    87027 G-vectors     FFT dimensions: (  64,  64,  64)

     Dynamical RAM for                 wfc:       1.00 MB

     Dynamical RAM for     wfc (w. buffer):      47.88 MB

     Dynamical RAM for           str. fact:       0.82 MB

     Dynamical RAM for           local pot:       0.00 MB

     Dynamical RAM for          nlocal pot:       1.88 MB

     Dynamical RAM for                qrad:      11.28 MB

     Dynamical RAM for          rho,v,vnew:      11.59 MB

     Dynamical RAM for               rhoin:       3.86 MB

     Dynamical RAM for            rho*nmix:      26.12 MB

     Dynamical RAM for           G-vectors:       1.64 MB

     Dynamical RAM for          h,s,v(r/c):       0.06 MB

     Dynamical RAM for          <psi|beta>:       0.04 MB

     Dynamical RAM for                 psi:       2.00 MB

     Dynamical RAM for                hpsi:       2.00 MB

     Dynamical RAM for                spsi:       2.00 MB

     Dynamical RAM for      wfcinit/wfcrot:       1.50 MB

     Dynamical RAM for           addusdens:     249.33 MB

     Estimated static dynamical RAM per process >      84.64 MB

     Estimated max dynamical RAM per process >     360.09 MB

     Estimated total dynamical RAM >       2.11 GB

     Initial potential from superposition of free atoms

     starting charge      17.9959, renormalised to      18.0000
     Starting wfcs are   26 randomized atomic wfcs

     total cpu time spent up to now is        4.2 secs

     per-process dynamical memory:   104.9 Mb

     Self-consistent Calculation

     iteration #  1     ecut=   120.00 Ry     beta= 0.30
     Davidson diagonalization with overlap

---- Real-time Memory Report at c_bands before calling an iterative solver
           333 MiB given to the printing process from OS
           103 MiB allocation reported by mallinfo(arena+hblkhd)
          7405 MiB available memory on the node where the printing process lives
------------------
     ethr =  1.00E-02,  avg # of iterations =  1.1

     Threshold (ethr) on eigenvalues was too large:
     Diagonalizing with lowered threshold

     Davidson diagonalization with overlap

---- Real-time Memory Report at c_bands before calling an iterative solver
           391 MiB given to the printing process from OS
           111 MiB allocation reported by mallinfo(arena+hblkhd)
          6948 MiB available memory on the node where the printing process lives
------------------
     ethr =  2.00E-04,  avg # of iterations =  5.1

     total cpu time spent up to now is       19.3 secs

     total energy              =    -128.98011287 Ry
     estimated scf accuracy    <       0.03955165 Ry

     iteration #  2     ecut=   120.00 Ry     beta= 0.30
     Davidson diagonalization with overlap

---- Real-time Memory Report at c_bands before calling an iterative solver
           401 MiB given to the printing process from OS
           120 MiB allocation reported by mallinfo(arena+hblkhd)
          6915 MiB available memory on the node where the printing process lives
------------------
     ethr =  2.20E-04,  avg # of iterations =  1.9

     total cpu time spent up to now is       25.6 secs

     total energy              =    -128.97860767 Ry
     estimated scf accuracy    <       0.01194713 Ry

     iteration #  3     ecut=   120.00 Ry     beta= 0.30
     Davidson diagonalization with overlap

---- Real-time Memory Report at c_bands before calling an iterative solver
           403 MiB given to the printing process from OS
           122 MiB allocation reported by mallinfo(arena+hblkhd)
          6875 MiB available memory on the node where the printing process lives
------------------
     ethr =  6.64E-05,  avg # of iterations =  2.3

     total cpu time spent up to now is       33.3 secs

     total energy              =    -128.98195042 Ry
     estimated scf accuracy    <       0.00142315 Ry

     iteration #  4     ecut=   120.00 Ry     beta= 0.30
     Davidson diagonalization with overlap

---- Real-time Memory Report at c_bands before calling an iterative solver
           405 MiB given to the printing process from OS
           124 MiB allocation reported by mallinfo(arena+hblkhd)
          6883 MiB available memory on the node where the printing process lives
------------------
     ethr =  7.91E-06,  avg # of iterations =  4.9

     total cpu time spent up to now is       43.6 secs

     total energy              =    -128.98258209 Ry
     estimated scf accuracy    <       0.00024518 Ry

     iteration #  5     ecut=   120.00 Ry     beta= 0.30
     Davidson diagonalization with overlap

---- Real-time Memory Report at c_bands before calling an iterative solver
           406 MiB given to the printing process from OS
           126 MiB allocation reported by mallinfo(arena+hblkhd)
          6841 MiB available memory on the node where the printing process lives
------------------
     ethr =  1.36E-06,  avg # of iterations =  5.6

     total cpu time spent up to now is       53.0 secs

     total energy              =    -128.98269190 Ry
     estimated scf accuracy    <       0.00005244 Ry

     iteration #  6     ecut=   120.00 Ry     beta= 0.30
     Davidson diagonalization with overlap

---- Real-time Memory Report at c_bands before calling an iterative solver
           408 MiB given to the printing process from OS
           128 MiB allocation reported by mallinfo(arena+hblkhd)
          7027 MiB available memory on the node where the printing process lives
------------------
     ethr =  2.91E-07,  avg # of iterations =  6.3

     total cpu time spent up to now is       63.4 secs

     total energy              =    -128.98269870 Ry
     estimated scf accuracy    <       0.00003202 Ry

     iteration #  7     ecut=   120.00 Ry     beta= 0.30
     Davidson diagonalization with overlap

---- Real-time Memory Report at c_bands before calling an iterative solver
           410 MiB given to the printing process from OS
           129 MiB allocation reported by mallinfo(arena+hblkhd)
          6826 MiB available memory on the node where the printing process lives
------------------
     ethr =  1.78E-07,  avg # of iterations =  4.6

     total cpu time spent up to now is       75.0 secs

     total energy              =    -128.98270934 Ry
     estimated scf accuracy    <       0.00003328 Ry

     iteration #  8     ecut=   120.00 Ry     beta= 0.30
     Davidson diagonalization with overlap

---- Real-time Memory Report at c_bands before calling an iterative solver
           412 MiB given to the printing process from OS
           131 MiB allocation reported by mallinfo(arena+hblkhd)
          6884 MiB available memory on the node where the printing process lives
------------------
     ethr =  1.78E-07,  avg # of iterations =  2.0

     total cpu time spent up to now is       82.6 secs

     total energy              =    -128.98270801 Ry
     estimated scf accuracy    <       0.00000589 Ry

     iteration #  9     ecut=   120.00 Ry     beta= 0.30
     Davidson diagonalization with overlap

---- Real-time Memory Report at c_bands before calling an iterative solver
           413 MiB given to the printing process from OS
           133 MiB allocation reported by mallinfo(arena+hblkhd)
          6799 MiB available memory on the node where the printing process lives
------------------
     c_bands:  1 eigenvalues not converged
     ethr =  3.27E-08,  avg # of iterations =  4.6

     total cpu time spent up to now is       93.8 secs

     total energy              =    -128.98271099 Ry
     estimated scf accuracy    <       0.00000067 Ry

     iteration # 10     ecut=   120.00 Ry     beta= 0.30
     Davidson diagonalization with overlap

---- Real-time Memory Report at c_bands before calling an iterative solver
           415 MiB given to the printing process from OS
           135 MiB allocation reported by mallinfo(arena+hblkhd)
          6796 MiB available memory on the node where the printing process lives
------------------
     ethr =  3.70E-09,  avg # of iterations =  6.5

     total cpu time spent up to now is      107.3 secs

     total energy              =    -128.98271131 Ry
     estimated scf accuracy    <       0.00000059 Ry

     iteration # 11     ecut=   120.00 Ry     beta= 0.30
     Davidson diagonalization with overlap

---- Real-time Memory Report at c_bands before calling an iterative solver
           415 MiB given to the printing process from OS
           135 MiB allocation reported by mallinfo(arena+hblkhd)
          6999 MiB available memory on the node where the printing process lives
------------------
     ethr =  3.30E-09,  avg # of iterations =  2.5

     total cpu time spent up to now is      115.3 secs

     total energy              =    -128.98271141 Ry
     estimated scf accuracy    <       0.00000015 Ry

     iteration # 12     ecut=   120.00 Ry     beta= 0.30
     Davidson diagonalization with overlap

---- Real-time Memory Report at c_bands before calling an iterative solver
           415 MiB given to the printing process from OS
           135 MiB allocation reported by mallinfo(arena+hblkhd)
          6788 MiB available memory on the node where the printing process lives
------------------
     ethr =  8.41E-10,  avg # of iterations =  4.4

     total cpu time spent up to now is      125.2 secs

     total energy              =    -128.98271146 Ry
     estimated scf accuracy    <       0.00000006 Ry

     iteration # 13     ecut=   120.00 Ry     beta= 0.30
     Davidson diagonalization with overlap

---- Real-time Memory Report at c_bands before calling an iterative solver
           415 MiB given to the printing process from OS
           135 MiB allocation reported by mallinfo(arena+hblkhd)
          7005 MiB available memory on the node where the printing process lives
------------------
     ethr =  3.06E-10,  avg # of iterations =  4.4

     total cpu time spent up to now is      133.1 secs

     total energy              =    -128.98271143 Ry
     estimated scf accuracy    <       0.00000007 Ry

     iteration # 14     ecut=   120.00 Ry     beta= 0.30
     Davidson diagonalization with overlap

---- Real-time Memory Report at c_bands before calling an iterative solver
           415 MiB given to the printing process from OS
           135 MiB allocation reported by mallinfo(arena+hblkhd)
          6954 MiB available memory on the node where the printing process lives
------------------
     ethr =  3.06E-10,  avg # of iterations =  2.6

     total cpu time spent up to now is      140.8 secs

     total energy              =    -128.98271144 Ry
     estimated scf accuracy    <          1.3E-09 Ry

     iteration # 15     ecut=   120.00 Ry     beta= 0.30
     Davidson diagonalization with overlap

---- Real-time Memory Report at c_bands before calling an iterative solver
           415 MiB given to the printing process from OS
           135 MiB allocation reported by mallinfo(arena+hblkhd)
          6778 MiB available memory on the node where the printing process lives
------------------
     ethr =  7.22E-12,  avg # of iterations = 10.1

     total cpu time spent up to now is      154.1 secs

     total energy              =    -128.98271144 Ry
     estimated scf accuracy    <          1.8E-09 Ry

     iteration # 16     ecut=   120.00 Ry     beta= 0.30
     Davidson diagonalization with overlap

---- Real-time Memory Report at c_bands before calling an iterative solver
           415 MiB given to the printing process from OS
           135 MiB allocation reported by mallinfo(arena+hblkhd)
          6967 MiB available memory on the node where the printing process lives
------------------
     ethr =  7.22E-12,  avg # of iterations =  2.0

     total cpu time spent up to now is      161.4 secs

     total energy              =    -128.98271144 Ry
     estimated scf accuracy    <          4.8E-10 Ry

     iteration # 17     ecut=   120.00 Ry     beta= 0.30
     Davidson diagonalization with overlap

---- Real-time Memory Report at c_bands before calling an iterative solver
           415 MiB given to the printing process from OS
           135 MiB allocation reported by mallinfo(arena+hblkhd)
          6792 MiB available memory on the node where the printing process lives
------------------
     ethr =  2.65E-12,  avg # of iterations =  4.0

     total cpu time spent up to now is      172.6 secs

     total energy              =    -128.98271144 Ry
     estimated scf accuracy    <          1.7E-09 Ry

     iteration # 18     ecut=   120.00 Ry     beta= 0.30
     Davidson diagonalization with overlap

---- Real-time Memory Report at c_bands before calling an iterative solver
           415 MiB given to the printing process from OS
           135 MiB allocation reported by mallinfo(arena+hblkhd)
          6839 MiB available memory on the node where the printing process lives
------------------
     ethr =  2.65E-12,  avg # of iterations =  6.8

     total cpu time spent up to now is      183.5 secs

     total energy              =    -128.98271144 Ry
     estimated scf accuracy    <          1.6E-10 Ry

     iteration # 19     ecut=   120.00 Ry     beta= 0.30
     Davidson diagonalization with overlap

---- Real-time Memory Report at c_bands before calling an iterative solver
           415 MiB given to the printing process from OS
           135 MiB allocation reported by mallinfo(arena+hblkhd)
          6802 MiB available memory on the node where the printing process lives
------------------
     ethr =  8.68E-13,  avg # of iterations =  3.0

     total cpu time spent up to now is      190.5 secs

     total energy              =    -128.98271144 Ry
     estimated scf accuracy    <          1.2E-10 Ry

     iteration # 20     ecut=   120.00 Ry     beta= 0.30
     Davidson diagonalization with overlap

---- Real-time Memory Report at c_bands before calling an iterative solver
           415 MiB given to the printing process from OS
           135 MiB allocation reported by mallinfo(arena+hblkhd)
          6788 MiB available memory on the node where the printing process lives
------------------
     ethr =  6.48E-13,  avg # of iterations =  3.2

     total cpu time spent up to now is      198.0 secs

     End of self-consistent calculation

          k = 0.0000 0.0000 0.0000 ( 10969 PWs)   bands (ev):

    -6.4319  -6.4319  -4.0239  -4.0239  -4.0239  -4.0239  -3.4544  -3.4544
    -3.2804  -3.2804  -3.2804  -3.2804   3.7969   3.7969   4.6455   4.6455
     4.6455   4.6455

     occupation numbers 
     1.0000   1.0000   1.0000   1.0000   1.0000   1.0000   1.0000   1.0000
     1.0000   1.0000   1.0000   1.0000   1.0000   1.0000   1.0000   1.0000
     1.0000   1.0000

          k = 0.0707 0.0707-0.0707 ( 10927 PWs)   bands (ev):

    -6.3996  -6.3996  -4.0285  -4.0160  -4.0070  -4.0070  -3.4411  -3.4411
    -3.2842  -3.2780  -3.2780  -3.2684   3.3316   3.3316   4.1080   4.1080
     4.5575   4.5680

     occupation numbers 
     1.0000   1.0000   1.0000   1.0000   1.0000   1.0000   1.0000   1.0000
     1.0000   1.0000   1.0000   1.0000   1.0000   1.0000   1.0000   1.0000
     1.0000   1.0000

          k = 0.1414 0.1414-0.1414 ( 10897 PWs)   bands (ev):

    -6.3149  -6.3149  -4.0282  -4.0081  -3.9576  -3.9576  -3.4073  -3.4073
    -3.2780  -3.2602  -3.2602  -3.2524   2.2966   2.2966   3.8408   3.8408
     4.3577   4.3736

     occupation numbers 
     1.0000   1.0000   1.0000   1.0000   1.0000   1.0000   1.0000   1.0000
     1.0000   1.0000   1.0000   1.0000   1.0000   1.0000   1.0000   1.0000
     1.0000   1.0000

          k = 0.2121 0.2121-0.2121 ( 10897 PWs)   bands (ev):

    -6.2110  -6.2110  -4.0237  -4.0037  -3.8867  -3.8867  -3.3793  -3.3793
    -3.2632  -3.2376  -3.1916  -3.1916   1.3030   1.3030   3.6242   3.6242
     4.1438   4.1588

     occupation numbers 
     1.0000   1.0000   1.0000   1.0000   1.0000   1.0000   1.0000   1.0000
     1.0000   1.0000   1.0000   1.0000   1.0000   1.0000   1.0000   1.0000
     1.0000   1.0000

          k = 0.2828 0.2828-0.2828 ( 10931 PWs)   bands (ev):

    -6.1285  -6.1285  -4.0168  -4.0044  -3.8237  -3.8237  -3.3718  -3.3718
    -3.2455  -3.2297  -3.0721  -3.0721   0.5673   0.5673   3.4717   3.4717
     3.9908   3.9998

     occupation numbers 
     1.0000   1.0000   1.0000   1.0000   1.0000   1.0000   1.0000   1.0000
     1.0000   1.0000   1.0000   1.0000   1.0000   1.0000   1.0000   1.0000
     1.0000   1.0000

          k =-0.3536-0.3536 0.3536 ( 10880 PWs)   bands (ev):

    -6.0975  -6.0975  -4.0095  -4.0095  -3.7991  -3.7991  -3.3712  -3.3712
    -3.2325  -3.2325  -3.0045  -3.0045   0.2849   0.2849   3.4169   3.4169
     3.9391   3.9391

     occupation numbers 
     1.0000   1.0000   1.0000   1.0000   1.0000   1.0000   1.0000   1.0000
     1.0000   1.0000   1.0000   1.0000   1.0000   1.0000   1.0000   1.0000
     1.0000   1.0000

          k = 0.1414 0.0000 0.0000 ( 10922 PWs)   bands (ev):

    -6.3888  -6.3888  -4.0200  -4.0200  -4.0031  -4.0031  -3.4364  -3.4364
    -3.2848  -3.2848  -3.2676  -3.2676   3.2747   3.2747   3.9931   3.9931
     4.4015   4.4015

     occupation numbers 
     1.0000   1.0000   1.0000   1.0000   1.0000   1.0000   1.0000   1.0000
     1.0000   1.0000   1.0000   1.0000   1.0000   1.0000   1.0000   1.0000
     1.0000   1.0000

          k = 0.2121 0.0707-0.0707 ( 10917 PWs)   bands (ev):

    -6.3225  -6.3211  -4.0221  -4.0046  -3.9790  -3.9566  -3.4122  -3.4034
    -3.2823  -3.2805  -3.2548  -3.2477   2.4902   2.5449   3.6759   3.7766
     4.1835   4.1969

     occupation numbers 
     1.0000   1.0000   1.0000   1.0000   1.0000   1.0000   1.0000   1.0000
     1.0000   1.0000   1.0000   1.0000   1.0000   1.0000   1.0000   1.0000
     1.0000   1.0000

          k = 0.2828 0.1414-0.1414 ( 10896 PWs)   bands (ev):

    -6.2266  -6.2225  -4.0192  -3.9974  -3.9290  -3.8790  -3.3838  -3.3679
    -3.2682  -3.2592  -3.2101  -3.1991   1.5493   1.6092   3.4239   3.5483
     3.9448   3.9653

     occupation numbers 
     1.0000   1.0000   1.0000   1.0000   1.0000   1.0000   1.0000   1.0000
     1.0000   1.0000   1.0000   1.0000   1.0000   1.0000   1.0000   1.0000
     1.0000   1.0000

          k = 0.3536 0.2121-0.2121 ( 10901 PWs)   bands (ev):

    -6.1391  -6.1319  -4.0131  -3.9962  -3.8760  -3.7987  -3.3729  -3.3563
    -3.2505  -3.2382  -3.1196  -3.0778   0.7576   0.8179   3.2220   3.3601
     3.7499   3.7800

     occupation numbers 
     1.0000   1.0000   1.0000   1.0000   1.0000   1.0000   1.0000   1.0000
     1.0000   1.0000   1.0000   1.0000   1.0000   1.0000   1.0000   1.0000
     1.0000   1.0000

          k =-0.2828-0.4243 0.4243 ( 10894 PWs)   bands (ev):

    -6.0927  -6.0833  -4.0060  -3.9999  -3.8461  -3.7534  -3.3725  -3.3550
    -3.2364  -3.2331  -3.0299  -2.9725   0.3262   0.3882   3.0942   3.2404
     3.6809   3.7122

     occupation numbers 
     1.0000   1.0000   1.0000   1.0000   1.0000   1.0000   1.0000   1.0000
     1.0000   1.0000   1.0000   1.0000   1.0000   1.0000   1.0000   1.0000
     1.0000   1.0000

          k =-0.2121-0.3536 0.3536 ( 10911 PWs)   bands (ev):

    -6.1029  -6.0936  -4.0068  -4.0003  -3.8538  -3.7614  -3.3736  -3.3547
    -3.2406  -3.2317  -3.0546  -2.9947   0.4174   0.4830   3.0663   3.2185
     3.7548   3.7803

     occupation numbers 
     1.0000   1.0000   1.0000   1.0000   1.0000   1.0000   1.0000   1.0000
     1.0000   1.0000   1.0000   1.0000   1.0000   1.0000   1.0000   1.0000
     1.0000   1.0000

          k =-0.1414-0.2828 0.2828 ( 10903 PWs)   bands (ev):

    -6.1663  -6.1593  -4.0143  -3.9984  -3.8954  -3.8194  -3.3779  -3.3571
    -3.2560  -3.2391  -3.1648  -3.1152   0.9884   1.0607   3.1587   3.3219
     3.9378   3.9583

     occupation numbers 
     1.0000   1.0000   1.0000   1.0000   1.0000   1.0000   1.0000   1.0000
     1.0000   1.0000   1.0000   1.0000   1.0000   1.0000   1.0000   1.0000
     1.0000   1.0000

          k =-0.0707-0.2121 0.2121 ( 10927 PWs)   bands (ev):

    -6.2609  -6.2570  -4.0208  -4.0017  -3.9501  -3.9019  -3.3963  -3.3760
    -3.2725  -3.2571  -3.2470  -3.2142   1.8362   1.9196   3.3787   3.5573
     4.1708   4.1904

     occupation numbers 
     1.0000   1.0000   1.0000   1.0000   1.0000   1.0000   1.0000   1.0000
     1.0000   1.0000   1.0000   1.0000   1.0000   1.0000   1.0000   1.0000
     1.0000   1.0000

          k = 0.0000-0.1414 0.1414 ( 10923 PWs)   bands (ev):

    -6.3505  -6.3492  -4.0256  -4.0092  -3.9919  -3.9712  -3.4250  -3.4155
    -3.2828  -3.2742  -3.2718  -3.2535   2.7215   2.8011   3.7312   3.8910
     4.3903   4.4051

     occupation numbers 
     1.0000   1.0000   1.0000   1.0000   1.0000   1.0000   1.0000   1.0000
     1.0000   1.0000   1.0000   1.0000   1.0000   1.0000   1.0000   1.0000
     1.0000   1.0000

          k = 0.2828 0.0000 0.0000 ( 10930 PWs)   bands (ev):

    -6.2767  -6.2767  -4.0050  -4.0050  -3.9471  -3.9471  -3.3849  -3.3849
    -3.2867  -3.2867  -3.2337  -3.2337   2.2734   2.2734   3.4700   3.4700
     3.8794   3.8794

     occupation numbers 
     1.0000   1.0000   1.0000   1.0000   1.0000   1.0000   1.0000   1.0000
     1.0000   1.0000   1.0000   1.0000   1.0000   1.0000   1.0000   1.0000
     1.0000   1.0000

          k = 0.3536 0.0707-0.0707 ( 10920 PWs)   bands (ev):

    -6.1997  -6.1955  -4.0050  -3.9863  -3.9272  -3.8721  -3.3595  -3.3485
    -3.2829  -3.2736  -3.1943  -3.1867   1.6051   1.6787   3.1342   3.2793
     3.5902   3.6257

     occupation numbers 
     1.0000   1.0000   1.0000   1.0000   1.0000   1.0000   1.0000   1.0000
     1.0000   1.0000   1.0000   1.0000   1.0000   1.0000   1.0000   1.0000
     1.0000   1.0000

          k = 0.4243 0.1414-0.1414 ( 10893 PWs)   bands (ev):

    -6.1211  -6.1109  -4.0012  -3.9762  -3.9001  -3.7840  -3.3489  -3.3363
    -3.2620  -3.2528  -3.1218  -3.0707   0.9172   1.0271   2.8104   3.0331
     3.3635   3.4264

     occupation numbers 
     1.0000   1.0000   1.0000   1.0000   1.0000   1.0000   1.0000   1.0000
     1.0000   1.0000   1.0000   1.0000   1.0000   1.0000   1.0000   1.0000
     1.0000   1.0000

          k =-0.2121-0.4950 0.4950 ( 10895 PWs)   bands (ev):

    -6.0707  -6.0553  -3.9957  -3.9755  -3.8809  -3.7220  -3.3521  -3.3351
    -3.2439  -3.2382  -3.0330  -2.9424   0.4485   0.5803   2.5312   2.7679
     3.3253   3.3758

     occupation numbers 
     1.0000   1.0000   1.0000   1.0000   1.0000   1.0000   1.0000   1.0000
     1.0000   1.0000   1.0000   1.0000   1.0000   1.0000   1.0000   1.0000
     1.0000   1.0000

          k =-0.1414-0.4243 0.4243 ( 10891 PWs)   bands (ev):

    -6.0656  -6.0481  -3.9909  -3.9813  -3.8821  -3.7089  -3.3578  -3.3351
    -3.2396  -3.2330  -3.0210  -2.9125   0.3796   0.5295   2.3737   2.6195
     3.4460   3.4807

     occupation numbers 
     1.0000   1.0000   1.0000   1.0000   1.0000   1.0000   1.0000   1.0000
     1.0000   1.0000   1.0000   1.0000   1.0000   1.0000   1.0000   1.0000
     1.0000   1.0000

          k =-0.0707-0.3536 0.3536 ( 10901 PWs)   bands (ev):

    -6.1069  -6.0919  -3.9915  -3.9897  -3.9033  -3.7464  -3.3645  -3.3359
    -3.2469  -3.2385  -3.1093  -3.0056   0.7232   0.8880   2.4147   2.6775
     3.6732   3.6993

     occupation numbers 
     1.0000   1.0000   1.0000   1.0000   1.0000   1.0000   1.0000   1.0000
     1.0000   1.0000   1.0000   1.0000   1.0000   1.0000   1.0000   1.0000
     1.0000   1.0000

          k = 0.0000-0.2828 0.2828 ( 10891 PWs)   bands (ev):

    -6.1811  -6.1715  -4.0056  -3.9936  -3.9311  -3.8216  -3.3774  -3.3459
    -3.2605  -3.2503  -3.2026  -3.1302   1.2817   1.4342   2.7492   3.0074
     3.9382   3.9628

     occupation numbers 
     1.0000   1.0000   1.0000   1.0000   1.0000   1.0000   1.0000   1.0000
     1.0000   1.0000   1.0000   1.0000   1.0000   1.0000   1.0000   1.0000
     1.0000   1.0000

          k = 0.4243 0.0000 0.0000 ( 10922 PWs)   bands (ev):

    -6.1409  -6.1409  -3.9869  -3.9869  -3.8672  -3.8672  -3.3249  -3.3249
    -3.2810  -3.2810  -3.1490  -3.1490   1.3366   1.3366   2.9907   2.9907
     3.3652   3.3652

     occupation numbers 
     1.0000   1.0000   1.0000   1.0000   1.0000   1.0000   1.0000   1.0000
     1.0000   1.0000   1.0000   1.0000   1.0000   1.0000   1.0000   1.0000
     1.0000   1.0000

          k = 0.4950 0.0707-0.0707 ( 10898 PWs)   bands (ev):

    -6.0812  -6.0736  -3.9869  -3.9691  -3.8685  -3.7828  -3.3189  -3.3072
    -3.2823  -3.2533  -3.0829  -3.0456   0.8544   0.9382   2.6637   2.8289
     3.1098   3.1584

     occupation numbers 
     1.0000   1.0000   1.0000   1.0000   1.0000   1.0000   1.0000   1.0000
     1.0000   1.0000   1.0000   1.0000   1.0000   1.0000   1.0000   1.0000
     1.0000   1.0000

          k =-0.1414-0.5657 0.5657 ( 10893 PWs)   bands (ev):

    -6.0396  -6.0238  -3.9846  -3.9548  -3.8800  -3.7129  -3.3204  -3.3155
    -3.2627  -3.2358  -3.0052  -2.9171   0.4870   0.6454   2.2570   2.5174
     3.0202   3.0772

     occupation numbers 
     1.0000   1.0000   1.0000   1.0000   1.0000   1.0000   1.0000   1.0000
     1.0000   1.0000   1.0000   1.0000   1.0000   1.0000   1.0000   1.0000
     1.0000   1.0000

          k =-0.0707-0.4950 0.4950 ( 10894 PWs)   bands (ev):

    -6.0304  -6.0093  -3.9826  -3.9492  -3.8980  -3.6823  -3.3308  -3.3223
    -3.2467  -3.2301  -2.9749  -2.8521   0.3689   0.5921   1.9361   2.2490
     3.1390   3.1777

     occupation numbers 
     1.0000   1.0000   1.0000   1.0000   1.0000   1.0000   1.0000   1.0000
     1.0000   1.0000   1.0000   1.0000   1.0000   1.0000   1.0000   1.0000
     1.0000   1.0000

          k =-0.0000-0.4243 0.4243 ( 10900 PWs)   bands (ev):

    -6.0556  -6.0350  -3.9838  -3.9637  -3.9069  -3.6951  -3.3473  -3.3256
    -3.2418  -3.2332  -3.0274  -2.8963   0.4944   0.7348   1.9372   2.2669
     3.3813   3.4099

     occupation numbers 
     1.0000   1.0000   1.0000   1.0000   1.0000   1.0000   1.0000   1.0000
     1.0000   1.0000   1.0000   1.0000   1.0000   1.0000   1.0000   1.0000
     1.0000   1.0000

          k = 0.5657 0.0000 0.0000 ( 10878 PWs)   bands (ev):

    -6.0352  -6.0352  -3.9730  -3.9730  -3.7981  -3.7981  -3.3028  -3.3028
    -3.2592  -3.2592  -3.0018  -3.0018   0.6288   0.6288   2.6553   2.6553
     3.0108   3.0108

     occupation numbers 
     1.0000   1.0000   1.0000   1.0000   1.0000   1.0000   1.0000   1.0000
     1.0000   1.0000   1.0000   1.0000   1.0000   1.0000   1.0000   1.0000
     1.0000   1.0000

          k =-0.0707-0.6364 0.6364 ( 10880 PWs)   bands (ev):

    -6.0111  -6.0011  -3.9757  -3.9592  -3.8304  -3.7297  -3.3104  -3.2866
    -3.2726  -3.2359  -2.9570  -2.9035   0.3894   0.4785   2.3963   2.5650
     2.8551   2.9052

     occupation numbers 
     1.0000   1.0000   1.0000   1.0000   1.0000   1.0000   1.0000   1.0000
     1.0000   1.0000   1.0000   1.0000   1.0000   1.0000   1.0000   1.0000
     1.0000   1.0000

          k = 0.0000-0.5657 0.5657 ( 10908 PWs)   bands (ev):

    -6.0097  -5.9914  -3.9780  -3.9459  -3.8729  -3.6886  -3.3158  -3.3023
    -3.2618  -3.2281  -2.9442  -2.8438   0.3297   0.5113   2.0349   2.3097
     2.9071   2.9583

     occupation numbers 
     1.0000   1.0000   1.0000   1.0000   1.0000   1.0000   1.0000   1.0000
     1.0000   1.0000   1.0000   1.0000   1.0000   1.0000   1.0000   1.0000
     1.0000   1.0000

          k =-0.7071 0.0000 0.0000 ( 10846 PWs)   bands (ev):

    -5.9963  -5.9963  -3.9679  -3.9679  -3.7720  -3.7720  -3.2994  -3.2994
    -3.2478  -3.2478  -2.9157  -2.9157   0.3496   0.3496   2.5356   2.5356
     2.8857   2.8857

     occupation numbers 
     1.0000   1.0000   1.0000   1.0000   1.0000   1.0000   1.0000   1.0000
     1.0000   1.0000   1.0000   1.0000   1.0000   1.0000   1.0000   1.0000
     1.0000   1.0000

          k = 0.2828 0.1414 0.0000 ( 10919 PWs)   bands (ev):

    -6.2508  -6.2465  -4.0143  -3.9949  -3.9546  -3.8985  -3.3880  -3.3678
    -3.2764  -3.2746  -3.2325  -3.2103   1.8863   1.9879   3.2344   3.4479
     3.9142   4.0066

     occupation numbers 
     1.0000   1.0000   1.0000   1.0000   1.0000   1.0000   1.0000   1.0000
     1.0000   1.0000   1.0000   1.0000   1.0000   1.0000   1.0000   1.0000
     1.0000   1.0000

          k = 0.3536 0.2121-0.0707 ( 10898 PWs)   bands (ev):

    -6.1640  -6.1549  -4.0064  -3.9875  -3.9190  -3.8143  -3.3681  -3.3443
    -3.2594  -3.2566  -3.1751  -3.1193   1.1664   1.2873   2.8576   3.0952
     3.6819   3.7812

     occupation numbers 
     1.0000   1.0000   1.0000   1.0000   1.0000   1.0000   1.0000   1.0000
     1.0000   1.0000   1.0000   1.0000   1.0000   1.0000   1.0000   1.0000
     1.0000   1.0000

          k =-0.2828-0.4243 0.5657 ( 10900 PWs)   bands (ev):

    -6.0959  -6.0822  -3.9987  -3.9861  -3.8851  -3.7435  -3.3624  -3.3400
    -3.2440  -3.2397  -3.0752  -2.9896   0.5730   0.6936   2.6599   2.8924
     3.4847   3.5759

     occupation numbers 
     1.0000   1.0000   1.0000   1.0000   1.0000   1.0000   1.0000   1.0000
     1.0000   1.0000   1.0000   1.0000   1.0000   1.0000   1.0000   1.0000
     1.0000   1.0000

          k =-0.2121-0.3536 0.4950 ( 10900 PWs)   bands (ev):

    -6.0705  -6.0549  -3.9938  -3.9881  -3.8713  -3.7172  -3.3621  -3.3400
    -3.2371  -3.2348  -3.0174  -2.9226   0.3372   0.4570   2.6008   2.8306
     3.4069   3.4933

     occupation numbers 
     1.0000   1.0000   1.0000   1.0000   1.0000   1.0000   1.0000   1.0000
     1.0000   1.0000   1.0000   1.0000   1.0000   1.0000   1.0000   1.0000
     1.0000   1.0000

          k = 0.4243 0.1414-0.0000 ( 10909 PWs)   bands (ev):

    -6.1308  -6.1223  -3.9960  -3.9751  -3.9057  -3.8050  -3.3376  -3.3300
    -3.2773  -3.2586  -3.1436  -3.1011   1.1213   1.2349   2.7441   2.9962
     3.2852   3.4321

     occupation numbers 
     1.0000   1.0000   1.0000   1.0000   1.0000   1.0000   1.0000   1.0000
     1.0000   1.0000   1.0000   1.0000   1.0000   1.0000   1.0000   1.0000
     1.0000   1.0000

          k =-0.2121-0.4950 0.6364 ( 10903 PWs)   bands (ev):

    -6.0712  -6.0559  -3.9883  -3.9650  -3.8956  -3.7315  -3.3336  -3.3247
    -3.2598  -3.2419  -3.0597  -2.9730   0.6543   0.8147   2.3827   2.6778
     3.0858   3.2280

     occupation numbers 
     1.0000   1.0000   1.0000   1.0000   1.0000   1.0000   1.0000   1.0000
     1.0000   1.0000   1.0000   1.0000   1.0000   1.0000   1.0000   1.0000
     1.0000   1.0000

          k =-0.1414-0.4243 0.5657 ( 10885 PWs)   bands (ev):

    -6.0418  -6.0217  -3.9828  -3.9617  -3.8940  -3.6903  -3.3384  -3.3245
    -3.2453  -3.2338  -2.9920  -2.8768   0.3928   0.5861   2.1380   2.4415
     3.0552   3.1609

     occupation numbers 
     1.0000   1.0000   1.0000   1.0000   1.0000   1.0000   1.0000   1.0000
     1.0000   1.0000   1.0000   1.0000   1.0000   1.0000   1.0000   1.0000
     1.0000   1.0000

          k =-0.0707-0.3536 0.4950 ( 10882 PWs)   bands (ev):

    -6.0517  -6.0314  -3.9815  -3.9672  -3.9005  -3.6942  -3.3448  -3.3255
    -3.2422  -3.2354  -3.0146  -2.8923   0.4543   0.6651   2.0708   2.3839
     3.1904   3.2867

     occupation numbers 
     1.0000   1.0000   1.0000   1.0000   1.0000   1.0000   1.0000   1.0000
     1.0000   1.0000   1.0000   1.0000   1.0000   1.0000   1.0000   1.0000
     1.0000   1.0000

          k = 0.0000-0.2828 0.4243 ( 10910 PWs)   bands (ev):

    -6.0976  -6.0817  -3.9894  -3.9776  -3.9105  -3.7410  -3.3537  -3.3297
    -3.2496  -3.2446  -3.1031  -3.0004   0.7702   0.9612   2.2969   2.5977
     3.4323   3.5346

     occupation numbers 
     1.0000   1.0000   1.0000   1.0000   1.0000   1.0000   1.0000   1.0000
     1.0000   1.0000   1.0000   1.0000   1.0000   1.0000   1.0000   1.0000
     1.0000   1.0000

          k =-0.1414-0.5657 0.7071 ( 10878 PWs)   bands (ev):

    -6.0380  -6.0254  -3.9801  -3.9600  -3.8631  -3.7313  -3.3158  -3.2968
    -3.2772  -3.2389  -3.0113  -2.9443   0.5492   0.6709   2.4154   2.6725
     2.8357   2.9699

     occupation numbers 
     1.0000   1.0000   1.0000   1.0000   1.0000   1.0000   1.0000   1.0000
     1.0000   1.0000   1.0000   1.0000   1.0000   1.0000   1.0000   1.0000
     1.0000   1.0000

          k =-0.0707-0.4950 0.6364 ( 10887 PWs)   bands (ev):

    -6.0163  -5.9968  -3.9758  -3.9482  -3.8842  -3.6860  -3.3183  -3.3054
    -3.2610  -3.2302  -2.9564  -2.8523   0.3719   0.5632   2.0928   2.3974
     2.7659   2.8607

     occupation numbers 
     1.0000   1.0000   1.0000   1.0000   1.0000   1.0000   1.0000   1.0000
     1.0000   1.0000   1.0000   1.0000   1.0000   1.0000   1.0000   1.0000
     1.0000   1.0000

          k =-0.0000-0.4243 0.5657 ( 10886 PWs)   bands (ev):

    -6.0218  -5.9991  -3.9756  -3.9441  -3.9064  -3.6727  -3.3274  -3.3166
    -3.2470  -3.2307  -2.9591  -2.8326   0.3682   0.6156   1.8708   2.2141
     2.9166   3.0032

     occupation numbers 
     1.0000   1.0000   1.0000   1.0000   1.0000   1.0000   1.0000   1.0000
     1.0000   1.0000   1.0000   1.0000   1.0000   1.0000   1.0000   1.0000
     1.0000   1.0000

          k =-0.7071 0.1414 0.0000 ( 10860 PWs)   bands (ev):

    -6.0038  -5.9895  -3.9739  -3.9545  -3.8465  -3.7051  -3.3122  -3.2810
    -3.2774  -3.2303  -2.9370  -2.8627   0.3251   0.4501   2.3066   2.5286
     2.7316   2.7628

     occupation numbers 
     1.0000   1.0000   1.0000   1.0000   1.0000   1.0000   1.0000   1.0000
     1.0000   1.0000   1.0000   1.0000   1.0000   1.0000   1.0000   1.0000
     1.0000   1.0000

          k =-0.1414-0.4243 0.7071 ( 10900 PWs)   bands (ev):

    -6.0328  -6.0118  -3.9741  -3.9548  -3.9025  -3.6856  -3.3279  -3.3157
    -3.2525  -3.2342  -2.9869  -2.8711   0.4493   0.6696   2.0533   2.4078
     2.7981   2.9497

     occupation numbers 
     1.0000   1.0000   1.0000   1.0000   1.0000   1.0000   1.0000   1.0000
     1.0000   1.0000   1.0000   1.0000   1.0000   1.0000   1.0000   1.0000
     1.0000   1.0000

          k =-0.0707-0.3536 0.6364 ( 10878 PWs)   bands (ev):

    -6.0186  -5.9951  -3.9685  -3.9479  -3.9089  -3.6683  -3.3273  -3.3123
    -3.2474  -3.2329  -2.9508  -2.8261   0.3675   0.6121   1.9500   2.3225
     2.6769   2.8039

     occupation numbers 
     1.0000   1.0000   1.0000   1.0000   1.0000   1.0000   1.0000   1.0000
     1.0000   1.0000   1.0000   1.0000   1.0000   1.0000   1.0000   1.0000
     1.0000   1.0000

          k =-0.7071 0.2828 0.0000 ( 10870 PWs)   bands (ev):

    -6.0089  -5.9858  -3.9666  -3.9441  -3.9026  -3.6669  -3.3211  -3.3034
    -3.2552  -3.2305  -2.9334  -2.8154   0.3438   0.5746   2.0331   2.4507
     2.5318   2.5370

     occupation numbers 
     1.0000   1.0000   1.0000   1.0000   1.0000   1.0000   1.0000   1.0000
     1.0000   1.0000   1.0000   1.0000   1.0000   1.0000   1.0000   1.0000
     1.0000   1.0000

     highest occupied level (ev):     4.6455

!    total energy              =    -128.98271144 Ry
     estimated scf accuracy    <          2.8E-12 Ry

     The total energy is the sum of the following terms:
     one-electron contribution =     -51.34784588 Ry
     hartree contribution      =      36.95658393 Ry
     xc contribution           =     -39.46406123 Ry
     ewald contribution        =     -75.12738826 Ry

     convergence has been achieved in  20 iterations

     Writing all to output data dir /home/User/opencode_workspace/DFT/calculations/cdte/production_scf_soc/out/pwscf.save/ :
     XML data file, charge density, pseudopotentials, collected wavefunctions

     init_run     :      3.20s CPU      3.83s WALL (       1 calls)
     electrons    :    165.38s CPU    193.80s WALL (       1 calls)

     Called by init_run:
     wfcinit      :      2.13s CPU      2.38s WALL (       1 calls)
     wfcinit:atom :      0.03s CPU      0.03s WALL (      47 calls)
     wfcinit:wfcr :      1.90s CPU      2.15s WALL (      47 calls)
     potinit      :      0.18s CPU      0.20s WALL (       1 calls)
     hinit0       :      0.39s CPU      0.42s WALL (       1 calls)

     Called by electrons:
     c_bands      :    127.57s CPU    140.24s WALL (      21 calls)
     sum_band     :     27.30s CPU     36.32s WALL (      21 calls)
     v_of_rho     :      0.57s CPU      0.62s WALL (      21 calls)
     v_h          :      0.03s CPU      0.04s WALL (      21 calls)
     v_xc         :      0.53s CPU      0.58s WALL (      21 calls)
     newd         :      9.67s CPU     16.57s WALL (      21 calls)
     mix_rho      :      0.37s CPU      0.42s WALL (      21 calls)

     Called by c_bands:
     init_us_2    :      1.59s CPU      1.64s WALL (    2021 calls)
     cegterg      :    112.85s CPU    125.45s WALL (     987 calls)

     Called by sum_band:
     sum_band:wei :      0.00s CPU      0.00s WALL (      21 calls)
     sum_band:loo :     16.64s CPU     18.46s WALL (      21 calls)
     sum_band:buf :      0.10s CPU      0.10s WALL (     987 calls)
     sum_band:ini :      0.83s CPU      0.84s WALL (     987 calls)
     sum_band:cal :      1.37s CPU      1.50s WALL (     987 calls)
     sum_band:bec :      1.19s CPU      1.20s WALL (     987 calls)
     addusdens    :      9.51s CPU     16.67s WALL (      21 calls)
                                        0.00s GPU  (      21 calls)
     addusd:skk   :      0.00s CPU      0.00s WALL (      42 calls)
                                        0.00s GPU  (      42 calls)

     Called by *egterg:
     cdiaghg      :      1.73s CPU      1.76s WALL (    5069 calls)
     cegterg:over :      5.36s CPU      5.52s WALL (    4129 calls)
     cegterg:upda :      1.85s CPU      1.89s WALL (    4129 calls)
     cegterg:last :      3.75s CPU      3.78s WALL (    2824 calls)
     h_psi        :     94.52s CPU    106.96s WALL (    5163 calls)
     s_psi        :      3.34s CPU      3.41s WALL (    5163 calls)
     g_psi        :      0.83s CPU      0.85s WALL (    4129 calls)

     Called by h_psi:
     h_psi:calbec :      5.18s CPU      5.63s WALL (    5163 calls)
     vloc_psi     :     85.42s CPU     97.35s WALL (    5163 calls)
                                        0.00s GPU  (    5163 calls)
     add_vuspsi   :      3.53s CPU      3.59s WALL (    5163 calls)

     General routines
     calbec       :      6.53s CPU      7.10s WALL (    6150 calls)
     fft          :      0.69s CPU      0.81s WALL (     515 calls)
     ffts         :      0.22s CPU      0.25s WALL (     168 calls)
     fftw         :     90.30s CPU    102.81s WALL (  279676 calls)
     interpolate  :      0.28s CPU      0.31s WALL (      84 calls)

     Parallel routines

     PWSCF        :   2m49.19s CPU   3m20.10s WALL


   This run was terminated on:  21:25:44  22Sep2026            

=------------------------------------------------------------------------------=
   JOB DONE.
=------------------------------------------------------------------------------=
