40
Lattice="-6.629405000000014 -9.944107500000003 -3.314702499999996 -6.629404999999997 9.944107500000001 3.314702499999997 6.629404999999999 3.3147025000000006 -9.944107500000001" Properties=species:S:1:pos:R:3 pbc="T T T"
Hg      -0.00000000      -0.00000000      -0.00000000
Te      -1.65735125      -4.97205375      -8.28675625
Hg      -6.62940500      -3.31470250      -3.31470250
Te      -1.65735125       1.65735125      -8.28675625
Hg      -3.31470250      -3.31470250      -6.62940500
Te      -4.97205375      -1.65735125      -1.65735125
Hg      -0.00000000      -3.31470250      -9.94410750
Te      -1.65735125      -1.65735125      -4.97205375
Cd      -6.62940500      -0.00000000      -0.00000000
Te      -1.65735125       4.97205375      -4.97205375
Hg      -3.31470250      -0.00000000      -3.31470250
Te       1.65735125       4.97205375      -8.28675625
Cd      -0.00000000      -0.00000000      -6.62940500
Te      -1.65735125       1.65735125      -1.65735125
Hg       3.31470250      -0.00000000      -9.94410750
Te       1.65735125       1.65735125      -4.97205375
Hg      -3.31470250       3.31470250      -0.00000000
Te      -4.97205375      -1.65735125      -8.28675625
Hg      -0.00000000       3.31470250      -3.31470250
Te      -8.28675625      -4.97205375      -1.65735125
Cd       3.31470250       3.31470250      -6.62940500
Te      -4.97205375      -4.97205375      -4.97205375
Hg      -9.94410750      -0.00000000      -3.31470250
Te      -4.97205375       4.97205375      -8.28675625
Hg      -6.62940500      -0.00000000      -6.62940500
Te      -8.28675625       1.65735125      -1.65735125
Hg      -3.31470250      -0.00000000      -9.94410750
Te      -4.97205375       1.65735125      -4.97205375
Hg      -9.94410750       3.31470250      -0.00000000
Te       1.65735125      -1.65735125      -8.28675625
Hg      -6.62940500       3.31470250      -3.31470250
Te      -8.28675625       4.97205375       1.65735125
Cd      -3.31470250       3.31470250      -6.62940500
Te      -4.97205375       4.97205375      -1.65735125
Hg      -6.62940500       6.62940500      -0.00000000
Te      -1.65735125      11.60145875      -4.97205375
Hg      -3.31470250       6.62940500      -3.31470250
Te      -4.97205375       8.28675625       1.65735125
Hg      -0.00000000       6.62940500      -6.62940500
Te      -8.28675625      -1.65735125      -4.97205375
