
     Program PWSCF v.7.5 starts on 23Sep2026 at  0:36:13 

     This program is part of the open-source Quantum ESPRESSO suite
     for quantum simulation of materials; please cite
         "P. Giannozzi et al., J. Phys.:Condens. Matter 21 395502 (2009);
         "P. Giannozzi et al., J. Phys.:Condens. Matter 29 465901 (2017);
         "P. Giannozzi et al., J. Chem. Phys. 152 154105 (2020);
          URL http://www.quantum-espresso.org", 
     in publications or presentations arising from this work. More details at
     http://www.quantum-espresso.org/quote

     Parallel version (MPI & OpenMP), running on       6 processor cores
     Number of MPI processes:                 6
     Threads/MPI process:                     1

     MPI processes distributed on     1 nodes
     13697 MiB available memory on the printing compute node when the environment starts

     Reading input from pw.in

     Current dimensions of program PWSCF are:
     Max number of different atomic species (ntypx) = 10
     Max number of k-points (npk) =  40000
     Max angular momentum in pseudopotentials (lmaxx) =  4
     file Hg.pbe-spn-rrkjus_psl.1.0.0.UPF: wavefunction(s)  5P renormalized
     file Te.pbe-n-rrkjus_psl.1.0.0.UPF: wavefunction(s)  5S renormalized

     Atomic positions and unit cell read from directory:
     /home/User/opencode_workspace/DFT/calculations/hgte/production_dos_nosoc/out/pwscf.save/

     Message from routine setup:
     using ibrav=0 with symmetry is DISCOURAGED, use correct ibrav instead

     R & G space division:  proc/nbgrp/npool/nimage =       6
     Subspace diagonalization in iterative solution of the eigenvalue problem:
     a serial algorithm will be used


     Parallelization info
     --------------------
     sticks:   dense  smooth     PW     G-vecs:    dense   smooth      PW
     Min         650     431    124                26941    14639    2220
     Max         651     432    125                26945    14644    2222
     Sum        3901    2587    745               161653    87843   13323

     Using Slab Decomposition



     bravais-lattice index     =            0
     lattice parameter (alat)  =       8.8860  a.u.
     unit-cell volume          =     496.1465 (a.u.)^3
     number of atoms/cell      =            2
     number of atomic types    =            2
     number of electrons       =        26.00
     number of Kohn-Sham states=           17
     kinetic-energy cutoff     =     120.0000  Ry
     charge density cutoff     =     720.0000  Ry
     Exchange-correlation= PBE
                           (   1   4   3   4   0   0   0)

     celldm(1)=   8.886041  celldm(2)=   0.000000  celldm(3)=   0.000000
     celldm(4)=   0.000000  celldm(5)=   0.000000  celldm(6)=   0.000000

     crystal axes: (cart. coord. in units of alat)
               a(1) = (   0.000000   0.707107   0.707107 )  
               a(2) = (   0.707107   0.000000   0.707107 )  
               a(3) = (   0.707107   0.707107   0.000000 )  

     reciprocal axes: (cart. coord. in units 2 pi/alat)
               b(1) = ( -0.707107  0.707107  0.707107 )  
               b(2) = (  0.707107 -0.707107  0.707107 )  
               b(3) = (  0.707107  0.707107 -0.707107 )  


     PseudoPot. # 1 for Hg read from file:
     /home/User/opencode_workspace/DFT/pseudopotentials/Hg.pbe-spn-rrkjus_psl.1.0.0.UPF
     MD5 check sum: f568566075d917e14d67c96ef6763253
     Pseudo is Ultrasoft + core correction, Zval = 20.0
     Generated using &quot;atomic&quot; code by A. Dal Corso  v.6.3
     Using radial grid of 1279 points,  6 beta functions with: 
                l(1) =   0
                l(2) =   0
                l(3) =   1
                l(4) =   1
                l(5) =   2
                l(6) =   2
     Q(r) pseudized with 0 coefficients 


     PseudoPot. # 2 for Te read from file:
     /home/User/opencode_workspace/DFT/pseudopotentials/Te.pbe-n-rrkjus_psl.1.0.0.UPF
     MD5 check sum: 203a1e86ef55f0cd9de2762a27c58f54
     Pseudo is Ultrasoft + core correction, Zval =  6.0
     Generated using &quot;atomic&quot; code by A. Dal Corso  v.6.3
     Using radial grid of 1245 points,  6 beta functions with: 
                l(1) =   0
                l(2) =   0
                l(3) =   1
                l(4) =   1
                l(5) =   2
                l(6) =   2
     Q(r) pseudized with 0 coefficients 


     atomic species   valence    mass     pseudopotential
     Hg               20.00   200.59200     Hg( 1.00)
     Te                6.00   127.60000     Te( 1.00)

     24 Sym. Ops. (no inversion) found


                                    s                        frac. trans.

      isym =  1     identity                                     

 cryst.   s( 1) = (     1          0          0      )
                  (     0          1          0      )
                  (     0          0          1      )

 cart.    s( 1) = (  1.0000000  0.0000000  0.0000000 )
                  (  0.0000000  1.0000000  0.0000000 )
                  (  0.0000000  0.0000000  1.0000000 )


      isym =  2     180 deg rotation - cart. axis [0,0,1]        

 cryst.   s( 2) = (     0          1         -1      )
                  (     1          0         -1      )
                  (     0          0         -1      )

 cart.    s( 2) = ( -1.0000000  0.0000000  0.0000000 )
                  (  0.0000000 -1.0000000  0.0000000 )
                  (  0.0000000  0.0000000  1.0000000 )


      isym =  3     180 deg rotation - cart. axis [0,1,0]        

 cryst.   s( 3) = (     0         -1          1      )
                  (     0         -1          0      )
                  (     1         -1          0      )

 cart.    s( 3) = ( -1.0000000  0.0000000  0.0000000 )
                  (  0.0000000  1.0000000  0.0000000 )
                  (  0.0000000  0.0000000 -1.0000000 )


      isym =  4     180 deg rotation - cart. axis [1,0,0]        

 cryst.   s( 4) = (    -1          0          0      )
                  (    -1          0          1      )
                  (    -1          1          0      )

 cart.    s( 4) = (  1.0000000  0.0000000  0.0000000 )
                  (  0.0000000 -1.0000000  0.0000000 )
                  (  0.0000000  0.0000000 -1.0000000 )


      isym =  5     120 deg rotation - cart. axis [-1,-1,-1]     

 cryst.   s( 5) = (     0          0          1      )
                  (     1          0          0      )
                  (     0          1          0      )

 cart.    s( 5) = (  0.0000000  1.0000000  0.0000000 )
                  (  0.0000000  0.0000000  1.0000000 )
                  (  1.0000000  0.0000000  0.0000000 )


      isym =  6     120 deg rotation - cart. axis [-1,1,1]       

 cryst.   s( 6) = (     1         -1          0      )
                  (     0         -1          1      )
                  (     0         -1          0      )

 cart.    s( 6) = (  0.0000000 -1.0000000  0.0000000 )
                  (  0.0000000  0.0000000  1.0000000 )
                  ( -1.0000000  0.0000000  0.0000000 )


      isym =  7     120 deg rotation - cart. axis [1,1,-1]       

 cryst.   s( 7) = (    -1          1          0      )
                  (    -1          0          0      )
                  (    -1          0          1      )

 cart.    s( 7) = (  0.0000000  1.0000000  0.0000000 )
                  (  0.0000000  0.0000000 -1.0000000 )
                  ( -1.0000000  0.0000000  0.0000000 )


      isym =  8     120 deg rotation - cart. axis [1,-1,1]       

 cryst.   s( 8) = (     0          0         -1      )
                  (     0          1         -1      )
                  (     1          0         -1      )

 cart.    s( 8) = (  0.0000000 -1.0000000  0.0000000 )
                  (  0.0000000  0.0000000 -1.0000000 )
                  (  1.0000000  0.0000000  0.0000000 )


      isym =  9     120 deg rotation - cart. axis [1,1,1]        

 cryst.   s( 9) = (     0          1          0      )
                  (     0          0          1      )
                  (     1          0          0      )

 cart.    s( 9) = (  0.0000000  0.0000000  1.0000000 )
                  (  1.0000000  0.0000000  0.0000000 )
                  (  0.0000000  1.0000000  0.0000000 )


      isym = 10     120 deg rotation - cart. axis [-1,1,-1]      

 cryst.   s(10) = (    -1          0          1      )
                  (    -1          1          0      )
                  (    -1          0          0      )

 cart.    s(10) = (  0.0000000  0.0000000  1.0000000 )
                  ( -1.0000000  0.0000000  0.0000000 )
                  (  0.0000000 -1.0000000  0.0000000 )


      isym = 11     120 deg rotation - cart. axis [1,-1,-1]      

 cryst.   s(11) = (     1          0         -1      )
                  (     0          0         -1      )
                  (     0          1         -1      )

 cart.    s(11) = (  0.0000000  0.0000000 -1.0000000 )
                  ( -1.0000000  0.0000000  0.0000000 )
                  (  0.0000000  1.0000000  0.0000000 )


      isym = 12     120 deg rotation - cart. axis [-1,-1,1]      

 cryst.   s(12) = (     0         -1          0      )
                  (     1         -1          0      )
                  (     0         -1          1      )

 cart.    s(12) = (  0.0000000  0.0000000 -1.0000000 )
                  (  1.0000000  0.0000000  0.0000000 )
                  (  0.0000000 -1.0000000  0.0000000 )


      isym = 13     inv. 180 deg rotation - cart. axis [1,1,0]   

 cryst.   s(13) = (     1          0         -1      )
                  (     0          1         -1      )
                  (     0          0         -1      )

 cart.    s(13) = (  0.0000000 -1.0000000  0.0000000 )
                  ( -1.0000000  0.0000000  0.0000000 )
                  (  0.0000000  0.0000000  1.0000000 )


      isym = 14     inv. 180 deg rotation - cart. axis [1,-1,0]  

 cryst.   s(14) = (     0          1          0      )
                  (     1          0          0      )
                  (     0          0          1      )

 cart.    s(14) = (  0.0000000  1.0000000  0.0000000 )
                  (  1.0000000  0.0000000  0.0000000 )
                  (  0.0000000  0.0000000  1.0000000 )


      isym = 15     inv.  90 deg rotation - cart. axis [0,0,-1]  

 cryst.   s(15) = (     0         -1          0      )
                  (     0         -1          1      )
                  (     1         -1          0      )

 cart.    s(15) = (  0.0000000 -1.0000000  0.0000000 )
                  (  1.0000000  0.0000000  0.0000000 )
                  (  0.0000000  0.0000000 -1.0000000 )


      isym = 16     inv.  90 deg rotation - cart. axis [0,0,1]   

 cryst.   s(16) = (    -1          0          1      )
                  (    -1          0          0      )
                  (    -1          1          0      )

 cart.    s(16) = (  0.0000000  1.0000000  0.0000000 )
                  ( -1.0000000  0.0000000  0.0000000 )
                  (  0.0000000  0.0000000 -1.0000000 )


      isym = 17     inv. 180 deg rotation - cart. axis [1,0,1]   

 cryst.   s(17) = (     1         -1          0      )
                  (     0         -1          0      )
                  (     0         -1          1      )

 cart.    s(17) = (  0.0000000  0.0000000 -1.0000000 )
                  (  0.0000000  1.0000000  0.0000000 )
                  ( -1.0000000  0.0000000  0.0000000 )


      isym = 18     inv. 180 deg rotation - cart. axis [-1,0,1]  

 cryst.   s(18) = (     0          0          1      )
                  (     0          1          0      )
                  (     1          0          0      )

 cart.    s(18) = (  0.0000000  0.0000000  1.0000000 )
                  (  0.0000000  1.0000000  0.0000000 )
                  (  1.0000000  0.0000000  0.0000000 )


      isym = 19     inv.  90 deg rotation - cart. axis [0,1,0]   

 cryst.   s(19) = (     0          0         -1      )
                  (     1          0         -1      )
                  (     0          1         -1      )

 cart.    s(19) = (  0.0000000  0.0000000 -1.0000000 )
                  (  0.0000000 -1.0000000  0.0000000 )
                  (  1.0000000  0.0000000  0.0000000 )


      isym = 20     inv.  90 deg rotation - cart. axis [0,-1,0]  

 cryst.   s(20) = (    -1          1          0      )
                  (    -1          0          1      )
                  (    -1          0          0      )

 cart.    s(20) = (  0.0000000  0.0000000  1.0000000 )
                  (  0.0000000 -1.0000000  0.0000000 )
                  ( -1.0000000  0.0000000  0.0000000 )


      isym = 21     inv. 180 deg rotation - cart. axis [0,1,1]   

 cryst.   s(21) = (    -1          0          0      )
                  (    -1          1          0      )
                  (    -1          0          1      )

 cart.    s(21) = (  1.0000000  0.0000000  0.0000000 )
                  (  0.0000000  0.0000000 -1.0000000 )
                  (  0.0000000 -1.0000000  0.0000000 )


      isym = 22     inv. 180 deg rotation - cart. axis [0,1,-1]  

 cryst.   s(22) = (     1          0          0      )
                  (     0          0          1      )
                  (     0          1          0      )

 cart.    s(22) = (  1.0000000  0.0000000  0.0000000 )
                  (  0.0000000  0.0000000  1.0000000 )
                  (  0.0000000  1.0000000  0.0000000 )


      isym = 23     inv.  90 deg rotation - cart. axis [-1,0,0]  

 cryst.   s(23) = (     0          1         -1      )
                  (     0          0         -1      )
                  (     1          0         -1      )

 cart.    s(23) = ( -1.0000000  0.0000000  0.0000000 )
                  (  0.0000000  0.0000000 -1.0000000 )
                  (  0.0000000  1.0000000  0.0000000 )


      isym = 24     inv.  90 deg rotation - cart. axis [1,0,0]   

 cryst.   s(24) = (     0         -1          1      )
                  (     1         -1          0      )
                  (     0         -1          0      )

 cart.    s(24) = ( -1.0000000  0.0000000  0.0000000 )
                  (  0.0000000  0.0000000  1.0000000 )
                  (  0.0000000 -1.0000000  0.0000000 )


   Cartesian axes

     site n.     atom                  positions (alat units)
         1        Hg     tau(   1) = (   0.0000000   0.0000000   0.0000000  )
         2        Te     tau(   2) = (   0.3535534   0.3535534   0.3535534  )

   Crystallographic axes

     site n.     atom                  positions (cryst. coord.)
         1        Hg     tau(   1) = (  0.0000000  0.0000000  0.0000000  )
         2        Te     tau(   2) = (  0.2500000  0.2500000  0.2500000  )

     number of k points=   104 (tetrahedron method)
                       cart. coord. in units 2pi/alat
        k(    1) = (   0.0000000   0.0000000   0.0000000), wk =   0.0007289
        k(    2) = (   0.0505076   0.0505076  -0.0505076), wk =   0.0058309
        k(    3) = (   0.1010153   0.1010153  -0.1010153), wk =   0.0058309
        k(    4) = (   0.1515229   0.1515229  -0.1515229), wk =   0.0058309
        k(    5) = (   0.2020305   0.2020305  -0.2020305), wk =   0.0058309
        k(    6) = (   0.2525381   0.2525381  -0.2525381), wk =   0.0058309
        k(    7) = (   0.3030458   0.3030458  -0.3030458), wk =   0.0058309
        k(    8) = (  -0.3535534  -0.3535534   0.3535534), wk =   0.0029155
        k(    9) = (   0.1010153   0.0000000   0.0000000), wk =   0.0043732
        k(   10) = (   0.1515229   0.0505076  -0.0505076), wk =   0.0174927
        k(   11) = (   0.2020305   0.1010153  -0.1010153), wk =   0.0174927
        k(   12) = (   0.2525381   0.1515229  -0.1515229), wk =   0.0174927
        k(   13) = (   0.3030458   0.2020305  -0.2020305), wk =   0.0174927
        k(   14) = (   0.3535534   0.2525381  -0.2525381), wk =   0.0174927
        k(   15) = (  -0.3030458  -0.4040610   0.4040610), wk =   0.0174927
        k(   16) = (  -0.2525381  -0.3535534   0.3535534), wk =   0.0174927
        k(   17) = (  -0.2020305  -0.3030458   0.3030458), wk =   0.0174927
        k(   18) = (  -0.1515229  -0.2525381   0.2525381), wk =   0.0174927
        k(   19) = (  -0.1010153  -0.2020305   0.2020305), wk =   0.0174927
        k(   20) = (  -0.0505076  -0.1515229   0.1515229), wk =   0.0174927
        k(   21) = (   0.0000000  -0.1010153   0.1010153), wk =   0.0087464
        k(   22) = (   0.2020305   0.0000000   0.0000000), wk =   0.0043732
        k(   23) = (   0.2525381   0.0505076  -0.0505076), wk =   0.0174927
        k(   24) = (   0.3030458   0.1010153  -0.1010153), wk =   0.0174927
        k(   25) = (   0.3535534   0.1515229  -0.1515229), wk =   0.0174927
        k(   26) = (   0.4040610   0.2020305  -0.2020305), wk =   0.0174927
        k(   27) = (  -0.2525381  -0.4545686   0.4545686), wk =   0.0174927
        k(   28) = (  -0.2020305  -0.4040610   0.4040610), wk =   0.0174927
        k(   29) = (  -0.1515229  -0.3535534   0.3535534), wk =   0.0174927
        k(   30) = (  -0.1010153  -0.3030458   0.3030458), wk =   0.0174927
        k(   31) = (  -0.0505076  -0.2525381   0.2525381), wk =   0.0174927
        k(   32) = (  -0.0000000  -0.2020305   0.2020305), wk =   0.0087464
        k(   33) = (   0.3030458   0.0000000   0.0000000), wk =   0.0043732
        k(   34) = (   0.3535534   0.0505076  -0.0505076), wk =   0.0174927
        k(   35) = (   0.4040610   0.1010153  -0.1010153), wk =   0.0174927
        k(   36) = (   0.4545686   0.1515229  -0.1515229), wk =   0.0174927
        k(   37) = (  -0.2020305  -0.5050763   0.5050763), wk =   0.0174927
        k(   38) = (  -0.1515229  -0.4545686   0.4545686), wk =   0.0174927
        k(   39) = (  -0.1010153  -0.4040610   0.4040610), wk =   0.0174927
        k(   40) = (  -0.0505076  -0.3535534   0.3535534), wk =   0.0174927
        k(   41) = (   0.0000000  -0.3030458   0.3030458), wk =   0.0087464
        k(   42) = (   0.4040610   0.0000000   0.0000000), wk =   0.0043732
        k(   43) = (   0.4545686   0.0505076  -0.0505076), wk =   0.0174927
        k(   44) = (   0.5050763   0.1010153  -0.1010153), wk =   0.0174927
        k(   45) = (  -0.1515229  -0.5555839   0.5555839), wk =   0.0174927
        k(   46) = (  -0.1010153  -0.5050763   0.5050763), wk =   0.0174927
        k(   47) = (  -0.0505076  -0.4545686   0.4545686), wk =   0.0174927
        k(   48) = (   0.0000000  -0.4040610   0.4040610), wk =   0.0087464
        k(   49) = (   0.5050763   0.0000000   0.0000000), wk =   0.0043732
        k(   50) = (   0.5555839   0.0505076  -0.0505076), wk =   0.0174927
        k(   51) = (  -0.1010153  -0.6060915   0.6060915), wk =   0.0174927
        k(   52) = (  -0.0505076  -0.5555839   0.5555839), wk =   0.0174927
        k(   53) = (   0.0000000  -0.5050763   0.5050763), wk =   0.0087464
        k(   54) = (   0.6060915   0.0000000   0.0000000), wk =   0.0043732
        k(   55) = (  -0.0505076  -0.6565992   0.6565992), wk =   0.0174927
        k(   56) = (   0.0000000  -0.6060915   0.6060915), wk =   0.0087464
        k(   57) = (  -0.7071068   0.0000000   0.0000000), wk =   0.0021866
        k(   58) = (   0.2020305   0.1010153   0.0000000), wk =   0.0174927
        k(   59) = (   0.2525381   0.1515229  -0.0505076), wk =   0.0349854
        k(   60) = (   0.3030458   0.2020305  -0.1010153), wk =   0.0349854
        k(   61) = (   0.3535534   0.2525381  -0.1515229), wk =   0.0349854
        k(   62) = (  -0.3030458  -0.4040610   0.5050763), wk =   0.0349854
        k(   63) = (  -0.2525381  -0.3535534   0.4545686), wk =   0.0174927
        k(   64) = (   0.3030458   0.1010153  -0.0000000), wk =   0.0174927
        k(   65) = (   0.3535534   0.1515229  -0.0505076), wk =   0.0349854
        k(   66) = (   0.4040610   0.2020305  -0.1010153), wk =   0.0349854
        k(   67) = (  -0.2525381  -0.4545686   0.5555839), wk =   0.0349854
        k(   68) = (  -0.2020305  -0.4040610   0.5050763), wk =   0.0349854
        k(   69) = (  -0.1515229  -0.3535534   0.4545686), wk =   0.0349854
        k(   70) = (  -0.1010153  -0.3030458   0.4040610), wk =   0.0349854
        k(   71) = (  -0.0505076  -0.2525381   0.3535534), wk =   0.0349854
        k(   72) = (  -0.0000000  -0.2020305   0.3030458), wk =   0.0174927
        k(   73) = (   0.4040610   0.1010153   0.0000000), wk =   0.0174927
        k(   74) = (   0.4545686   0.1515229  -0.0505076), wk =   0.0349854
        k(   75) = (  -0.2020305  -0.5050763   0.6060915), wk =   0.0349854
        k(   76) = (  -0.1515229  -0.4545686   0.5555839), wk =   0.0349854
        k(   77) = (  -0.1010153  -0.4040610   0.5050763), wk =   0.0349854
        k(   78) = (  -0.0505076  -0.3535534   0.4545686), wk =   0.0349854
        k(   79) = (   0.0000000  -0.3030458   0.4040610), wk =   0.0174927
        k(   80) = (   0.5050763   0.1010153   0.0000000), wk =   0.0174927
        k(   81) = (  -0.1515229  -0.5555839   0.6565992), wk =   0.0349854
        k(   82) = (  -0.1010153  -0.5050763   0.6060915), wk =   0.0349854
        k(   83) = (  -0.0505076  -0.4545686   0.5555839), wk =   0.0349854
        k(   84) = (   0.0000000  -0.4040610   0.5050763), wk =   0.0174927
        k(   85) = (  -0.1010153  -0.6060915   0.7071068), wk =   0.0174927
        k(   86) = (  -0.0505076  -0.5555839   0.6565992), wk =   0.0349854
        k(   87) = (   0.0000000  -0.5050763   0.6060915), wk =   0.0174927
        k(   88) = (  -0.7071068   0.1010153   0.0000000), wk =   0.0087464
        k(   89) = (   0.4040610   0.2020305   0.0000000), wk =   0.0174927
        k(   90) = (  -0.2525381  -0.4545686   0.6565992), wk =   0.0349854
        k(   91) = (  -0.2020305  -0.4040610   0.6060915), wk =   0.0349854
        k(   92) = (  -0.1515229  -0.3535534   0.5555839), wk =   0.0174927
        k(   93) = (  -0.2020305  -0.5050763   0.7071068), wk =   0.0174927
        k(   94) = (  -0.1515229  -0.4545686   0.6565992), wk =   0.0349854
        k(   95) = (  -0.1010153  -0.4040610   0.6060915), wk =   0.0349854
        k(   96) = (  -0.0505076  -0.3535534   0.5555839), wk =   0.0349854
        k(   97) = (   0.0000000  -0.3030458   0.5050763), wk =   0.0174927
        k(   98) = (  -0.1010153  -0.5050763   0.7071068), wk =   0.0174927
        k(   99) = (  -0.0505076  -0.4545686   0.6565992), wk =   0.0349854
        k(  100) = (  -0.0000000  -0.4040610   0.6060915), wk =   0.0174927
        k(  101) = (  -0.7071068   0.2020305  -0.0000000), wk =   0.0087464
        k(  102) = (  -0.1010153  -0.4040610   0.7071068), wk =   0.0174927
        k(  103) = (  -0.0505076  -0.3535534   0.6565992), wk =   0.0174927
        k(  104) = (  -0.7071068   0.3030458   0.0000000), wk =   0.0087464

                       cryst. coord.
        k(    1) = (   0.0000000   0.0000000   0.0000000), wk =   0.0007289
        k(    2) = (   0.0000000   0.0000000   0.0714286), wk =   0.0058309
        k(    3) = (   0.0000000   0.0000000   0.1428571), wk =   0.0058309
        k(    4) = (   0.0000000   0.0000000   0.2142857), wk =   0.0058309
        k(    5) = (   0.0000000   0.0000000   0.2857143), wk =   0.0058309
        k(    6) = (   0.0000000   0.0000000   0.3571429), wk =   0.0058309
        k(    7) = (   0.0000000   0.0000000   0.4285714), wk =   0.0058309
        k(    8) = (   0.0000000   0.0000000  -0.5000000), wk =   0.0029155
        k(    9) = (   0.0000000   0.0714286   0.0714286), wk =   0.0043732
        k(   10) = (   0.0000000   0.0714286   0.1428571), wk =   0.0174927
        k(   11) = (   0.0000000   0.0714286   0.2142857), wk =   0.0174927
        k(   12) = (   0.0000000   0.0714286   0.2857143), wk =   0.0174927
        k(   13) = (   0.0000000   0.0714286   0.3571429), wk =   0.0174927
        k(   14) = (   0.0000000   0.0714286   0.4285714), wk =   0.0174927
        k(   15) = (   0.0000000   0.0714286  -0.5000000), wk =   0.0174927
        k(   16) = (   0.0000000   0.0714286  -0.4285714), wk =   0.0174927
        k(   17) = (   0.0000000   0.0714286  -0.3571429), wk =   0.0174927
        k(   18) = (   0.0000000   0.0714286  -0.2857143), wk =   0.0174927
        k(   19) = (   0.0000000   0.0714286  -0.2142857), wk =   0.0174927
        k(   20) = (   0.0000000   0.0714286  -0.1428571), wk =   0.0174927
        k(   21) = (   0.0000000   0.0714286  -0.0714286), wk =   0.0087464
        k(   22) = (   0.0000000   0.1428571   0.1428571), wk =   0.0043732
        k(   23) = (   0.0000000   0.1428571   0.2142857), wk =   0.0174927
        k(   24) = (   0.0000000   0.1428571   0.2857143), wk =   0.0174927
        k(   25) = (   0.0000000   0.1428571   0.3571429), wk =   0.0174927
        k(   26) = (   0.0000000   0.1428571   0.4285714), wk =   0.0174927
        k(   27) = (   0.0000000   0.1428571  -0.5000000), wk =   0.0174927
        k(   28) = (   0.0000000   0.1428571  -0.4285714), wk =   0.0174927
        k(   29) = (   0.0000000   0.1428571  -0.3571429), wk =   0.0174927
        k(   30) = (   0.0000000   0.1428571  -0.2857143), wk =   0.0174927
        k(   31) = (   0.0000000   0.1428571  -0.2142857), wk =   0.0174927
        k(   32) = (   0.0000000   0.1428571  -0.1428571), wk =   0.0087464
        k(   33) = (   0.0000000   0.2142857   0.2142857), wk =   0.0043732
        k(   34) = (   0.0000000   0.2142857   0.2857143), wk =   0.0174927
        k(   35) = (   0.0000000   0.2142857   0.3571429), wk =   0.0174927
        k(   36) = (   0.0000000   0.2142857   0.4285714), wk =   0.0174927
        k(   37) = (   0.0000000   0.2142857  -0.5000000), wk =   0.0174927
        k(   38) = (   0.0000000   0.2142857  -0.4285714), wk =   0.0174927
        k(   39) = (   0.0000000   0.2142857  -0.3571429), wk =   0.0174927
        k(   40) = (   0.0000000   0.2142857  -0.2857143), wk =   0.0174927
        k(   41) = (   0.0000000   0.2142857  -0.2142857), wk =   0.0087464
        k(   42) = (   0.0000000   0.2857143   0.2857143), wk =   0.0043732
        k(   43) = (   0.0000000   0.2857143   0.3571429), wk =   0.0174927
        k(   44) = (   0.0000000   0.2857143   0.4285714), wk =   0.0174927
        k(   45) = (   0.0000000   0.2857143  -0.5000000), wk =   0.0174927
        k(   46) = (   0.0000000   0.2857143  -0.4285714), wk =   0.0174927
        k(   47) = (   0.0000000   0.2857143  -0.3571429), wk =   0.0174927
        k(   48) = (   0.0000000   0.2857143  -0.2857143), wk =   0.0087464
        k(   49) = (   0.0000000   0.3571429   0.3571429), wk =   0.0043732
        k(   50) = (   0.0000000   0.3571429   0.4285714), wk =   0.0174927
        k(   51) = (   0.0000000   0.3571429  -0.5000000), wk =   0.0174927
        k(   52) = (   0.0000000   0.3571429  -0.4285714), wk =   0.0174927
        k(   53) = (   0.0000000   0.3571429  -0.3571429), wk =   0.0087464
        k(   54) = (   0.0000000   0.4285714   0.4285714), wk =   0.0043732
        k(   55) = (   0.0000000   0.4285714  -0.5000000), wk =   0.0174927
        k(   56) = (   0.0000000   0.4285714  -0.4285714), wk =   0.0087464
        k(   57) = (   0.0000000  -0.5000000  -0.5000000), wk =   0.0021866
        k(   58) = (   0.0714286   0.1428571   0.2142857), wk =   0.0174927
        k(   59) = (   0.0714286   0.1428571   0.2857143), wk =   0.0349854
        k(   60) = (   0.0714286   0.1428571   0.3571429), wk =   0.0349854
        k(   61) = (   0.0714286   0.1428571   0.4285714), wk =   0.0349854
        k(   62) = (   0.0714286   0.1428571  -0.5000000), wk =   0.0349854
        k(   63) = (   0.0714286   0.1428571  -0.4285714), wk =   0.0174927
        k(   64) = (   0.0714286   0.2142857   0.2857143), wk =   0.0174927
        k(   65) = (   0.0714286   0.2142857   0.3571429), wk =   0.0349854
        k(   66) = (   0.0714286   0.2142857   0.4285714), wk =   0.0349854
        k(   67) = (   0.0714286   0.2142857  -0.5000000), wk =   0.0349854
        k(   68) = (   0.0714286   0.2142857  -0.4285714), wk =   0.0349854
        k(   69) = (   0.0714286   0.2142857  -0.3571429), wk =   0.0349854
        k(   70) = (   0.0714286   0.2142857  -0.2857143), wk =   0.0349854
        k(   71) = (   0.0714286   0.2142857  -0.2142857), wk =   0.0349854
        k(   72) = (   0.0714286   0.2142857  -0.1428571), wk =   0.0174927
        k(   73) = (   0.0714286   0.2857143   0.3571429), wk =   0.0174927
        k(   74) = (   0.0714286   0.2857143   0.4285714), wk =   0.0349854
        k(   75) = (   0.0714286   0.2857143  -0.5000000), wk =   0.0349854
        k(   76) = (   0.0714286   0.2857143  -0.4285714), wk =   0.0349854
        k(   77) = (   0.0714286   0.2857143  -0.3571429), wk =   0.0349854
        k(   78) = (   0.0714286   0.2857143  -0.2857143), wk =   0.0349854
        k(   79) = (   0.0714286   0.2857143  -0.2142857), wk =   0.0174927
        k(   80) = (   0.0714286   0.3571429   0.4285714), wk =   0.0174927
        k(   81) = (   0.0714286   0.3571429  -0.5000000), wk =   0.0349854
        k(   82) = (   0.0714286   0.3571429  -0.4285714), wk =   0.0349854
        k(   83) = (   0.0714286   0.3571429  -0.3571429), wk =   0.0349854
        k(   84) = (   0.0714286   0.3571429  -0.2857143), wk =   0.0174927
        k(   85) = (   0.0714286   0.4285714  -0.5000000), wk =   0.0174927
        k(   86) = (   0.0714286   0.4285714  -0.4285714), wk =   0.0349854
        k(   87) = (   0.0714286   0.4285714  -0.3571429), wk =   0.0174927
        k(   88) = (   0.0714286  -0.5000000  -0.4285714), wk =   0.0087464
        k(   89) = (   0.1428571   0.2857143   0.4285714), wk =   0.0174927
        k(   90) = (   0.1428571   0.2857143  -0.5000000), wk =   0.0349854
        k(   91) = (   0.1428571   0.2857143  -0.4285714), wk =   0.0349854
        k(   92) = (   0.1428571   0.2857143  -0.3571429), wk =   0.0174927
        k(   93) = (   0.1428571   0.3571429  -0.5000000), wk =   0.0174927
        k(   94) = (   0.1428571   0.3571429  -0.4285714), wk =   0.0349854
        k(   95) = (   0.1428571   0.3571429  -0.3571429), wk =   0.0349854
        k(   96) = (   0.1428571   0.3571429  -0.2857143), wk =   0.0349854
        k(   97) = (   0.1428571   0.3571429  -0.2142857), wk =   0.0174927
        k(   98) = (   0.1428571   0.4285714  -0.4285714), wk =   0.0174927
        k(   99) = (   0.1428571   0.4285714  -0.3571429), wk =   0.0349854
        k(  100) = (   0.1428571   0.4285714  -0.2857143), wk =   0.0174927
        k(  101) = (   0.1428571  -0.5000000  -0.3571429), wk =   0.0087464
        k(  102) = (   0.2142857   0.4285714  -0.3571429), wk =   0.0174927
        k(  103) = (   0.2142857   0.4285714  -0.2857143), wk =   0.0174927
        k(  104) = (   0.2142857  -0.5000000  -0.2857143), wk =   0.0087464

     Dense  grid:   161653 G-vectors     FFT dimensions: (  75,  75,  75)

     Smooth grid:    87843 G-vectors     FFT dimensions: (  64,  64,  64)

     Dynamical RAM for                 wfc:       0.48 MB

     Dynamical RAM for     wfc (w. buffer):       0.48 MB

     Dynamical RAM for           str. fact:       0.82 MB

     Dynamical RAM for           local pot:       0.00 MB

     Dynamical RAM for          nlocal pot:       1.01 MB

     Dynamical RAM for                qrad:       4.31 MB

     Dynamical RAM for          rho,v,vnew:       2.91 MB

     Dynamical RAM for           G-vectors:       1.65 MB

     Dynamical RAM for          h,s,v(r/c):       0.05 MB

     Dynamical RAM for          <psi|beta>:       0.01 MB

     Dynamical RAM for                 psi:       0.95 MB

     Dynamical RAM for                hpsi:       0.95 MB

     Dynamical RAM for                spsi:       0.95 MB

     Dynamical RAM for      wfcinit/wfcrot:       0.96 MB

     Dynamical RAM for           addusdens:      76.88 MB

     Estimated static dynamical RAM per process >      15.19 MB

     Estimated max dynamical RAM per process >      92.08 MB

     Estimated total dynamical RAM >     552.48 MB

     The potential is recalculated from file :
     /home/User/opencode_workspace/DFT/calculations/hgte/production_dos_nosoc/out/pwscf.save/charge-density

     Starting wfcs are   14 randomized atomic wfcs +    3 random wfcs

     Band Structure Calculation
     Davidson diagonalization with overlap

     Computing kpt #:     1  of   104
     total cpu time spent up to now is        6.8 secs

     Computing kpt #:     2  of   104
     total cpu time spent up to now is       10.7 secs

     Computing kpt #:     3  of   104
     total cpu time spent up to now is       14.7 secs

     Computing kpt #:     4  of   104
     total cpu time spent up to now is       18.2 secs

     Computing kpt #:     5  of   104
     total cpu time spent up to now is       21.1 secs

     Computing kpt #:     6  of   104
     total cpu time spent up to now is       24.8 secs

     Computing kpt #:     7  of   104
     total cpu time spent up to now is       28.8 secs

     Computing kpt #:     8  of   104
     total cpu time spent up to now is       32.8 secs

     Computing kpt #:     9  of   104
     total cpu time spent up to now is       36.6 secs

     Computing kpt #:    10  of   104
     total cpu time spent up to now is       39.3 secs

     Computing kpt #:    11  of   104
     total cpu time spent up to now is       43.6 secs

     Computing kpt #:    12  of   104
     total cpu time spent up to now is       46.4 secs

     Computing kpt #:    13  of   104
     total cpu time spent up to now is       49.6 secs

     Computing kpt #:    14  of   104
     total cpu time spent up to now is       52.8 secs

     Computing kpt #:    15  of   104
     total cpu time spent up to now is       56.3 secs

     Computing kpt #:    16  of   104
     total cpu time spent up to now is       60.8 secs

     Computing kpt #:    17  of   104
     total cpu time spent up to now is       64.1 secs

     Computing kpt #:    18  of   104
     total cpu time spent up to now is       68.7 secs

     Computing kpt #:    19  of   104
     total cpu time spent up to now is       72.4 secs

     Computing kpt #:    20  of   104
     total cpu time spent up to now is       76.7 secs

     Computing kpt #:    21  of   104
     total cpu time spent up to now is       79.7 secs

     Computing kpt #:    22  of   104
     total cpu time spent up to now is       84.9 secs

     Computing kpt #:    23  of   104
     total cpu time spent up to now is       89.6 secs

     Computing kpt #:    24  of   104
     total cpu time spent up to now is       93.8 secs

     Computing kpt #:    25  of   104
     total cpu time spent up to now is       97.7 secs

     Computing kpt #:    26  of   104
     total cpu time spent up to now is      101.5 secs

     Computing kpt #:    27  of   104
     total cpu time spent up to now is      105.1 secs

     Computing kpt #:    28  of   104
     total cpu time spent up to now is      108.8 secs

     Computing kpt #:    29  of   104
     total cpu time spent up to now is      113.3 secs

     Computing kpt #:    30  of   104
     total cpu time spent up to now is      117.3 secs

     Computing kpt #:    31  of   104
     total cpu time spent up to now is      120.4 secs

     Computing kpt #:    32  of   104
     total cpu time spent up to now is      124.3 secs

     Computing kpt #:    33  of   104
     total cpu time spent up to now is      127.5 secs

     Computing kpt #:    34  of   104
     total cpu time spent up to now is      131.8 secs

     Computing kpt #:    35  of   104
     total cpu time spent up to now is      136.2 secs

     Computing kpt #:    36  of   104
     total cpu time spent up to now is      139.2 secs

     Computing kpt #:    37  of   104
     total cpu time spent up to now is      141.1 secs

     Computing kpt #:    38  of   104
     total cpu time spent up to now is      144.3 secs

     Computing kpt #:    39  of   104
     total cpu time spent up to now is      147.4 secs

     Computing kpt #:    40  of   104
     total cpu time spent up to now is      150.7 secs

     Computing kpt #:    41  of   104
     total cpu time spent up to now is      154.6 secs

     Computing kpt #:    42  of   104
     total cpu time spent up to now is      158.4 secs

     Computing kpt #:    43  of   104
     total cpu time spent up to now is      163.2 secs

     Computing kpt #:    44  of   104
     total cpu time spent up to now is      167.1 secs

     Computing kpt #:    45  of   104
     total cpu time spent up to now is      170.7 secs

     Computing kpt #:    46  of   104
     total cpu time spent up to now is      176.4 secs

     Computing kpt #:    47  of   104
     total cpu time spent up to now is      181.0 secs

     Computing kpt #:    48  of   104
     total cpu time spent up to now is      185.6 secs

     Computing kpt #:    49  of   104
     total cpu time spent up to now is      190.1 secs

     Computing kpt #:    50  of   104
     total cpu time spent up to now is      195.6 secs

     Computing kpt #:    51  of   104
     total cpu time spent up to now is      199.9 secs

     Computing kpt #:    52  of   104
     total cpu time spent up to now is      204.7 secs

     Computing kpt #:    53  of   104
     total cpu time spent up to now is      209.5 secs

     Computing kpt #:    54  of   104
     total cpu time spent up to now is      214.1 secs

     Computing kpt #:    55  of   104
     total cpu time spent up to now is      220.8 secs

     Computing kpt #:    56  of   104
     total cpu time spent up to now is      225.5 secs

     Computing kpt #:    57  of   104
     total cpu time spent up to now is      228.7 secs

     Computing kpt #:    58  of   104
     total cpu time spent up to now is      233.5 secs

     Computing kpt #:    59  of   104
     total cpu time spent up to now is      237.4 secs

     Computing kpt #:    60  of   104
     total cpu time spent up to now is      241.9 secs

     Computing kpt #:    61  of   104
     total cpu time spent up to now is      245.7 secs

     Computing kpt #:    62  of   104
     total cpu time spent up to now is      250.2 secs

     Computing kpt #:    63  of   104
     total cpu time spent up to now is      253.0 secs

     Computing kpt #:    64  of   104
     total cpu time spent up to now is      257.0 secs

     Computing kpt #:    65  of   104
     total cpu time spent up to now is      259.9 secs

     Computing kpt #:    66  of   104
     total cpu time spent up to now is      265.7 secs

     Computing kpt #:    67  of   104
     total cpu time spent up to now is      269.7 secs

     Computing kpt #:    68  of   104
     total cpu time spent up to now is      273.6 secs

     Computing kpt #:    69  of   104
     total cpu time spent up to now is      278.0 secs

     Computing kpt #:    70  of   104
     total cpu time spent up to now is      280.9 secs

     Computing kpt #:    71  of   104
     total cpu time spent up to now is      283.7 secs

     Computing kpt #:    72  of   104
     total cpu time spent up to now is      287.6 secs

     Computing kpt #:    73  of   104
     total cpu time spent up to now is      291.5 secs

     Computing kpt #:    74  of   104
     total cpu time spent up to now is      296.0 secs

     Computing kpt #:    75  of   104
     total cpu time spent up to now is      300.2 secs

     Computing kpt #:    76  of   104
     total cpu time spent up to now is      304.6 secs

     Computing kpt #:    77  of   104
     total cpu time spent up to now is      310.1 secs

     Computing kpt #:    78  of   104
     total cpu time spent up to now is      315.2 secs

     Computing kpt #:    79  of   104
     total cpu time spent up to now is      319.8 secs

     Computing kpt #:    80  of   104
     total cpu time spent up to now is      325.3 secs

     Computing kpt #:    81  of   104
     total cpu time spent up to now is      331.1 secs

     Computing kpt #:    82  of   104
     total cpu time spent up to now is      336.8 secs

     Computing kpt #:    83  of   104
     total cpu time spent up to now is      342.8 secs

     Computing kpt #:    84  of   104
     total cpu time spent up to now is      347.2 secs

     Computing kpt #:    85  of   104
     total cpu time spent up to now is      352.0 secs

     Computing kpt #:    86  of   104
     total cpu time spent up to now is      357.5 secs

     Computing kpt #:    87  of   104
     total cpu time spent up to now is      363.8 secs

     Computing kpt #:    88  of   104
     total cpu time spent up to now is      369.5 secs

     Computing kpt #:    89  of   104
     total cpu time spent up to now is      374.6 secs

     Computing kpt #:    90  of   104
     total cpu time spent up to now is      379.9 secs

     Computing kpt #:    91  of   104
     total cpu time spent up to now is      385.5 secs

     Computing kpt #:    92  of   104
     total cpu time spent up to now is      390.8 secs

     Computing kpt #:    93  of   104
     total cpu time spent up to now is      397.1 secs

     Computing kpt #:    94  of   104
     total cpu time spent up to now is      401.1 secs

     Computing kpt #:    95  of   104
     total cpu time spent up to now is      405.5 secs

     Computing kpt #:    96  of   104
     total cpu time spent up to now is      409.1 secs

     Computing kpt #:    97  of   104
     total cpu time spent up to now is      414.6 secs

     Computing kpt #:    98  of   104
     total cpu time spent up to now is      419.0 secs

     Computing kpt #:    99  of   104
     total cpu time spent up to now is      422.8 secs

     Computing kpt #:   100  of   104
     total cpu time spent up to now is      426.6 secs

     Computing kpt #:   101  of   104
     total cpu time spent up to now is      431.2 secs

     Computing kpt #:   102  of   104
     total cpu time spent up to now is      436.1 secs

     Computing kpt #:   103  of   104
     total cpu time spent up to now is      439.7 secs

     Computing kpt #:   104  of   104
     total cpu time spent up to now is      444.0 secs

     ethr =  3.85E-13,  avg # of iterations = 40.1

     total cpu time spent up to now is      444.2 secs

     End of band structure calculation

          k = 0.0000 0.0000 0.0000 ( 11017 PWs)   bands (ev):

  -108.5857 -56.9169 -56.9169 -56.9169  -5.2392  -0.7040  -0.7040  -0.7040
    -0.2711  -0.2711   5.2543   6.1770   6.1770   6.1770  10.5602  10.5602
    10.5602

     occupation numbers 
     1.0000   1.0000   1.0000   1.0000   1.0000   1.0000   1.0000   1.0000
     1.0000   1.0000   1.0000   1.0000   1.0000   0.0000   0.0000   0.0000
     0.0000

          k = 0.0505 0.0505-0.0505 ( 11020 PWs)   bands (ev):

  -108.5857 -56.9169 -56.9169 -56.9169  -5.2176  -0.6980  -0.6980  -0.6948
    -0.2716  -0.2716   4.8548   6.1272   6.1272   6.4616  10.4743  10.6324
    10.6324

     occupation numbers 
     1.0000   1.0000   1.0000   1.0000   1.0000   1.0000   1.0000   1.0000
     1.0000   1.0000   1.0000   1.0000   1.0000   0.0000   0.0000   0.0000
     0.0000

          k = 0.1010 0.1010-0.1010 ( 10996 PWs)   bands (ev):

  -108.5857 -56.9169 -56.9169 -56.9169  -5.1561  -0.6814  -0.6814  -0.6634
    -0.2726  -0.2726   4.1446   5.9945   5.9945   6.8113  10.4598  10.8175
    10.8175

     occupation numbers 
     1.0000   1.0000   1.0000   1.0000   1.0000   1.0000   1.0000   1.0000
     1.0000   1.0000   1.0000   1.0000   1.0000   0.0000   0.0000   0.0000
     0.0000

          k = 0.1515 0.1515-0.1515 ( 11044 PWs)   bands (ev):

  -108.5857 -56.9169 -56.9169 -56.9169  -5.0647  -0.6587  -0.6587  -0.5993
    -0.2721  -0.2721   3.3809   5.8176   5.8176   6.9762  10.7564  11.0361
    11.0361

     occupation numbers 
     1.0000   1.0000   1.0000   1.0000   1.0000   1.0000   1.0000   1.0000
     1.0000   1.0000   1.0000   1.0000   1.0000   0.0000   0.0000   0.0000
     0.0000

          k = 0.2020 0.2020-0.2020 ( 11029 PWs)   bands (ev):

  -108.5857 -56.9170 -56.9169 -56.9169  -4.9596  -0.6355  -0.6355  -0.4891
    -0.2686  -0.2686   2.6374   5.6370   5.6370   6.9879  11.2023  11.2023
    11.3500

     occupation numbers 
     1.0000   1.0000   1.0000   1.0000   1.0000   1.0000   1.0000   1.0000
     1.0000   1.0000   1.0000   1.0000   1.0000   0.0000   0.0000   0.0000
     0.0000

          k = 0.2525 0.2525-0.2525 ( 11030 PWs)   bands (ev):

  -108.5857 -56.9170 -56.9169 -56.9169  -4.8615  -0.6170  -0.6170  -0.3245
    -0.2621  -0.2621   1.9690   5.4850   5.4850   6.9394  11.2814  11.2814
    12.0942

     occupation numbers 
     1.0000   1.0000   1.0000   1.0000   1.0000   1.0000   1.0000   1.0000
     1.0000   1.0000   1.0000   1.0000   1.0000   0.0000   0.0000   0.0000
     0.0000

          k = 0.3030 0.3030-0.3030 ( 11015 PWs)   bands (ev):

  -108.5857 -56.9170 -56.9169 -56.9169  -4.7915  -0.6058  -0.6058  -0.2555
    -0.2555  -0.1279   1.4481   5.3847   5.3847   6.8925  11.3013  11.3013
    12.7397

     occupation numbers 
     1.0000   1.0000   1.0000   1.0000   1.0000   1.0000   1.0000   1.0000
     1.0000   1.0000   1.0000   1.0000   1.0000   0.0000   0.0000   0.0000
     0.0000

          k =-0.3536-0.3536 0.3536 ( 10994 PWs)   bands (ev):

  -108.5857 -56.9170 -56.9169 -56.9169  -4.7661  -0.6021  -0.6021  -0.2527
    -0.2527  -0.0177   1.2258   5.3498   5.3498   6.8745  11.3025  11.3025
    12.9660

     occupation numbers 
     1.0000   1.0000   1.0000   1.0000   1.0000   1.0000   1.0000   1.0000
     1.0000   1.0000   1.0000   1.0000   1.0000   0.0000   0.0000   0.0000
     0.0000

          k = 0.1010 0.0000 0.0000 ( 11030 PWs)   bands (ev):

  -108.5857 -56.9169 -56.9169 -56.9169  -5.2104  -0.6989  -0.6924  -0.6924
    -0.2752  -0.2684   4.7811   6.0423   6.0423   6.6432  10.2809  10.7444
    10.7444

     occupation numbers 
     1.0000   1.0000   1.0000   1.0000   1.0000   1.0000   1.0000   1.0000
     1.0000   1.0000   1.0000   1.0000   1.0000  -0.0000   0.0000   0.0000
     0.0000

          k = 0.1515 0.0505-0.0505 ( 11015 PWs)   bands (ev):

  -108.5857 -56.9169 -56.9169 -56.9169  -5.1621  -0.6876  -0.6759  -0.6702
    -0.2791  -0.2663   4.2588   5.8841   5.9178   6.9841  10.1370  10.9337
    10.9668

     occupation numbers 
     1.0000   1.0000   1.0000   1.0000   1.0000   1.0000   1.0000   1.0000
     1.0000   1.0000   1.0000   1.0000   1.0000  -0.0000   0.0000   0.0000
     0.0000

          k = 0.2020 0.1010-0.1010 ( 11029 PWs)   bands (ev):

  -108.5857 -56.9169 -56.9169 -56.9169  -5.0806  -0.6674  -0.6527  -0.6195
    -0.2812  -0.2640   3.5685   5.6952   5.7488   7.2142  10.2525  11.1590
    11.2187

     occupation numbers 
     1.0000   1.0000   1.0000   1.0000   1.0000   1.0000   1.0000   1.0000
     1.0000   1.0000   1.0000   1.0000   1.0000   0.0000   0.0000   0.0000
     0.0000

          k = 0.2525 0.1515-0.1515 ( 11034 PWs)   bands (ev):

  -108.5857 -56.9169 -56.9169 -56.9169  -4.9798  -0.6439  -0.6287  -0.5276
    -0.2785  -0.2603   2.8481   5.5156   5.5437   7.2849  10.6088  11.4084
    11.4207

     occupation numbers 
     1.0000   1.0000   1.0000   1.0000   1.0000   1.0000   1.0000   1.0000
     1.0000   1.0000   1.0000   1.0000   1.0000   0.0000   0.0000   0.0000
     0.0000

          k = 0.3030 0.2020-0.2020 ( 11014 PWs)   bands (ev):

  -108.5857 -56.9170 -56.9169 -56.9169  -4.8789  -0.6226  -0.6092  -0.3879
    -0.2656  -0.2554   2.1704   5.3435   5.3755   7.2607  10.9408  11.4874
    11.8443

     occupation numbers 
     1.0000   1.0000   1.0000   1.0000   1.0000   1.0000   1.0000   1.0000
     1.0000   1.0000   1.0000   1.0000   1.0000   0.0000   0.0000   0.0000
     0.0000

          k = 0.3536 0.2525-0.2525 ( 11023 PWs)   bands (ev):

  -108.5857 -56.9170 -56.9169 -56.9169  -4.7990  -0.6073  -0.5973  -0.2802
    -0.2515  -0.1726   1.6036   5.1806   5.2949   7.2138  11.0749  11.4783
    12.4640

     occupation numbers 
     1.0000   1.0000   1.0000   1.0000   1.0000   1.0000   1.0000   1.0000
     1.0000   1.0000   1.0000   1.0000   1.0000   0.0000   0.0000   0.0000
     0.0000

          k =-0.3030-0.4041 0.4041 ( 11018 PWs)   bands (ev):

  -108.5857 -56.9170 -56.9169 -56.9169  -4.7585  -0.5992  -0.5935  -0.2626
    -0.2519  -0.0234   1.2667   5.0766   5.2848   7.1833  11.1321  11.4313
    12.9118

     occupation numbers 
     1.0000   1.0000   1.0000   1.0000   1.0000   1.0000   1.0000   1.0000
     1.0000   1.0000   1.0000   1.0000   1.0000   0.0000   0.0000   0.0000
     0.0000

          k =-0.2525-0.3536 0.3536 ( 11010 PWs)   bands (ev):

  -108.5857 -56.9170 -56.9169 -56.9169  -4.7670  -0.5981  -0.5973  -0.2585
    -0.2580  -0.0615   1.3421   5.0444   5.3463   7.1836  11.1846  11.3764
    12.8234

     occupation numbers 
     1.0000   1.0000   1.0000   1.0000   1.0000   1.0000   1.0000   1.0000
     1.0000   1.0000   1.0000   1.0000   1.0000   0.0000   0.0000   0.0000
     0.0000

          k =-0.2020-0.3030 0.3030 ( 11033 PWs)   bands (ev):

  -108.5857 -56.9170 -56.9169 -56.9169  -4.8224  -0.6088  -0.6041  -0.2842
    -0.2675  -0.2221   1.7756   5.0896   5.4712   7.2118  11.2274  11.3109
    12.2497

     occupation numbers 
     1.0000   1.0000   1.0000   1.0000   1.0000   1.0000   1.0000   1.0000
     1.0000   1.0000   1.0000   1.0000   1.0000   0.0000   0.0000   0.0000
     0.0000

          k =-0.1515-0.2525 0.2525 ( 11015 PWs)   bands (ev):

  -108.5857 -56.9170 -56.9169 -56.9169  -4.9117  -0.6274  -0.6178  -0.4361
    -0.2760  -0.2545   2.3876   5.2104   5.6418   7.2457  11.1378  11.2049
    11.6345

     occupation numbers 
     1.0000   1.0000   1.0000   1.0000   1.0000   1.0000   1.0000   1.0000
     1.0000   1.0000   1.0000   1.0000   1.0000   0.0000   0.0000   0.0000
     0.0000

          k =-0.1010-0.2020 0.2020 ( 11021 PWs)   bands (ev):

  -108.5857 -56.9169 -56.9169 -56.9169  -5.0149  -0.6509  -0.6384  -0.5619
    -0.2800  -0.2620   3.0833   5.3979   5.8307   7.2326  10.7073  11.0335
    11.3862

     occupation numbers 
     1.0000   1.0000   1.0000   1.0000   1.0000   1.0000   1.0000   1.0000
     1.0000   1.0000   1.0000   1.0000   1.0000   0.0000   0.0000   0.0000
     0.0000

          k =-0.0505-0.1515 0.1515 ( 11041 PWs)   bands (ev):

  -108.5857 -56.9169 -56.9169 -56.9169  -5.1111  -0.6741  -0.6622  -0.6394
    -0.2793  -0.2663   3.7952   5.6361   6.0013   7.0897  10.3737  10.8269
    11.1802

     occupation numbers 
     1.0000   1.0000   1.0000   1.0000   1.0000   1.0000   1.0000   1.0000
     1.0000   1.0000   1.0000   1.0000   1.0000   0.0000   0.0000   0.0000
     0.0000

          k = 0.0000-0.1010 0.1010 ( 11015 PWs)   bands (ev):

  -108.5857 -56.9169 -56.9169 -56.9169  -5.1827  -0.6913  -0.6841  -0.6797
    -0.2757  -0.2689   4.4387   5.9009   6.1115   6.7793  10.3394  10.6679
    10.9012

     occupation numbers 
     1.0000   1.0000   1.0000   1.0000   1.0000   1.0000   1.0000   1.0000
     1.0000   1.0000   1.0000   1.0000   1.0000  -0.0000   0.0000   0.0000
     0.0000

          k = 0.2020 0.0000 0.0000 ( 11038 PWs)   bands (ev):

  -108.5857 -56.9169 -56.9169 -56.9169  -5.1282  -0.6806  -0.6589  -0.6589
    -0.2854  -0.2611   4.0427   5.7043   5.7043   7.3262   9.8036  11.2339
    11.2339

     occupation numbers 
     1.0000   1.0000   1.0000   1.0000   1.0000   1.0000   1.0000   1.0000
     1.0000   1.0000   1.0000   1.0000   1.0000   0.0000   0.0000   0.0000
     0.0000

          k = 0.2525 0.0505-0.0505 ( 11042 PWs)   bands (ev):

  -108.5857 -56.9169 -56.9169 -56.9169  -5.0598  -0.6622  -0.6344  -0.6233
    -0.2891  -0.2566   3.5570   5.4985   5.5012   7.6004   9.7203  11.5018
    11.5383

     occupation numbers 
     1.0000   1.0000   1.0000   1.0000   1.0000   1.0000   1.0000   1.0000
     1.0000   1.0000   1.0000   1.0000   1.0000   0.0000   0.0000   0.0000
     0.0000

          k = 0.3030 0.1010-0.1010 ( 11031 PWs)   bands (ev):

  -108.5857 -56.9169 -56.9169 -56.9169  -4.9685  -0.6391  -0.6084  -0.5517
    -0.2853  -0.2523   2.9494   5.2556   5.3155   7.7536   9.9237  11.6473
    11.7817

     occupation numbers 
     1.0000   1.0000   1.0000   1.0000   1.0000   1.0000   1.0000   1.0000
     1.0000   1.0000   1.0000   1.0000   1.0000   0.0000   0.0000   0.0000
     0.0000

          k = 0.3536 0.1515-0.1515 ( 11010 PWs)   bands (ev):

  -108.5857 -56.9170 -56.9169 -56.9169  -4.8713  -0.6171  -0.5869  -0.4410
    -0.2631  -0.2482   2.3253   4.9991   5.1771   7.7907  10.3126  11.7533
    11.8932

     occupation numbers 
     1.0000   1.0000   1.0000   1.0000   1.0000   1.0000   1.0000   1.0000
     1.0000   1.0000   1.0000   1.0000   1.0000   0.0000   0.0000   0.0000
     0.0000

          k = 0.4041 0.2020-0.2020 ( 10992 PWs)   bands (ev):

  -108.5857 -56.9170 -56.9169 -56.9169  -4.7879  -0.6001  -0.5735  -0.3361
    -0.2463  -0.1795   1.7637   4.7707   5.1058   7.7690  10.6485  11.8792
    12.0629

     occupation numbers 
     1.0000   1.0000   1.0000   1.0000   1.0000   1.0000   1.0000   1.0000
     1.0000   1.0000   1.0000   1.0000   1.0000   0.0000   0.0000   0.0000
     0.0000

          k =-0.2525-0.4546 0.4546 ( 11004 PWs)   bands (ev):

  -108.5857 -56.9170 -56.9169 -56.9169  -4.7369  -0.5898  -0.5691  -0.2922
    -0.2494  -0.0310   1.3651   4.6004   5.1111   7.7385  10.8162  11.7961
    12.5730

     occupation numbers 
     1.0000   1.0000   1.0000   1.0000   1.0000   1.0000   1.0000   1.0000
     1.0000   1.0000   1.0000   1.0000   1.0000   0.0000   0.0000   0.0000
     0.0000

          k =-0.2020-0.4041 0.4041 ( 11022 PWs)   bands (ev):

  -108.5857 -56.9170 -56.9169 -56.9169  -4.7301  -0.5855  -0.5734  -0.2746
    -0.2584   0.0001   1.2994   4.5085   5.1923   7.7227  10.9209  11.6882
    12.7645

     occupation numbers 
     1.0000   1.0000   1.0000   1.0000   1.0000   1.0000   1.0000   1.0000
     1.0000   1.0000   1.0000   1.0000   1.0000   0.0000   0.0000   0.0000
     0.0000

          k =-0.1515-0.3536 0.3536 ( 11016 PWs)   bands (ev):

  -108.5857 -56.9170 -56.9169 -56.9169  -4.7689  -0.5871  -0.5860  -0.2807
    -0.2706  -0.1357   1.6113   4.5102   5.3385   7.7220  11.0243  11.5651
    12.2811

     occupation numbers 
     1.0000   1.0000   1.0000   1.0000   1.0000   1.0000   1.0000   1.0000
     1.0000   1.0000   1.0000   1.0000   1.0000   0.0000   0.0000   0.0000
     0.0000

          k =-0.1010-0.3030 0.3030 ( 11022 PWs)   bands (ev):

  -108.5857 -56.9170 -56.9169 -56.9169  -4.8444  -0.6062  -0.5957  -0.3706
    -0.2809  -0.2305   2.1274   4.6182   5.5284   7.7131  11.0594  11.4078
    11.6557

     occupation numbers 
     1.0000   1.0000   1.0000   1.0000   1.0000   1.0000   1.0000   1.0000
     1.0000   1.0000   1.0000   1.0000   1.0000   0.0000   0.0000   0.0000
     0.0000

          k =-0.0505-0.2525 0.2525 ( 11034 PWs)   bands (ev):

  -108.5857 -56.9170 -56.9169 -56.9169  -4.9395  -0.6312  -0.6121  -0.5006
    -0.2857  -0.2496   2.7190   4.8444   5.7303   7.6405  10.7382  11.2001
    11.4689

     occupation numbers 
     1.0000   1.0000   1.0000   1.0000   1.0000   1.0000   1.0000   1.0000
     1.0000   1.0000   1.0000   1.0000   1.0000   0.0000   0.0000   0.0000
     0.0000

          k =-0.0000-0.2020 0.2020 ( 11049 PWs)   bands (ev):

  -108.5857 -56.9169 -56.9169 -56.9169  -5.0345  -0.6559  -0.6357  -0.5900
    -0.2845  -0.2592   3.2992   5.1944   5.9028   7.4323  10.4228  10.9784
    11.4198

     occupation numbers 
     1.0000   1.0000   1.0000   1.0000   1.0000   1.0000   1.0000   1.0000
     1.0000   1.0000   1.0000   1.0000   1.0000   0.0000   0.0000   0.0000
     0.0000

          k = 0.3030 0.0000 0.0000 ( 11018 PWs)   bands (ev):

  -108.5857 -56.9169 -56.9169 -56.9169  -5.0056  -0.6427  -0.6077  -0.6077
    -0.2931  -0.2504   3.2973   5.2843   5.2843   7.8590   9.4391  11.9163
    11.9163

     occupation numbers 
     1.0000   1.0000   1.0000   1.0000   1.0000   1.0000   1.0000   1.0000
     1.0000   1.0000   1.0000   1.0000   1.0000   0.0000   0.0000   0.0000
     0.0000

          k = 0.3536 0.0505-0.0505 ( 11033 PWs)   bands (ev):

  -108.5857 -56.9169 -56.9169 -56.9169  -4.9275  -0.6185  -0.5789  -0.5602
    -0.2866  -0.2449   2.8610   5.0443   5.0874   8.0230   9.4404  12.0867
    12.2489

     occupation numbers 
     1.0000   1.0000   1.0000   1.0000   1.0000   1.0000   1.0000   1.0000
     1.0000   1.0000   1.0000   1.0000   1.0000   0.0000   0.0000   0.0000
     0.0000

          k = 0.4041 0.1010-0.1010 ( 11039 PWs)   bands (ev):

  -108.5857 -56.9170 -56.9169 -56.9169  -4.8397  -0.5976  -0.5545  -0.4789
    -0.2549  -0.2408   2.3525   4.7520   4.9420   8.1287   9.6939  11.9777
    12.4356

     occupation numbers 
     1.0000   1.0000   1.0000   1.0000   1.0000   1.0000   1.0000   1.0000
     1.0000   1.0000   1.0000   1.0000   1.0000   0.0000   0.0000   0.0000
     0.0000

          k = 0.4546 0.1515-0.1515 ( 11021 PWs)   bands (ev):

  -108.5857 -56.9170 -56.9169 -56.9169  -4.7598  -0.5818  -0.5388  -0.3937
    -0.2400  -0.1676   1.8551   4.4575   4.8688   8.1684  10.1078  11.9669
    12.4493

     occupation numbers 
     1.0000   1.0000   1.0000   1.0000   1.0000   1.0000   1.0000   1.0000
     1.0000   1.0000   1.0000   1.0000   1.0000   0.0000   0.0000   0.0000
     0.0000

          k =-0.2020-0.5051 0.5051 ( 11001 PWs)   bands (ev):

  -108.5857 -56.9170 -56.9169 -56.9169  -4.7050  -0.5725  -0.5335  -0.3364
    -0.2449  -0.0262   1.4566   4.2134   4.8778   8.1720  10.4849  12.2240
    12.3455

     occupation numbers 
     1.0000   1.0000   1.0000   1.0000   1.0000   1.0000   1.0000   1.0000
     1.0000   1.0000   1.0000   1.0000   1.0000   0.0000   0.0000   0.0000
     0.0000

          k =-0.1515-0.4546 0.4546 ( 11012 PWs)   bands (ev):

  -108.5857 -56.9170 -56.9169 -56.9169  -4.6874  -0.5686  -0.5384  -0.3017
    -0.2559   0.0527   1.2950   4.0560   4.9681   8.1679  10.7178  12.1847
    12.5969

     occupation numbers 
     1.0000   1.0000   1.0000   1.0000   1.0000   1.0000   1.0000   1.0000
     1.0000   1.0000   1.0000   1.0000   1.0000   0.0000   0.0000   0.0000
     0.0000

          k =-0.1010-0.4041 0.4041 ( 11008 PWs)   bands (ev):

  -108.5857 -56.9170 -56.9169 -56.9169  -4.7111  -0.5692  -0.5531  -0.2876
    -0.2698  -0.0347   1.4701   4.0142   5.1275   8.1567  10.8810  11.9892
    12.3642

     occupation numbers 
     1.0000   1.0000   1.0000   1.0000   1.0000   1.0000   1.0000   1.0000
     1.0000   1.0000   1.0000   1.0000   1.0000   0.0000   0.0000   0.0000
     0.0000

          k =-0.0505-0.3536 0.3536 ( 11021 PWs)   bands (ev):

  -108.5857 -56.9170 -56.9169 -56.9169  -4.7705  -0.5762  -0.5754  -0.3127
    -0.2813  -0.1725   1.8555   4.1174   5.3324   8.1060  11.0269  11.7235
    11.7503

     occupation numbers 
     1.0000   1.0000   1.0000   1.0000   1.0000   1.0000   1.0000   1.0000
     1.0000   1.0000   1.0000   1.0000   1.0000   0.0000   0.0000   0.0000
     0.0000

          k = 0.0000-0.3030 0.3030 ( 11033 PWs)   bands (ev):

  -108.5857 -56.9170 -56.9169 -56.9169  -4.8524  -0.6042  -0.5894  -0.4075
    -0.2868  -0.2304   2.2996   4.3936   5.5483   7.9513  10.9726  11.3958
    11.4689

     occupation numbers 
     1.0000   1.0000   1.0000   1.0000   1.0000   1.0000   1.0000   1.0000
     1.0000   1.0000   1.0000   1.0000   1.0000   0.0000   0.0000   0.0000
     0.0000

          k = 0.4041 0.0000 0.0000 ( 11042 PWs)   bands (ev):

  -108.5857 -56.9170 -56.9169 -56.9169  -4.8640  -0.5869  -0.5467  -0.5467
    -0.2750  -0.2384   2.5856   4.8770   4.8770   8.0924   9.2436  12.7087
    12.7087

     occupation numbers 
     1.0000   1.0000   1.0000   1.0000   1.0000   1.0000   1.0000   1.0000
     1.0000   1.0000   1.0000   1.0000   1.0000   0.0000   0.0000   0.0000
     0.0000

          k = 0.4546 0.0505-0.0505 ( 11032 PWs)   bands (ev):

  -108.5857 -56.9170 -56.9169 -56.9169  -4.7899  -0.5663  -0.5188  -0.4977
    -0.2340  -0.2337   2.2074   4.6413   4.7186   8.1680   9.2759  12.5748
    13.0310

     occupation numbers 
     1.0000   1.0000   1.0000   1.0000   1.0000   1.0000   1.0000   1.0000
     1.0000   1.0000   1.0000   1.0000   1.0000   0.0000   0.0000   0.0000
     0.0000

          k = 0.5051 0.1010-0.1010 ( 11002 PWs)   bands (ev):

  -108.5857 -56.9170 -56.9169 -56.9169  -4.7198  -0.5547  -0.5003  -0.4366
    -0.2327  -0.1413   1.8097   4.3341   4.6349   8.2706   9.5396  12.3985
    13.1235

     occupation numbers 
     1.0000   1.0000   1.0000   1.0000   1.0000   1.0000   1.0000   1.0000
     1.0000   1.0000   1.0000   1.0000   1.0000   0.0000   0.0000   0.0000
     0.0000

          k =-0.1515-0.5556 0.5556 ( 11001 PWs)   bands (ev):

  -108.5857 -56.9170 -56.9169 -56.9169  -4.6684  -0.5493  -0.4938  -0.3824
    -0.2380  -0.0039   1.4658   4.0307   4.6378   8.3351   9.9924  12.3878
    13.0187

     occupation numbers 
     1.0000   1.0000   1.0000   1.0000   1.0000   1.0000   1.0000   1.0000
     1.0000   1.0000   1.0000   1.0000   1.0000   0.0000   0.0000   0.0000
     0.0000

          k =-0.1010-0.5051 0.5051 ( 11025 PWs)   bands (ev):

  -108.5857 -56.9170 -56.9169 -56.9169  -4.6470  -0.5492  -0.4996  -0.3378
    -0.2496   0.1012   1.2745   3.8046   4.7270   8.3705  10.4511  12.6037
    12.7981

     occupation numbers 
     1.0000   1.0000   1.0000   1.0000   1.0000   1.0000   1.0000   1.0000
     1.0000   1.0000   1.0000   1.0000   1.0000   0.0000   0.0000   0.0000
     0.0000

          k =-0.0505-0.4546 0.4546 ( 11018 PWs)   bands (ev):

  -108.5857 -56.9170 -56.9169 -56.9169  -4.6600  -0.5531  -0.5170  -0.3061
    -0.2639   0.0706   1.3329   3.7135   4.8905   8.3796  10.7643  12.5022
    12.6657

     occupation numbers 
     1.0000   1.0000   1.0000   1.0000   1.0000   1.0000   1.0000   1.0000
     1.0000   1.0000   1.0000   1.0000   1.0000   0.0000   0.0000   0.0000
     0.0000

          k = 0.0000-0.4041 0.4041 ( 11000 PWs)   bands (ev):

  -108.5857 -56.9170 -56.9169 -56.9169  -4.7044  -0.5612  -0.5441  -0.2941
    -0.2756  -0.0557   1.5718   3.8077   5.1042   8.3180  10.9423  12.1125
    12.1416

     occupation numbers 
     1.0000   1.0000   1.0000   1.0000   1.0000   1.0000   1.0000   1.0000
     1.0000   1.0000   1.0000   1.0000   1.0000   0.0000   0.0000   0.0000
     0.0000

          k = 0.5051 0.0000 0.0000 ( 11030 PWs)   bands (ev):

  -108.5857 -56.9170 -56.9169 -56.9169  -4.7312  -0.5410  -0.4873  -0.4873
    -0.2277  -0.1854   1.9406   4.5442   4.5442   8.1128   9.0948  13.2889
    13.5502

     occupation numbers 
     1.0000   1.0000   1.0000   1.0000   1.0000   1.0000   1.0000   1.0000
     1.0000   1.0000   1.0000   1.0000   1.0000   0.0000   0.0000   0.0000
     0.0000

          k = 0.5556 0.0505-0.0505 ( 10994 PWs)   bands (ev):

  -108.5857 -56.9170 -56.9169 -56.9169  -4.6755  -0.5319  -0.4663  -0.4534
    -0.2252  -0.0931   1.6386   4.3431   4.4447   8.1729   9.1264  13.1651
    13.8124

     occupation numbers 
     1.0000   1.0000   1.0000   1.0000   1.0000   1.0000   1.0000   1.0000
     1.0000   1.0000   1.0000   1.0000   1.0000   0.0000   0.0000   0.0000
     0.0000

          k =-0.1010-0.6061 0.6061 ( 11004 PWs)   bands (ev):

  -108.5857 -56.9170 -56.9169 -56.9169  -4.6345  -0.5289  -0.4587  -0.4156
    -0.2292   0.0337   1.3734   4.0590   4.4343   8.2906   9.4219  13.0299
    13.7460

     occupation numbers 
     1.0000   1.0000   1.0000   1.0000   1.0000   1.0000   1.0000   1.0000
     1.0000   1.0000   1.0000   1.0000   1.0000   0.0000   0.0000   0.0000
     0.0000

          k =-0.0505-0.5556 0.5556 ( 11003 PWs)   bands (ev):

  -108.5857 -56.9170 -56.9169 -56.9169  -4.6169  -0.5318  -0.4653  -0.3757
    -0.2397   0.1396   1.2151   3.7940   4.5145   8.3753   9.9341  13.0230
    13.4503

     occupation numbers 
     1.0000   1.0000   1.0000   1.0000   1.0000   1.0000   1.0000   1.0000
     1.0000   1.0000   1.0000   1.0000   1.0000   0.0000   0.0000   0.0000
     0.0000

          k = 0.0000-0.5051 0.5051 ( 11024 PWs)   bands (ev):

  -108.5857 -56.9170 -56.9169 -56.9169  -4.6262  -0.5403  -0.4857  -0.3370
    -0.2530   0.1493   1.2180   3.6512   4.6744   8.4201  10.4535  13.0152
    13.2363

     occupation numbers 
     1.0000   1.0000   1.0000   1.0000   1.0000   1.0000   1.0000   1.0000
     1.0000   1.0000   1.0000   1.0000   1.0000   0.0000   0.0000   0.0000
     0.0000

          k = 0.6061 0.0000 0.0000 ( 10994 PWs)   bands (ev):

  -108.5857 -56.9170 -56.9169 -56.9169  -4.6362  -0.5248  -0.4434  -0.4434
    -0.2202  -0.0162   1.4241   4.3271   4.3271   8.0924   8.9494  13.8039
    14.3348

     occupation numbers 
     1.0000   1.0000   1.0000   1.0000   1.0000   1.0000   1.0000   1.0000
     1.0000   1.0000   1.0000   1.0000   1.0000   0.0000   0.0000   0.0000
     0.0000

          k =-0.0505-0.6566 0.6566 ( 10972 PWs)   bands (ev):

  -108.5857 -56.9170 -56.9169 -56.9169  -4.6104  -0.5220  -0.4352  -0.4269
    -0.2210   0.0754   1.2510   4.1846   4.2990   8.1612   9.0186  13.7535
    14.4094

     occupation numbers 
     1.0000   1.0000   1.0000   1.0000   1.0000   1.0000   1.0000   1.0000
     1.0000   1.0000   1.0000   1.0000   1.0000   0.0000   0.0000   0.0000
     0.0000

          k = 0.0000-0.6061 0.6061 ( 11008 PWs)   bands (ev):

  -108.5857 -56.9170 -56.9169 -56.9169  -4.6037  -0.5222  -0.4427  -0.4065
    -0.2286   0.1379   1.1806   3.9631   4.3646   8.2880   9.3745  13.4940
    14.0395

     occupation numbers 
     1.0000   1.0000   1.0000   1.0000   1.0000   1.0000   1.0000   1.0000
     1.0000   1.0000   1.0000   1.0000   1.0000   0.0000   0.0000   0.0000
     0.0000

          k =-0.7071 0.0000 0.0000 ( 10950 PWs)   bands (ev):

  -108.5857 -56.9170 -56.9169 -56.9169  -4.6017  -0.5225  -0.4271  -0.4271
    -0.2175   0.0952   1.1953   4.2517   4.2517   8.0856   8.8862  14.0769
    14.7252

     occupation numbers 
     1.0000   1.0000   1.0000   1.0000   1.0000   1.0000   1.0000   1.0000
     1.0000   1.0000   1.0000   1.0000   1.0000   0.0000   0.0000   0.0000
     0.0000

          k = 0.2020 0.1010 0.0000 ( 11039 PWs)   bands (ev):

  -108.5857 -56.9169 -56.9169 -56.9169  -5.1038  -0.6738  -0.6538  -0.6415
    -0.2839  -0.2622   3.8024   5.5531   5.8471   7.3066  10.0174  11.1026
    11.2940

     occupation numbers 
     1.0000   1.0000   1.0000   1.0000   1.0000   1.0000   1.0000   1.0000
     1.0000   1.0000   1.0000   1.0000   1.0000   0.0000   0.0000   0.0000
     0.0000

          k = 0.2525 0.1515-0.0505 ( 11040 PWs)   bands (ev):

  -108.5857 -56.9169 -56.9169 -56.9169  -5.0172  -0.6521  -0.6286  -0.5801
    -0.2854  -0.2572   3.2017   5.2346   5.7115   7.5356  10.1626  11.3215
    11.5040

     occupation numbers 
     1.0000   1.0000   1.0000   1.0000   1.0000   1.0000   1.0000   1.0000
     1.0000   1.0000   1.0000   1.0000   1.0000   0.0000   0.0000   0.0000
     0.0000

          k = 0.3030 0.2020-0.1010 ( 11019 PWs)   bands (ev):

  -108.5857 -56.9170 -56.9169 -56.9169  -4.9180  -0.6280  -0.6063  -0.4761
    -0.2796  -0.2501   2.5577   4.9837   5.5321   7.6231  10.5276  11.4914
    11.6571

     occupation numbers 
     1.0000   1.0000   1.0000   1.0000   1.0000   1.0000   1.0000   1.0000
     1.0000   1.0000   1.0000   1.0000   1.0000   0.0000   0.0000   0.0000
     0.0000

          k = 0.3536 0.2525-0.1515 ( 11012 PWs)   bands (ev):

  -108.5857 -56.9170 -56.9169 -56.9169  -4.8256  -0.6073  -0.5904  -0.3445
    -0.2617  -0.2251   1.9512   4.8100   5.3594   7.6227  10.8475  11.5632
    11.9929

     occupation numbers 
     1.0000   1.0000   1.0000   1.0000   1.0000   1.0000   1.0000   1.0000
     1.0000   1.0000   1.0000   1.0000   1.0000   0.0000   0.0000   0.0000
     0.0000

          k =-0.3030-0.4041 0.5051 ( 11018 PWs)   bands (ev):

  -108.5857 -56.9170 -56.9169 -56.9169  -4.7600  -0.5941  -0.5815  -0.2850
    -0.2539  -0.0910   1.4698   4.7110   5.2356   7.5991  10.9456  11.5947
    12.5441

     occupation numbers 
     1.0000   1.0000   1.0000   1.0000   1.0000   1.0000   1.0000   1.0000
     1.0000   1.0000   1.0000   1.0000   1.0000   0.0000   0.0000   0.0000
     0.0000

          k =-0.2525-0.3536 0.4546 ( 11024 PWs)   bands (ev):

  -108.5857 -56.9170 -56.9169 -56.9169  -4.7362  -0.5897  -0.5788  -0.2720
    -0.2552   0.0057   1.2650   4.6794   5.1904   7.5878  10.9565  11.6004
    12.8673

     occupation numbers 
     1.0000   1.0000   1.0000   1.0000   1.0000   1.0000   1.0000   1.0000
     1.0000   1.0000   1.0000   1.0000   1.0000   0.0000   0.0000   0.0000
     0.0000

          k = 0.3030 0.1010-0.0000 ( 11043 PWs)   bands (ev):

  -108.5857 -56.9169 -56.9169 -56.9169  -4.9864  -0.6411  -0.6069  -0.5809
    -0.2895  -0.2510   3.1277   5.1326   5.4065   7.8474   9.6715  11.7072
    11.8556

     occupation numbers 
     1.0000   1.0000   1.0000   1.0000   1.0000   1.0000   1.0000   1.0000
     1.0000   1.0000   1.0000   1.0000   1.0000   0.0000   0.0000   0.0000
     0.0000

          k = 0.3536 0.1515-0.0505 ( 11034 PWs)   bands (ev):

  -108.5857 -56.9170 -56.9169 -56.9169  -4.8966  -0.6169  -0.5820  -0.5022
    -0.2776  -0.2447   2.6041   4.8106   5.2541   8.0124   9.8852  11.6699
    12.1474

     occupation numbers 
     1.0000   1.0000   1.0000   1.0000   1.0000   1.0000   1.0000   1.0000
     1.0000   1.0000   1.0000   1.0000   1.0000   0.0000   0.0000   0.0000
     0.0000

          k = 0.4041 0.2020-0.1010 ( 11026 PWs)   bands (ev):

  -108.5857 -56.9170 -56.9169 -56.9169  -4.8078  -0.5957  -0.5637  -0.4010
    -0.2511  -0.2180   2.0650   4.5557   5.0975   8.0789  10.2730  11.6233
    12.3321

     occupation numbers 
     1.0000   1.0000   1.0000   1.0000   1.0000   1.0000   1.0000   1.0000
     1.0000   1.0000   1.0000   1.0000   1.0000   0.0000   0.0000   0.0000
     0.0000

          k =-0.2525-0.4546 0.5556 ( 11009 PWs)   bands (ev):

  -108.5857 -56.9170 -56.9169 -56.9169  -4.7385  -0.5815  -0.5533  -0.3305
    -0.2484  -0.0973   1.5934   4.3685   4.9966   8.0868  10.5993  11.7402
    12.4867

     occupation numbers 
     1.0000   1.0000   1.0000   1.0000   1.0000   1.0000   1.0000   1.0000
     1.0000   1.0000   1.0000   1.0000   1.0000   0.0000   0.0000   0.0000
     0.0000

          k =-0.2020-0.4041 0.5051 ( 11017 PWs)   bands (ev):

  -108.5857 -56.9170 -56.9169 -56.9169  -4.7041  -0.5745  -0.5511  -0.2966
    -0.2555   0.0266   1.3126   4.2491   4.9848   8.0797  10.7468  11.8412
    12.7775

     occupation numbers 
     1.0000   1.0000   1.0000   1.0000   1.0000   1.0000   1.0000   1.0000
     1.0000   1.0000   1.0000   1.0000   1.0000   0.0000   0.0000   0.0000
     0.0000

          k =-0.1515-0.3536 0.4546 ( 11011 PWs)   bands (ev):

  -108.5857 -56.9170 -56.9169 -56.9169  -4.7125  -0.5738  -0.5573  -0.2898
    -0.2613  -0.0069   1.3786   4.2093   5.0647   8.0747  10.8283  11.7445
    12.7298

     occupation numbers 
     1.0000   1.0000   1.0000   1.0000   1.0000   1.0000   1.0000   1.0000
     1.0000   1.0000   1.0000   1.0000   1.0000   0.0000   0.0000   0.0000
     0.0000

          k =-0.1010-0.3030 0.4041 ( 11001 PWs)   bands (ev):

  -108.5857 -56.9170 -56.9169 -56.9169  -4.7618  -0.5817  -0.5691  -0.3186
    -0.2632  -0.1498   1.7413   4.2702   5.2169   8.0620  10.8660  11.4784
    12.3134

     occupation numbers 
     1.0000   1.0000   1.0000   1.0000   1.0000   1.0000   1.0000   1.0000
     1.0000   1.0000   1.0000   1.0000   1.0000   0.0000   0.0000   0.0000
     0.0000

          k =-0.0505-0.2525 0.3536 ( 11022 PWs)   bands (ev):

  -108.5857 -56.9170 -56.9169 -56.9169  -4.8407  -0.6023  -0.5827  -0.4055
    -0.2766  -0.2289   2.2324   4.4551   5.4078   8.0016  10.6392  11.3506
    11.9734

     occupation numbers 
     1.0000   1.0000   1.0000   1.0000   1.0000   1.0000   1.0000   1.0000
     1.0000   1.0000   1.0000   1.0000   1.0000   0.0000   0.0000   0.0000
     0.0000

          k =-0.0000-0.2020 0.3030 ( 11023 PWs)   bands (ev):

  -108.5857 -56.9170 -56.9169 -56.9169  -4.9320  -0.6285  -0.6023  -0.5100
    -0.2855  -0.2476   2.7423   4.7815   5.5913   7.8317  10.2977  11.4183
    11.6823

     occupation numbers 
     1.0000   1.0000   1.0000   1.0000   1.0000   1.0000   1.0000   1.0000
     1.0000   1.0000   1.0000   1.0000   1.0000   0.0000   0.0000   0.0000
     0.0000

          k = 0.4041 0.1010 0.0000 ( 11042 PWs)   bands (ev):

  -108.5857 -56.9170 -56.9169 -56.9169  -4.8511  -0.5932  -0.5514  -0.5107
    -0.2661  -0.2389   2.4749   4.7363   4.9551   8.1636   9.4531  12.0835
    12.6833

     occupation numbers 
     1.0000   1.0000   1.0000   1.0000   1.0000   1.0000   1.0000   1.0000
     1.0000   1.0000   1.0000   1.0000   1.0000   0.0000   0.0000   0.0000
     0.0000

          k = 0.4546 0.1515-0.0505 ( 11027 PWs)   bands (ev):

  -108.5857 -56.9170 -56.9169 -56.9169  -4.7719  -0.5724  -0.5313  -0.4408
    -0.2399  -0.2009   2.0440   4.4373   4.8126   8.2972   9.6935  11.9170
    12.9632

     occupation numbers 
     1.0000   1.0000   1.0000   1.0000   1.0000   1.0000   1.0000   1.0000
     1.0000   1.0000   1.0000   1.0000   1.0000   0.0000   0.0000   0.0000
     0.0000

          k =-0.2020-0.5051 0.6061 ( 11002 PWs)   bands (ev):

  -108.5857 -56.9170 -56.9169 -56.9169  -4.7061  -0.5597  -0.5190  -0.3788
    -0.2415  -0.0815   1.6369   4.1699   4.7239   8.3743  10.1074  11.8526
    13.0155

     occupation numbers 
     1.0000   1.0000   1.0000   1.0000   1.0000   1.0000   1.0000   1.0000
     1.0000   1.0000   1.0000   1.0000   1.0000   0.0000   0.0000   0.0000
     0.0000

          k =-0.1515-0.4546 0.5556 ( 11019 PWs)   bands (ev):

  -108.5857 -56.9170 -56.9169 -56.9169  -4.6678  -0.5546  -0.5161  -0.3333
    -0.2511   0.0517   1.3462   3.9609   4.7299   8.4077  10.5013  11.9510
    13.0156

     occupation numbers 
     1.0000   1.0000   1.0000   1.0000   1.0000   1.0000   1.0000   1.0000
     1.0000   1.0000   1.0000   1.0000   1.0000   0.0000   0.0000   0.0000
     0.0000

          k =-0.1010-0.4041 0.5051 ( 11010 PWs)   bands (ev):

  -108.5857 -56.9170 -56.9169 -56.9169  -4.6656  -0.5543  -0.5243  -0.3040
    -0.2646   0.0746   1.3060   3.8487   4.8298   8.4176  10.7479  11.9246
    13.1097

     occupation numbers 
     1.0000   1.0000   1.0000   1.0000   1.0000   1.0000   1.0000   1.0000
     1.0000   1.0000   1.0000   1.0000   1.0000   0.0000   0.0000   0.0000
     0.0000

          k =-0.0505-0.3536 0.4546 ( 11010 PWs)   bands (ev):

  -108.5857 -56.9170 -56.9169 -56.9169  -4.6997  -0.5579  -0.5435  -0.3047
    -0.2681  -0.0398   1.5326   3.8730   5.0016   8.3888  10.9231  11.5201
    12.8015

     occupation numbers 
     1.0000   1.0000   1.0000   1.0000   1.0000   1.0000   1.0000   1.0000
     1.0000   1.0000   1.0000   1.0000   1.0000   0.0000   0.0000   0.0000
     0.0000

          k = 0.0000-0.3030 0.4041 ( 11021 PWs)   bands (ev):

  -108.5857 -56.9170 -56.9169 -56.9169  -4.7626  -0.5727  -0.5652  -0.3375
    -0.2693  -0.1678   1.8779   4.0706   5.2105   8.2684  10.9671  11.1563
    12.3829

     occupation numbers 
     1.0000   1.0000   1.0000   1.0000   1.0000   1.0000   1.0000   1.0000
     1.0000   1.0000   1.0000   1.0000   1.0000   0.0000   0.0000   0.0000
     0.0000

          k = 0.5051 0.1010 0.0000 ( 10999 PWs)   bands (ev):

  -108.5857 -56.9170 -56.9169 -56.9169  -4.7247  -0.5466  -0.4978  -0.4583
    -0.2308  -0.1632   1.8793   4.4236   4.5725   8.2503   9.2973  12.5508
    13.5545

     occupation numbers 
     1.0000   1.0000   1.0000   1.0000   1.0000   1.0000   1.0000   1.0000
     1.0000   1.0000   1.0000   1.0000   1.0000   0.0000   0.0000   0.0000
     0.0000

          k =-0.1515-0.5556 0.6566 ( 10990 PWs)   bands (ev):

  -108.5857 -56.9170 -56.9169 -56.9169  -4.6689  -0.5357  -0.4858  -0.4136
    -0.2332  -0.0456   1.5578   4.1592   4.4767   8.3910   9.5498  12.4100
    13.6865

     occupation numbers 
     1.0000   1.0000   1.0000   1.0000   1.0000   1.0000   1.0000   1.0000
     1.0000   1.0000   1.0000   1.0000   1.0000   0.0000   0.0000   0.0000
     0.0000

          k =-0.1010-0.5051 0.6061 ( 10994 PWs)   bands (ev):

  -108.5857 -56.9170 -56.9169 -56.9169  -4.6344  -0.5337  -0.4819  -0.3715
    -0.2428   0.0860   1.3104   3.8909   4.4865   8.4890  10.0126  12.3577
    13.4526

     occupation numbers 
     1.0000   1.0000   1.0000   1.0000   1.0000   1.0000   1.0000   1.0000
     1.0000   1.0000   1.0000   1.0000   1.0000   0.0000   0.0000   0.0000
     0.0000

          k =-0.0505-0.4546 0.5556 ( 11009 PWs)   bands (ev):

  -108.5857 -56.9170 -56.9169 -56.9169  -4.6284  -0.5376  -0.4910  -0.3329
    -0.2575   0.1447   1.2264   3.7080   4.5946   8.5399  10.4939  12.3269
    13.1882

     occupation numbers 
     1.0000   1.0000   1.0000   1.0000   1.0000   1.0000   1.0000   1.0000
     1.0000   1.0000   1.0000   1.0000   1.0000   0.0000   0.0000   0.0000
     0.0000

          k = 0.0000-0.4041 0.5051 ( 11004 PWs)   bands (ev):

  -108.5857 -56.9170 -56.9169 -56.9169  -4.6519  -0.5452  -0.5132  -0.3062
    -0.2698   0.0799   1.3345   3.6853   4.7778   8.5295  10.8104  11.9175
    13.3419

     occupation numbers 
     1.0000   1.0000   1.0000   1.0000   1.0000   1.0000   1.0000   1.0000
     1.0000   1.0000   1.0000   1.0000   1.0000   0.0000   0.0000   0.0000
     0.0000

          k =-0.1010-0.6061 0.7071 ( 10980 PWs)   bands (ev):

  -108.5857 -56.9170 -56.9169 -56.9169  -4.6346  -0.5238  -0.4564  -0.4267
    -0.2252   0.0103   1.3997   4.2338   4.3086   8.2523   9.1620  13.1990
    14.1842

     occupation numbers 
     1.0000   1.0000   1.0000   1.0000   1.0000   1.0000   1.0000   1.0000
     1.0000   1.0000   1.0000   1.0000   1.0000   0.0000   0.0000   0.0000
     0.0000

          k =-0.0505-0.5556 0.6566 ( 10978 PWs)   bands (ev):

  -108.5857 -56.9170 -56.9169 -56.9169  -4.6106  -0.5204  -0.4558  -0.3992
    -0.2323   0.1179   1.2275   4.0090   4.2978   8.4062   9.4587  13.0911
    13.7561

     occupation numbers 
     1.0000   1.0000   1.0000   1.0000   1.0000   1.0000   1.0000   1.0000
     1.0000   1.0000   1.0000   1.0000   1.0000   0.0000   0.0000   0.0000
     0.0000

          k = 0.0000-0.5051 0.6061 ( 10998 PWs)   bands (ev):

  -108.5857 -56.9170 -56.9169 -56.9169  -4.6085  -0.5254  -0.4665  -0.3678
    -0.2448   0.1714   1.1739   3.7877   4.4062   8.5122   9.9792  12.9944
    13.0848

     occupation numbers 
     1.0000   1.0000   1.0000   1.0000   1.0000   1.0000   1.0000   1.0000
     1.0000   1.0000   1.0000   1.0000   1.0000   0.0000   0.0000   0.0000
     0.0000

          k =-0.7071 0.1010 0.0000 ( 10984 PWs)   bands (ev):

  -108.5857 -56.9170 -56.9169 -56.9169  -4.6019  -0.5193  -0.4398  -0.4144
    -0.2236   0.1194   1.1867   4.1885   4.1963   8.2487   9.1050  13.6986
    14.1042

     occupation numbers 
     1.0000   1.0000   1.0000   1.0000   1.0000   1.0000   1.0000   1.0000
     1.0000   1.0000   1.0000   1.0000   1.0000   0.0000   0.0000   0.0000
     0.0000

          k = 0.4041 0.2020 0.0000 ( 11021 PWs)   bands (ev):

  -108.5857 -56.9170 -56.9169 -56.9169  -4.8150  -0.5898  -0.5605  -0.4303
    -0.2592  -0.2231   2.2042   4.4144   5.1158   8.2543  10.0686  11.4860
    12.5840

     occupation numbers 
     1.0000   1.0000   1.0000   1.0000   1.0000   1.0000   1.0000   1.0000
     1.0000   1.0000   1.0000   1.0000   1.0000   0.0000   0.0000   0.0000
     0.0000

          k =-0.2525-0.4546 0.6566 ( 11022 PWs)   bands (ev):

  -108.5857 -56.9170 -56.9169 -56.9169  -4.7397  -0.5663  -0.5462  -0.3629
    -0.2522  -0.1377   1.7911   4.1399   4.9421   8.4046  10.4299  11.3565
    12.9223

     occupation numbers 
     1.0000   1.0000   1.0000   1.0000   1.0000   1.0000   1.0000   1.0000
     1.0000   1.0000   1.0000   1.0000   1.0000   0.0000   0.0000   0.0000
     0.0000

          k =-0.2020-0.4041 0.6061 ( 11012 PWs)   bands (ev):

  -108.5857 -56.9170 -56.9169 -56.9169  -4.6867  -0.5552  -0.5342  -0.3209
    -0.2583   0.0007   1.4415   3.9896   4.8038   8.4667  10.6965  11.4829
    13.1447

     occupation numbers 
     1.0000   1.0000   1.0000   1.0000   1.0000   1.0000   1.0000   1.0000
     1.0000   1.0000   1.0000   1.0000   1.0000   0.0000   0.0000   0.0000
     0.0000

          k =-0.1515-0.3536 0.5556 ( 10992 PWs)   bands (ev):

  -108.5857 -56.9170 -56.9169 -56.9169  -4.6676  -0.5529  -0.5289  -0.3022
    -0.2665   0.0786   1.2906   3.9433   4.7514   8.4817  10.7428  11.6599
    13.3455

     occupation numbers 
     1.0000   1.0000   1.0000   1.0000   1.0000   1.0000   1.0000   1.0000
     1.0000   1.0000   1.0000   1.0000   1.0000   0.0000   0.0000   0.0000
     0.0000

          k =-0.2020-0.5051 0.7071 ( 11006 PWs)   bands (ev):

  -108.5857 -56.9170 -56.9169 -56.9169  -4.7066  -0.5469  -0.5194  -0.3961
    -0.2416  -0.1034   1.7195   4.1500   4.6486   8.5165   9.8893  11.7256
    13.5507

     occupation numbers 
     1.0000   1.0000   1.0000   1.0000   1.0000   1.0000   1.0000   1.0000
     1.0000   1.0000   1.0000   1.0000   1.0000   0.0000   0.0000   0.0000
     0.0000

          k =-0.1515-0.4546 0.6566 ( 11005 PWs)   bands (ev):

  -108.5857 -56.9170 -56.9169 -56.9169  -4.6572  -0.5334  -0.5095  -0.3559
    -0.2510   0.0290   1.4273   3.9396   4.5099   8.6755  10.2730  11.6173
    13.5873

     occupation numbers 
     1.0000   1.0000   1.0000   1.0000   1.0000   1.0000   1.0000   1.0000
     1.0000   1.0000   1.0000   1.0000   1.0000   0.0000   0.0000   0.0000
     0.0000

          k =-0.1010-0.4041 0.6061 ( 11005 PWs)   bands (ev):

  -108.5857 -56.9170 -56.9169 -56.9169  -4.6343  -0.5322  -0.5036  -0.3222
    -0.2674   0.1289   1.2553   3.8046   4.4768   8.7473  10.6507  11.6248
    13.2195

     occupation numbers 
     1.0000   1.0000   1.0000   1.0000   1.0000   1.0000   1.0000   1.0000
     1.0000   1.0000   1.0000   1.0000   1.0000   0.0000   0.0000   0.0000
     0.0000

          k =-0.0505-0.3536 0.5556 ( 11003 PWs)   bands (ev):

  -108.5857 -56.9170 -56.9169 -56.9169  -4.6427  -0.5339  -0.5124  -0.3103
    -0.2740   0.1034   1.3002   3.7673   4.5649   8.7446  10.8655  11.3925
    13.3264

     occupation numbers 
     1.0000   1.0000   1.0000   1.0000   1.0000   1.0000   1.0000   1.0000
     1.0000   1.0000   1.0000   1.0000   1.0000   0.0000   0.0000   0.0000
     0.0000

          k = 0.0000-0.3030 0.5051 ( 11003 PWs)   bands (ev):

  -108.5857 -56.9170 -56.9169 -56.9169  -4.6806  -0.5377  -0.5354  -0.3317
    -0.2604  -0.0166   1.5172   3.8703   4.7396   8.6426  10.7888  11.1489
    13.4908

     occupation numbers 
     1.0000   1.0000   1.0000   1.0000   1.0000   1.0000   1.0000   1.0000
     1.0000   1.0000   1.0000   1.0000   1.0000   0.0000   0.0000   0.0000
     0.0000

          k =-0.1010-0.5051 0.7071 ( 10984 PWs)   bands (ev):

  -108.5857 -56.9170 -56.9169 -56.9169  -4.6299  -0.5206  -0.4824  -0.3829
    -0.2412   0.0731   1.3346   4.0258   4.2824   8.6191   9.7574  12.2674
    13.6881

     occupation numbers 
     1.0000   1.0000   1.0000   1.0000   1.0000   1.0000   1.0000   1.0000
     1.0000   1.0000   1.0000   1.0000   1.0000   0.0000   0.0000   0.0000
     0.0000

          k =-0.0505-0.4546 0.6566 ( 10978 PWs)   bands (ev):

  -108.5857 -56.9170 -56.9169 -56.9169  -4.6108  -0.5179  -0.4807  -0.3517
    -0.2567   0.1692   1.1958   3.8646   4.2333   8.7871  10.1854  12.1536
    13.0194

     occupation numbers 
     1.0000   1.0000   1.0000   1.0000   1.0000   1.0000   1.0000   1.0000
     1.0000   1.0000   1.0000   1.0000   1.0000   0.0000   0.0000   0.0000
     0.0000

          k =-0.0000-0.4041 0.6061 ( 10981 PWs)   bands (ev):

  -108.5857 -56.9170 -56.9169 -56.9169  -4.6155  -0.5234  -0.4902  -0.3214
    -0.2737   0.1783   1.1938   3.7384   4.3540   8.8386  10.6521  11.8098
    12.8209

     occupation numbers 
     1.0000   1.0000   1.0000   1.0000   1.0000   1.0000   1.0000   1.0000
     1.0000   1.0000   1.0000   1.0000   1.0000   0.0000   0.0000   0.0000
     0.0000

          k =-0.7071 0.2020-0.0000 ( 10990 PWs)   bands (ev):

  -108.5857 -56.9170 -56.9169 -56.9169  -4.6022  -0.5141  -0.4652  -0.3777
    -0.2428   0.1715   1.1668   4.0544   4.0814   8.6421   9.7062  12.9474
    13.0464

     occupation numbers 
     1.0000   1.0000   1.0000   1.0000   1.0000   1.0000   1.0000   1.0000
     1.0000   1.0000   1.0000   1.0000   1.0000   0.0000   0.0000   0.0000
     0.0000

          k =-0.1010-0.4041 0.7071 ( 10990 PWs)   bands (ev):

  -108.5857 -56.9170 -56.9169 -56.9169  -4.6231  -0.5177  -0.4998  -0.3302
    -0.2693   0.1398   1.2542   3.8305   4.2952   8.9134  10.6183  11.4487
    13.0761

     occupation numbers 
     1.0000   1.0000   1.0000   1.0000   1.0000   1.0000   1.0000   1.0000
     1.0000   1.0000   1.0000   1.0000   1.0000   0.0000   0.0000   0.0000
     0.0000

          k =-0.0505-0.3536 0.6566 ( 11008 PWs)   bands (ev):

  -108.5857 -56.9170 -56.9169 -56.9169  -4.6109  -0.5159  -0.4919  -0.3120
    -0.2858   0.1917   1.1807   3.8109   4.1981   8.9940  10.8699  11.3918
    12.6835

     occupation numbers 
     1.0000   1.0000   1.0000   1.0000   1.0000   1.0000   1.0000   1.0000
     1.0000   1.0000   1.0000   1.0000   1.0000   0.0000   0.0000   0.0000
     0.0000

          k =-0.7071 0.3030 0.0000 ( 10980 PWs)   bands (ev):

  -108.5857 -56.9170 -56.9169 -56.9169  -4.6025  -0.5113  -0.4831  -0.3287
    -0.2760   0.2115   1.1500   3.9531   3.9971   9.0057  10.5564  11.7915
    12.5412

     occupation numbers 
     1.0000   1.0000   1.0000   1.0000   1.0000   1.0000   1.0000   1.0000
     1.0000   1.0000   1.0000   1.0000   1.0000   0.0000   0.0000   0.0000
     0.0000

     the Fermi energy is     6.1781 ev
     (compare with:     6.1770 eV, computed in scf)

     Writing all to output data dir /home/User/opencode_workspace/DFT/calculations/hgte/production_dos_nosoc/out/pwscf.save/ :
     XML data file, pseudopotentials, collected wavefunctions

     init_run     :      0.65s CPU      1.56s WALL (       1 calls)
     electrons    :    218.43s CPU    441.73s WALL (       1 calls)

     Called by init_run:
     wfcinit      :      0.00s CPU      0.00s WALL (       1 calls)
     wfcinit:atom :      0.03s CPU      0.06s WALL (     104 calls)
     wfcinit:wfcr :      7.55s CPU     15.33s WALL (     104 calls)
     potinit      :      0.17s CPU      0.37s WALL (       1 calls)
     hinit0       :      0.28s CPU      0.58s WALL (       1 calls)

     Called by electrons:
     c_bands      :    218.30s CPU    441.47s WALL (       1 calls)
     v_of_rho     :      0.03s CPU      0.08s WALL (       1 calls)
     v_h          :      0.00s CPU      0.01s WALL (       1 calls)
     v_xc         :      0.03s CPU      0.08s WALL (       1 calls)
     newd         :      0.14s CPU      0.48s WALL (       1 calls)

     Called by c_bands:
     init_us_2    :      0.06s CPU      0.07s WALL (     104 calls)
     cegterg      :    210.30s CPU    425.30s WALL (     248 calls)

     Called by sum_band:

     Called by *egterg:
     cdiaghg      :      8.71s CPU     17.33s WALL (    4277 calls)
     cegterg:over :     25.94s CPU     52.81s WALL (    4173 calls)
     cegterg:upda :      0.97s CPU      1.51s WALL (    4173 calls)
     cegterg:last :      2.33s CPU      3.78s WALL (    2735 calls)
     h_psi        :    170.99s CPU    346.14s WALL (    4525 calls)
     s_psi        :      0.81s CPU      1.32s WALL (    4525 calls)
     g_psi        :      0.40s CPU      0.63s WALL (    4173 calls)

     Called by h_psi:
     h_psi:calbec :     13.57s CPU     27.44s WALL (    4525 calls)
     vloc_psi     :    156.09s CPU    316.72s WALL (    4525 calls)
                                        0.00s GPU  (    4525 calls)
     add_vuspsi   :      1.11s CPU      1.65s WALL (    4525 calls)

     General routines
     calbec       :     13.55s CPU     27.41s WALL (    4525 calls)
     fft          :      0.11s CPU      0.23s WALL (      13 calls)
     ffts         :      0.13s CPU      0.26s WALL (       1 calls)
     fftw         :    152.19s CPU    310.54s WALL (   91854 calls)
     interpolate  :      0.13s CPU      0.26s WALL (       1 calls)
     davcio       :      0.03s CPU      0.07s WALL (     208 calls)

     Parallel routines

     PWSCF        :   3m41.45s CPU   7m28.70s WALL


   This run was terminated on:   0:43:42  23Sep2026            

=------------------------------------------------------------------------------=
   JOB DONE.
=------------------------------------------------------------------------------=
