
     Program PWSCF v.7.5 starts on 23Sep2026 at  0:48:21 

     This program is part of the open-source Quantum ESPRESSO suite
     for quantum simulation of materials; please cite
         "P. Giannozzi et al., J. Phys.:Condens. Matter 21 395502 (2009);
         "P. Giannozzi et al., J. Phys.:Condens. Matter 29 465901 (2017);
         "P. Giannozzi et al., J. Chem. Phys. 152 154105 (2020);
          URL http://www.quantum-espresso.org", 
     in publications or presentations arising from this work. More details at
     http://www.quantum-espresso.org/quote

     Parallel version (MPI & OpenMP), running on       6 processor cores
     Number of MPI processes:                 6
     Threads/MPI process:                     1

     MPI processes distributed on     1 nodes
     12602 MiB available memory on the printing compute node when the environment starts

     Reading input from pw.in

     Current dimensions of program PWSCF are:
     Max number of different atomic species (ntypx) = 10
     Max number of k-points (npk) =  40000
     Max angular momentum in pseudopotentials (lmaxx) =  4
     file Hg.rel-pbe-spn-rrkjus_psl.1.0.0.UPF: wavefunction(s)  5P 5P renormalized
     file Te.rel-pbe-n-rrkjus_psl.1.0.0.UPF: wavefunction(s)  5S renormalized
     Message from routine setup:
     using ibrav=0 with symmetry is DISCOURAGED, use correct ibrav instead

     R & G space division:  proc/nbgrp/npool/nimage =       6
     Subspace diagonalization in iterative solution of the eigenvalue problem:
     a serial algorithm will be used


     Parallelization info
     --------------------
     sticks:   dense  smooth     PW     G-vecs:    dense   smooth      PW
     Min         612     409    114                24684    13390    2005
     Max         614     410    115                24689    13393    2008
     Sum        3679    2455    685               148117    80347   12039

     Using Slab Decomposition



     bravais-lattice index     =            0
     lattice parameter (alat)  =       8.6227  a.u.
     unit-cell volume          =     453.3375 (a.u.)^3
     number of atoms/cell      =            2
     number of atomic types    =            2
     number of electrons       =        26.00
     number of Kohn-Sham states=           26
     kinetic-energy cutoff     =     120.0000  Ry
     charge density cutoff     =     720.0000  Ry
     scf convergence threshold =      1.0E-10
     mixing beta               =       0.3000
     number of iterations used =            8  plain     mixing
     energy convergence thresh.=      1.0E-04
     force convergence thresh. =      1.0E-03
     press convergence thresh. =      5.0E-01
     Exchange-correlation= PBE
                           (   1   4   3   4   0   0   0)
     nstep                     =           50

     Non magnetic calculation with spin-orbit


     celldm(1)=   8.622745  celldm(2)=   0.000000  celldm(3)=   0.000000
     celldm(4)=   0.000000  celldm(5)=   0.000000  celldm(6)=   0.000000

     crystal axes: (cart. coord. in units of alat)
               a(1) = (   0.000000   0.707107   0.707107 )  
               a(2) = (   0.707107   0.000000   0.707107 )  
               a(3) = (   0.707107   0.707107   0.000000 )  

     reciprocal axes: (cart. coord. in units 2 pi/alat)
               b(1) = ( -0.707107  0.707107  0.707107 )  
               b(2) = (  0.707107 -0.707107  0.707107 )  
               b(3) = (  0.707107  0.707107 -0.707107 )  


     PseudoPot. # 1 for Hg read from file:
     /home/User/opencode_workspace/DFT/pseudopotentials/Hg.rel-pbe-spn-rrkjus_psl.1.0.0.UPF
     MD5 check sum: 5c678cd38c6ece8c2e94bba06b90db03
     Pseudo is Ultrasoft + core correction, Zval = 20.0
     Generated using &quot;atomic&quot; code by A. Dal Corso  v.6.3
     Using radial grid of 1279 points, 10 beta functions with: 
                l(1) =   0
                l(2) =   0
                l(3) =   1
                l(4) =   1
                l(5) =   1
                l(6) =   1
                l(7) =   2
                l(8) =   2
                l(9) =   2
               l(10) =   2
     Q(r) pseudized with 0 coefficients 


     PseudoPot. # 2 for Te read from file:
     /home/User/opencode_workspace/DFT/pseudopotentials/Te.rel-pbe-n-rrkjus_psl.1.0.0.UPF
     MD5 check sum: 7fd30b6833abd190471e4dcc2367351b
     Pseudo is Ultrasoft + core correction, Zval =  6.0
     Generated using &quot;atomic&quot; code by A. Dal Corso  v.6.3
     Using radial grid of 1245 points, 10 beta functions with: 
                l(1) =   0
                l(2) =   0
                l(3) =   1
                l(4) =   1
                l(5) =   1
                l(6) =   1
                l(7) =   2
                l(8) =   2
                l(9) =   2
               l(10) =   2
     Q(r) pseudized with 0 coefficients 


     atomic species   valence    mass     pseudopotential
     Hg               20.00   200.59200     Hg( 1.00)
     Te                6.00   127.60000     Te( 1.00)

     24 Sym. Ops. (no inversion) found


                                    s                        frac. trans.

      isym =  1     identity                                     

 cryst.   s( 1) = (     1          0          0      )
                  (     0          1          0      )
                  (     0          0          1      )

 cart.    s( 1) = (  1.0000000  0.0000000  0.0000000 )
                  (  0.0000000  1.0000000  0.0000000 )
                  (  0.0000000  0.0000000  1.0000000 )


      isym =  2     180 deg rotation - cart. axis [0,0,1]        

 cryst.   s( 2) = (     0          1         -1      )
                  (     1          0         -1      )
                  (     0          0         -1      )

 cart.    s( 2) = ( -1.0000000  0.0000000  0.0000000 )
                  (  0.0000000 -1.0000000  0.0000000 )
                  (  0.0000000  0.0000000  1.0000000 )


      isym =  3     180 deg rotation - cart. axis [0,1,0]        

 cryst.   s( 3) = (     0         -1          1      )
                  (     0         -1          0      )
                  (     1         -1          0      )

 cart.    s( 3) = ( -1.0000000  0.0000000  0.0000000 )
                  (  0.0000000  1.0000000  0.0000000 )
                  (  0.0000000  0.0000000 -1.0000000 )


      isym =  4     180 deg rotation - cart. axis [1,0,0]        

 cryst.   s( 4) = (    -1          0          0      )
                  (    -1          0          1      )
                  (    -1          1          0      )

 cart.    s( 4) = (  1.0000000  0.0000000  0.0000000 )
                  (  0.0000000 -1.0000000  0.0000000 )
                  (  0.0000000  0.0000000 -1.0000000 )


      isym =  5     120 deg rotation - cart. axis [-1,-1,-1]     

 cryst.   s( 5) = (     0          0          1      )
                  (     1          0          0      )
                  (     0          1          0      )

 cart.    s( 5) = (  0.0000000  1.0000000  0.0000000 )
                  (  0.0000000  0.0000000  1.0000000 )
                  (  1.0000000  0.0000000  0.0000000 )


      isym =  6     120 deg rotation - cart. axis [-1,1,1]       

 cryst.   s( 6) = (     1         -1          0      )
                  (     0         -1          1      )
                  (     0         -1          0      )

 cart.    s( 6) = (  0.0000000 -1.0000000  0.0000000 )
                  (  0.0000000  0.0000000  1.0000000 )
                  ( -1.0000000  0.0000000  0.0000000 )


      isym =  7     120 deg rotation - cart. axis [1,1,-1]       

 cryst.   s( 7) = (    -1          1          0      )
                  (    -1          0          0      )
                  (    -1          0          1      )

 cart.    s( 7) = (  0.0000000  1.0000000  0.0000000 )
                  (  0.0000000  0.0000000 -1.0000000 )
                  ( -1.0000000  0.0000000  0.0000000 )


      isym =  8     120 deg rotation - cart. axis [1,-1,1]       

 cryst.   s( 8) = (     0          0         -1      )
                  (     0          1         -1      )
                  (     1          0         -1      )

 cart.    s( 8) = (  0.0000000 -1.0000000  0.0000000 )
                  (  0.0000000  0.0000000 -1.0000000 )
                  (  1.0000000  0.0000000  0.0000000 )


      isym =  9     120 deg rotation - cart. axis [1,1,1]        

 cryst.   s( 9) = (     0          1          0      )
                  (     0          0          1      )
                  (     1          0          0      )

 cart.    s( 9) = (  0.0000000  0.0000000  1.0000000 )
                  (  1.0000000  0.0000000  0.0000000 )
                  (  0.0000000  1.0000000  0.0000000 )


      isym = 10     120 deg rotation - cart. axis [-1,1,-1]      

 cryst.   s(10) = (    -1          0          1      )
                  (    -1          1          0      )
                  (    -1          0          0      )

 cart.    s(10) = (  0.0000000  0.0000000  1.0000000 )
                  ( -1.0000000  0.0000000  0.0000000 )
                  (  0.0000000 -1.0000000  0.0000000 )


      isym = 11     120 deg rotation - cart. axis [1,-1,-1]      

 cryst.   s(11) = (     1          0         -1      )
                  (     0          0         -1      )
                  (     0          1         -1      )

 cart.    s(11) = (  0.0000000  0.0000000 -1.0000000 )
                  ( -1.0000000  0.0000000  0.0000000 )
                  (  0.0000000  1.0000000  0.0000000 )


      isym = 12     120 deg rotation - cart. axis [-1,-1,1]      

 cryst.   s(12) = (     0         -1          0      )
                  (     1         -1          0      )
                  (     0         -1          1      )

 cart.    s(12) = (  0.0000000  0.0000000 -1.0000000 )
                  (  1.0000000  0.0000000  0.0000000 )
                  (  0.0000000 -1.0000000  0.0000000 )


      isym = 13     inv. 180 deg rotation - cart. axis [1,1,0]   

 cryst.   s(13) = (     1          0         -1      )
                  (     0          1         -1      )
                  (     0          0         -1      )

 cart.    s(13) = (  0.0000000 -1.0000000  0.0000000 )
                  ( -1.0000000  0.0000000  0.0000000 )
                  (  0.0000000  0.0000000  1.0000000 )


      isym = 14     inv. 180 deg rotation - cart. axis [1,-1,0]  

 cryst.   s(14) = (     0          1          0      )
                  (     1          0          0      )
                  (     0          0          1      )

 cart.    s(14) = (  0.0000000  1.0000000  0.0000000 )
                  (  1.0000000  0.0000000  0.0000000 )
                  (  0.0000000  0.0000000  1.0000000 )


      isym = 15     inv.  90 deg rotation - cart. axis [0,0,-1]  

 cryst.   s(15) = (     0         -1          0      )
                  (     0         -1          1      )
                  (     1         -1          0      )

 cart.    s(15) = (  0.0000000 -1.0000000  0.0000000 )
                  (  1.0000000  0.0000000  0.0000000 )
                  (  0.0000000  0.0000000 -1.0000000 )


      isym = 16     inv.  90 deg rotation - cart. axis [0,0,1]   

 cryst.   s(16) = (    -1          0          1      )
                  (    -1          0          0      )
                  (    -1          1          0      )

 cart.    s(16) = (  0.0000000  1.0000000  0.0000000 )
                  ( -1.0000000  0.0000000  0.0000000 )
                  (  0.0000000  0.0000000 -1.0000000 )


      isym = 17     inv. 180 deg rotation - cart. axis [1,0,1]   

 cryst.   s(17) = (     1         -1          0      )
                  (     0         -1          0      )
                  (     0         -1          1      )

 cart.    s(17) = (  0.0000000  0.0000000 -1.0000000 )
                  (  0.0000000  1.0000000  0.0000000 )
                  ( -1.0000000  0.0000000  0.0000000 )


      isym = 18     inv. 180 deg rotation - cart. axis [-1,0,1]  

 cryst.   s(18) = (     0          0          1      )
                  (     0          1          0      )
                  (     1          0          0      )

 cart.    s(18) = (  0.0000000  0.0000000  1.0000000 )
                  (  0.0000000  1.0000000  0.0000000 )
                  (  1.0000000  0.0000000  0.0000000 )


      isym = 19     inv.  90 deg rotation - cart. axis [0,1,0]   

 cryst.   s(19) = (     0          0         -1      )
                  (     1          0         -1      )
                  (     0          1         -1      )

 cart.    s(19) = (  0.0000000  0.0000000 -1.0000000 )
                  (  0.0000000 -1.0000000  0.0000000 )
                  (  1.0000000  0.0000000  0.0000000 )


      isym = 20     inv.  90 deg rotation - cart. axis [0,-1,0]  

 cryst.   s(20) = (    -1          1          0      )
                  (    -1          0          1      )
                  (    -1          0          0      )

 cart.    s(20) = (  0.0000000  0.0000000  1.0000000 )
                  (  0.0000000 -1.0000000  0.0000000 )
                  ( -1.0000000  0.0000000  0.0000000 )


      isym = 21     inv. 180 deg rotation - cart. axis [0,1,1]   

 cryst.   s(21) = (    -1          0          0      )
                  (    -1          1          0      )
                  (    -1          0          1      )

 cart.    s(21) = (  1.0000000  0.0000000  0.0000000 )
                  (  0.0000000  0.0000000 -1.0000000 )
                  (  0.0000000 -1.0000000  0.0000000 )


      isym = 22     inv. 180 deg rotation - cart. axis [0,1,-1]  

 cryst.   s(22) = (     1          0          0      )
                  (     0          0          1      )
                  (     0          1          0      )

 cart.    s(22) = (  1.0000000  0.0000000  0.0000000 )
                  (  0.0000000  0.0000000  1.0000000 )
                  (  0.0000000  1.0000000  0.0000000 )


      isym = 23     inv.  90 deg rotation - cart. axis [-1,0,0]  

 cryst.   s(23) = (     0          1         -1      )
                  (     0          0         -1      )
                  (     1          0         -1      )

 cart.    s(23) = ( -1.0000000  0.0000000  0.0000000 )
                  (  0.0000000  0.0000000 -1.0000000 )
                  (  0.0000000  1.0000000  0.0000000 )


      isym = 24     inv.  90 deg rotation - cart. axis [1,0,0]   

 cryst.   s(24) = (     0         -1          1      )
                  (     1         -1          0      )
                  (     0         -1          0      )

 cart.    s(24) = ( -1.0000000  0.0000000  0.0000000 )
                  (  0.0000000  0.0000000  1.0000000 )
                  (  0.0000000 -1.0000000  0.0000000 )


   Cartesian axes

     site n.     atom                  positions (alat units)
         1        Hg     tau(   1) = (   0.0000000   0.0000000   0.0000000  )
         2        Te     tau(   2) = (   0.3535534   0.3535534   0.3535534  )

   Crystallographic axes

     site n.     atom                  positions (cryst. coord.)
         1        Hg     tau(   1) = (  0.0000000  0.0000000  0.0000000  )
         2        Te     tau(   2) = (  0.2500000  0.2500000  0.2500000  )

     number of k points=    47
                       cart. coord. in units 2pi/alat
        k(    1) = (   0.0000000   0.0000000   0.0000000), wk =   0.0010000
        k(    2) = (   0.0707107   0.0707107  -0.0707107), wk =   0.0080000
        k(    3) = (   0.1414214   0.1414214  -0.1414214), wk =   0.0080000
        k(    4) = (   0.2121320   0.2121320  -0.2121320), wk =   0.0080000
        k(    5) = (   0.2828427   0.2828427  -0.2828427), wk =   0.0080000
        k(    6) = (  -0.3535534  -0.3535534   0.3535534), wk =   0.0040000
        k(    7) = (   0.1414214   0.0000000   0.0000000), wk =   0.0060000
        k(    8) = (   0.2121320   0.0707107  -0.0707107), wk =   0.0240000
        k(    9) = (   0.2828427   0.1414214  -0.1414214), wk =   0.0240000
        k(   10) = (   0.3535534   0.2121320  -0.2121320), wk =   0.0240000
        k(   11) = (  -0.2828427  -0.4242641   0.4242641), wk =   0.0240000
        k(   12) = (  -0.2121320  -0.3535534   0.3535534), wk =   0.0240000
        k(   13) = (  -0.1414214  -0.2828427   0.2828427), wk =   0.0240000
        k(   14) = (  -0.0707107  -0.2121320   0.2121320), wk =   0.0240000
        k(   15) = (   0.0000000  -0.1414214   0.1414214), wk =   0.0120000
        k(   16) = (   0.2828427   0.0000000   0.0000000), wk =   0.0060000
        k(   17) = (   0.3535534   0.0707107  -0.0707107), wk =   0.0240000
        k(   18) = (   0.4242641   0.1414214  -0.1414214), wk =   0.0240000
        k(   19) = (  -0.2121320  -0.4949747   0.4949747), wk =   0.0240000
        k(   20) = (  -0.1414214  -0.4242641   0.4242641), wk =   0.0240000
        k(   21) = (  -0.0707107  -0.3535534   0.3535534), wk =   0.0240000
        k(   22) = (   0.0000000  -0.2828427   0.2828427), wk =   0.0120000
        k(   23) = (   0.4242641   0.0000000   0.0000000), wk =   0.0060000
        k(   24) = (   0.4949747   0.0707107  -0.0707107), wk =   0.0240000
        k(   25) = (  -0.1414214  -0.5656854   0.5656854), wk =   0.0240000
        k(   26) = (  -0.0707107  -0.4949747   0.4949747), wk =   0.0240000
        k(   27) = (  -0.0000000  -0.4242641   0.4242641), wk =   0.0120000
        k(   28) = (   0.5656854   0.0000000   0.0000000), wk =   0.0060000
        k(   29) = (  -0.0707107  -0.6363961   0.6363961), wk =   0.0240000
        k(   30) = (   0.0000000  -0.5656854   0.5656854), wk =   0.0120000
        k(   31) = (  -0.7071068   0.0000000   0.0000000), wk =   0.0030000
        k(   32) = (   0.2828427   0.1414214   0.0000000), wk =   0.0240000
        k(   33) = (   0.3535534   0.2121320  -0.0707107), wk =   0.0480000
        k(   34) = (  -0.2828427  -0.4242641   0.5656854), wk =   0.0480000
        k(   35) = (  -0.2121320  -0.3535534   0.4949747), wk =   0.0240000
        k(   36) = (   0.4242641   0.1414214  -0.0000000), wk =   0.0240000
        k(   37) = (  -0.2121320  -0.4949747   0.6363961), wk =   0.0480000
        k(   38) = (  -0.1414214  -0.4242641   0.5656854), wk =   0.0480000
        k(   39) = (  -0.0707107  -0.3535534   0.4949747), wk =   0.0480000
        k(   40) = (   0.0000000  -0.2828427   0.4242641), wk =   0.0240000
        k(   41) = (  -0.1414214  -0.5656854   0.7071068), wk =   0.0240000
        k(   42) = (  -0.0707107  -0.4949747   0.6363961), wk =   0.0480000
        k(   43) = (  -0.0000000  -0.4242641   0.5656854), wk =   0.0240000
        k(   44) = (  -0.7071068   0.1414214   0.0000000), wk =   0.0120000
        k(   45) = (  -0.1414214  -0.4242641   0.7071068), wk =   0.0240000
        k(   46) = (  -0.0707107  -0.3535534   0.6363961), wk =   0.0240000
        k(   47) = (  -0.7071068   0.2828427   0.0000000), wk =   0.0120000

                       cryst. coord.
        k(    1) = (   0.0000000   0.0000000   0.0000000), wk =   0.0010000
        k(    2) = (   0.0000000   0.0000000   0.1000000), wk =   0.0080000
        k(    3) = (   0.0000000   0.0000000   0.2000000), wk =   0.0080000
        k(    4) = (   0.0000000   0.0000000   0.3000000), wk =   0.0080000
        k(    5) = (   0.0000000   0.0000000   0.4000000), wk =   0.0080000
        k(    6) = (   0.0000000   0.0000000  -0.5000000), wk =   0.0040000
        k(    7) = (   0.0000000   0.1000000   0.1000000), wk =   0.0060000
        k(    8) = (   0.0000000   0.1000000   0.2000000), wk =   0.0240000
        k(    9) = (   0.0000000   0.1000000   0.3000000), wk =   0.0240000
        k(   10) = (   0.0000000   0.1000000   0.4000000), wk =   0.0240000
        k(   11) = (   0.0000000   0.1000000  -0.5000000), wk =   0.0240000
        k(   12) = (   0.0000000   0.1000000  -0.4000000), wk =   0.0240000
        k(   13) = (   0.0000000   0.1000000  -0.3000000), wk =   0.0240000
        k(   14) = (   0.0000000   0.1000000  -0.2000000), wk =   0.0240000
        k(   15) = (   0.0000000   0.1000000  -0.1000000), wk =   0.0120000
        k(   16) = (   0.0000000   0.2000000   0.2000000), wk =   0.0060000
        k(   17) = (   0.0000000   0.2000000   0.3000000), wk =   0.0240000
        k(   18) = (   0.0000000   0.2000000   0.4000000), wk =   0.0240000
        k(   19) = (   0.0000000   0.2000000  -0.5000000), wk =   0.0240000
        k(   20) = (   0.0000000   0.2000000  -0.4000000), wk =   0.0240000
        k(   21) = (   0.0000000   0.2000000  -0.3000000), wk =   0.0240000
        k(   22) = (   0.0000000   0.2000000  -0.2000000), wk =   0.0120000
        k(   23) = (   0.0000000   0.3000000   0.3000000), wk =   0.0060000
        k(   24) = (   0.0000000   0.3000000   0.4000000), wk =   0.0240000
        k(   25) = (   0.0000000   0.3000000  -0.5000000), wk =   0.0240000
        k(   26) = (   0.0000000   0.3000000  -0.4000000), wk =   0.0240000
        k(   27) = (   0.0000000   0.3000000  -0.3000000), wk =   0.0120000
        k(   28) = (   0.0000000   0.4000000   0.4000000), wk =   0.0060000
        k(   29) = (   0.0000000   0.4000000  -0.5000000), wk =   0.0240000
        k(   30) = (   0.0000000   0.4000000  -0.4000000), wk =   0.0120000
        k(   31) = (   0.0000000  -0.5000000  -0.5000000), wk =   0.0030000
        k(   32) = (   0.1000000   0.2000000   0.3000000), wk =   0.0240000
        k(   33) = (   0.1000000   0.2000000   0.4000000), wk =   0.0480000
        k(   34) = (   0.1000000   0.2000000  -0.5000000), wk =   0.0480000
        k(   35) = (   0.1000000   0.2000000  -0.4000000), wk =   0.0240000
        k(   36) = (   0.1000000   0.3000000   0.4000000), wk =   0.0240000
        k(   37) = (   0.1000000   0.3000000  -0.5000000), wk =   0.0480000
        k(   38) = (   0.1000000   0.3000000  -0.4000000), wk =   0.0480000
        k(   39) = (   0.1000000   0.3000000  -0.3000000), wk =   0.0480000
        k(   40) = (   0.1000000   0.3000000  -0.2000000), wk =   0.0240000
        k(   41) = (   0.1000000   0.4000000  -0.5000000), wk =   0.0240000
        k(   42) = (   0.1000000   0.4000000  -0.4000000), wk =   0.0480000
        k(   43) = (   0.1000000   0.4000000  -0.3000000), wk =   0.0240000
        k(   44) = (   0.1000000  -0.5000000  -0.4000000), wk =   0.0120000
        k(   45) = (   0.2000000   0.4000000  -0.4000000), wk =   0.0240000
        k(   46) = (   0.2000000   0.4000000  -0.3000000), wk =   0.0240000
        k(   47) = (   0.2000000  -0.5000000  -0.3000000), wk =   0.0120000

     Dense  grid:   148117 G-vectors     FFT dimensions: (  75,  75,  75)

     Smooth grid:    80347 G-vectors     FFT dimensions: (  64,  64,  64)

     Dynamical RAM for                 wfc:       1.33 MB

     Dynamical RAM for     wfc (w. buffer):      63.87 MB

     Dynamical RAM for           str. fact:       0.75 MB

     Dynamical RAM for           local pot:       0.00 MB

     Dynamical RAM for          nlocal pot:       1.74 MB

     Dynamical RAM for                qrad:      33.83 MB

     Dynamical RAM for          rho,v,vnew:      11.22 MB

     Dynamical RAM for               rhoin:       3.74 MB

     Dynamical RAM for            rho*nmix:      24.11 MB

     Dynamical RAM for           G-vectors:       1.51 MB

     Dynamical RAM for          h,s,v(r/c):       0.12 MB

     Dynamical RAM for          <psi|beta>:       0.05 MB

     Dynamical RAM for                 psi:       2.66 MB

     Dynamical RAM for                hpsi:       2.66 MB

     Dynamical RAM for                spsi:       2.66 MB

     Dynamical RAM for      wfcinit/wfcrot:       2.01 MB

     Dynamical RAM for           addusdens:     230.18 MB

     Dynamical RAM for          addusforce:     230.38 MB

     Dynamical RAM for         addusstress:     236.58 MB

     Estimated static dynamical RAM per process >     122.25 MB

     Estimated max dynamical RAM per process >     382.94 MB

     Estimated total dynamical RAM >       2.24 GB

     Initial potential from superposition of free atoms

     starting charge      25.9997, renormalised to      26.0000
     Starting wfcs are   28 randomized atomic wfcs

     total cpu time spent up to now is       27.8 secs

     per-process dynamical memory:   144.2 Mb

     Self-consistent Calculation

     iteration #  1     ecut=   120.00 Ry     beta= 0.30
     Davidson diagonalization with overlap

---- Real-time Memory Report at c_bands before calling an iterative solver
           337 MiB given to the printing process from OS
           141 MiB allocation reported by mallinfo(arena+hblkhd)
         12085 MiB available memory on the node where the printing process lives
------------------
     ethr =  1.00E-02,  avg # of iterations =  2.0

     Threshold (ethr) on eigenvalues was too large:
     Diagonalizing with lowered threshold

     Davidson diagonalization with overlap

---- Real-time Memory Report at c_bands before calling an iterative solver
           409 MiB given to the printing process from OS
           147 MiB allocation reported by mallinfo(arena+hblkhd)
         10884 MiB available memory on the node where the printing process lives
------------------
     ethr =  1.68E-04,  avg # of iterations =  4.4

     total cpu time spent up to now is      176.3 secs

     total energy              =    -346.73204057 Ry
     estimated scf accuracy    <       0.04341658 Ry

     iteration #  2     ecut=   120.00 Ry     beta= 0.30
     Davidson diagonalization with overlap

---- Real-time Memory Report at c_bands before calling an iterative solver
           420 MiB given to the printing process from OS
           158 MiB allocation reported by mallinfo(arena+hblkhd)
         10790 MiB available memory on the node where the printing process lives
------------------
     ethr =  1.67E-04,  avg # of iterations =  2.1

     total cpu time spent up to now is      248.7 secs

     total energy              =    -346.73611902 Ry
     estimated scf accuracy    <       0.00571119 Ry

     iteration #  3     ecut=   120.00 Ry     beta= 0.30
     Davidson diagonalization with overlap

---- Real-time Memory Report at c_bands before calling an iterative solver
           421 MiB given to the printing process from OS
           159 MiB allocation reported by mallinfo(arena+hblkhd)
         10808 MiB available memory on the node where the printing process lives
------------------
     ethr =  2.20E-05,  avg # of iterations =  3.4

     total cpu time spent up to now is      330.5 secs

     total energy              =    -346.73716609 Ry
     estimated scf accuracy    <       0.00139244 Ry

     iteration #  4     ecut=   120.00 Ry     beta= 0.30
     Davidson diagonalization with overlap

---- Real-time Memory Report at c_bands before calling an iterative solver
           423 MiB given to the printing process from OS
           161 MiB allocation reported by mallinfo(arena+hblkhd)
         10799 MiB available memory on the node where the printing process lives
------------------
     ethr =  5.36E-06,  avg # of iterations =  2.0

     total cpu time spent up to now is      403.0 secs

     total energy              =    -346.73726216 Ry
     estimated scf accuracy    <       0.00016130 Ry

     iteration #  5     ecut=   120.00 Ry     beta= 0.30
     Davidson diagonalization with overlap

---- Real-time Memory Report at c_bands before calling an iterative solver
           425 MiB given to the printing process from OS
           162 MiB allocation reported by mallinfo(arena+hblkhd)
         10778 MiB available memory on the node where the printing process lives
------------------
     ethr =  6.20E-07,  avg # of iterations =  2.6

     total cpu time spent up to now is      475.4 secs

     total energy              =    -346.73729412 Ry
     estimated scf accuracy    <       0.00000616 Ry

     iteration #  6     ecut=   120.00 Ry     beta= 0.30
     Davidson diagonalization with overlap

---- Real-time Memory Report at c_bands before calling an iterative solver
           426 MiB given to the printing process from OS
           164 MiB allocation reported by mallinfo(arena+hblkhd)
         10717 MiB available memory on the node where the printing process lives
------------------
     ethr =  2.37E-08,  avg # of iterations =  5.0

     total cpu time spent up to now is      558.2 secs

     total energy              =    -346.73729729 Ry
     estimated scf accuracy    <       0.00000136 Ry

     iteration #  7     ecut=   120.00 Ry     beta= 0.30
     Davidson diagonalization with overlap

---- Real-time Memory Report at c_bands before calling an iterative solver
           428 MiB given to the printing process from OS
           166 MiB allocation reported by mallinfo(arena+hblkhd)
         10660 MiB available memory on the node where the printing process lives
------------------
     ethr =  5.24E-09,  avg # of iterations =  4.1

     total cpu time spent up to now is      636.4 secs

     total energy              =    -346.73729733 Ry
     estimated scf accuracy    <       0.00000132 Ry

     iteration #  8     ecut=   120.00 Ry     beta= 0.30
     Davidson diagonalization with overlap

---- Real-time Memory Report at c_bands before calling an iterative solver
           430 MiB given to the printing process from OS
           167 MiB allocation reported by mallinfo(arena+hblkhd)
         10722 MiB available memory on the node where the printing process lives
------------------
     ethr =  5.07E-09,  avg # of iterations =  2.1

     total cpu time spent up to now is      712.9 secs

     total energy              =    -346.73729766 Ry
     estimated scf accuracy    <       0.00000002 Ry

     iteration #  9     ecut=   120.00 Ry     beta= 0.30
     Davidson diagonalization with overlap

---- Real-time Memory Report at c_bands before calling an iterative solver
           431 MiB given to the printing process from OS
           169 MiB allocation reported by mallinfo(arena+hblkhd)
         10663 MiB available memory on the node where the printing process lives
------------------
     ethr =  6.83E-11,  avg # of iterations =  5.7

     total cpu time spent up to now is      825.3 secs

     total energy              =    -346.73729766 Ry
     estimated scf accuracy    <       0.00000010 Ry

     iteration # 10     ecut=   120.00 Ry     beta= 0.30
     Davidson diagonalization with overlap

---- Real-time Memory Report at c_bands before calling an iterative solver
           433 MiB given to the printing process from OS
           171 MiB allocation reported by mallinfo(arena+hblkhd)
         10580 MiB available memory on the node where the printing process lives
------------------
     ethr =  6.83E-11,  avg # of iterations =  4.0

     total cpu time spent up to now is      908.5 secs

     total energy              =    -346.73729768 Ry
     estimated scf accuracy    <          3.0E-09 Ry

     iteration # 11     ecut=   120.00 Ry     beta= 0.30
     Davidson diagonalization with overlap

---- Real-time Memory Report at c_bands before calling an iterative solver
           433 MiB given to the printing process from OS
           171 MiB allocation reported by mallinfo(arena+hblkhd)
         10621 MiB available memory on the node where the printing process lives
------------------
     ethr =  1.14E-11,  avg # of iterations =  1.8

     total cpu time spent up to now is      969.6 secs

     total energy              =    -346.73729768 Ry
     estimated scf accuracy    <          1.3E-09 Ry

     iteration # 12     ecut=   120.00 Ry     beta= 0.30
     Davidson diagonalization with overlap

---- Real-time Memory Report at c_bands before calling an iterative solver
           433 MiB given to the printing process from OS
           171 MiB allocation reported by mallinfo(arena+hblkhd)
         10602 MiB available memory on the node where the printing process lives
------------------
     ethr =  4.93E-12,  avg # of iterations =  3.7

     total cpu time spent up to now is     1044.4 secs

     End of self-consistent calculation

          k = 0.0000 0.0000 0.0000 ( 10081 PWs)   bands (ev):

  -107.3171-107.3171 -69.3064 -69.3064 -51.0358 -51.0358 -51.0358 -51.0358
    -4.5574  -4.5574  -0.7175  -0.7175  -0.7175  -0.7175   0.6428   0.6428
     1.1444   1.1444   1.1444   1.1444   6.7662   6.7662   6.9438   6.9438
     7.7211   7.7211

     occupation numbers 
     1.0000   1.0000   1.0000   1.0000   1.0000   1.0000   1.0000   1.0000
     1.0000   1.0000   1.0000   1.0000   1.0000   1.0000   1.0000   1.0000
     1.0000   1.0000   1.0000   1.0000   1.0000   1.0000   1.0000   1.0000
     1.0000   1.0000

          k = 0.0707 0.0707-0.0707 (  9991 PWs)   bands (ev):

  -107.3171-107.3171 -69.3065 -69.3065 -51.0358 -51.0358 -51.0358 -51.0358
    -4.5073  -4.5073  -0.7294  -0.6988  -0.6980  -0.6980   0.6580   0.6580
     1.1277   1.1359   1.1359   1.1849   5.9044   5.9044   7.0274   7.0274
     7.5718   7.6350

     occupation numbers 
     1.0000   1.0000   1.0000   1.0000   1.0000   1.0000   1.0000   1.0000
     1.0000   1.0000   1.0000   1.0000   1.0000   1.0000   1.0000   1.0000
     1.0000   1.0000   1.0000   1.0000   1.0000   1.0000   1.0000   1.0000
     1.0000   1.0000

          k = 0.1414 0.1414-0.1414 ( 10033 PWs)   bands (ev):

  -107.3171-107.3171 -69.3065 -69.3065 -51.0359 -51.0359 -51.0358 -51.0358
    -4.3723  -4.3723  -0.7308  -0.6812  -0.6351  -0.6351   0.7051   0.7051
     1.1194   1.1194   1.1423   1.2366   4.7141   4.7141   6.7717   6.7717
     7.2764   7.3732

     occupation numbers 
     1.0000   1.0000   1.0000   1.0000   1.0000   1.0000   1.0000   1.0000
     1.0000   1.0000   1.0000   1.0000   1.0000   1.0000   1.0000   1.0000
     1.0000   1.0000   1.0000   1.0000   1.0000   1.0000   1.0000   1.0000
     1.0000   1.0000

          k = 0.2121 0.2121-0.2121 ( 10056 PWs)   bands (ev):

  -107.3171-107.3171 -69.3065 -69.3065 -51.0360 -51.0360 -51.0358 -51.0358
    -4.1969  -4.1969  -0.7222  -0.6726  -0.5227  -0.5227   0.7796   0.7796
     1.1310   1.1310   1.1863   1.2827   3.5377   3.5377   6.4710   6.4710
     6.9747   7.0680

     occupation numbers 
     1.0000   1.0000   1.0000   1.0000   1.0000   1.0000   1.0000   1.0000
     1.0000   1.0000   1.0000   1.0000   1.0000   1.0000   1.0000   1.0000
     1.0000   1.0000   1.0000   1.0000   1.0000   1.0000   1.0000   1.0000
     1.0000   1.0000

          k = 0.2828 0.2828-0.2828 ( 10047 PWs)   bands (ev):

  -107.3171-107.3171 -69.3065 -69.3065 -51.0361 -51.0361 -51.0358 -51.0358
    -4.0478  -4.0478  -0.7069  -0.6762  -0.3858  -0.3858   0.8394   0.8394
     1.2441   1.2701   1.2701   1.3049   2.5325   2.5325   6.2489   6.2489
     6.7697   6.8265

     occupation numbers 
     1.0000   1.0000   1.0000   1.0000   1.0000   1.0000   1.0000   1.0000
     1.0000   1.0000   1.0000   1.0000   1.0000   1.0000   1.0000   1.0000
     1.0000   1.0000   1.0000   1.0000   1.0000   1.0000   1.0000   1.0000
     1.0000   1.0000

          k =-0.3536-0.3536 0.3536 ( 10002 PWs)   bands (ev):

  -107.3171-107.3171 -69.3065 -69.3065 -51.0361 -51.0361 -51.0358 -51.0358
    -3.9892  -3.9892  -0.6896  -0.6896  -0.3169  -0.3169   0.8537   0.8537
     1.2907   1.2907   1.5291   1.5291   1.9526   1.9526   6.1679   6.1679
     6.7167   6.7167

     occupation numbers 
     1.0000   1.0000   1.0000   1.0000   1.0000   1.0000   1.0000   1.0000
     1.0000   1.0000   1.0000   1.0000   1.0000   1.0000   1.0000   1.0000
     1.0000   1.0000   1.0000   1.0000   1.0000   1.0000   1.0000   1.0000
     1.0000   1.0000

          k = 0.1414 0.0000 0.0000 ( 10005 PWs)   bands (ev):

  -107.3171-107.3171 -69.3065 -69.3065 -51.0358 -51.0358 -51.0358 -51.0358
    -4.4906  -4.4906  -0.7167  -0.7167  -0.6880  -0.6880   0.6624   0.6624
     1.1214   1.1214   1.1725   1.1725   5.8216   5.8216   6.8955   6.8955
     7.3361   7.3361

     occupation numbers 
     1.0000   1.0000   1.0000   1.0000   1.0000   1.0000   1.0000   1.0000
     1.0000   1.0000   1.0000   1.0000   1.0000   1.0000   1.0000   1.0000
     1.0000   1.0000   1.0000   1.0000   1.0000   1.0000   1.0000   1.0000
     1.0000   1.0000

          k = 0.2121 0.0707-0.0707 ( 10030 PWs)   bands (ev):

  -107.3171-107.3171 -69.3065 -69.3065 -51.0359 -51.0359 -51.0358 -51.0358
    -4.3837  -4.3836  -0.7219  -0.6765  -0.6683  -0.6334   0.6955   0.6995
     1.1022   1.1294   1.1579   1.2250   4.9569   4.9600   6.6090   6.6289
     6.9798   7.0646

     occupation numbers 
     1.0000   1.0000   1.0000   1.0000   1.0000   1.0000   1.0000   1.0000
     1.0000   1.0000   1.0000   1.0000   1.0000   1.0000   1.0000   1.0000
     1.0000   1.0000   1.0000   1.0000   1.0000   1.0000   1.0000   1.0000
     1.0000   1.0000

          k = 0.2828 0.1414-0.1414 ( 10040 PWs)   bands (ev):

  -107.3171-107.3171 -69.3065 -69.3065 -51.0360 -51.0359 -51.0358 -51.0358
    -4.2210  -4.2205  -0.7158  -0.6596  -0.5901  -0.5254   0.7597   0.7684
     1.0909   1.1563   1.1705   1.2791   3.8608   3.8766   6.2750   6.2988
     6.6538   6.7555

     occupation numbers 
     1.0000   1.0000   1.0000   1.0000   1.0000   1.0000   1.0000   1.0000
     1.0000   1.0000   1.0000   1.0000   1.0000   1.0000   1.0000   1.0000
     1.0000   1.0000   1.0000   1.0000   1.0000   1.0000   1.0000   1.0000
     1.0000   1.0000

          k = 0.3536 0.2121-0.2121 ( 10057 PWs)   bands (ev):

  -107.3171-107.3171 -69.3065 -69.3065 -51.0361 -51.0360 -51.0358 -51.0358
    -4.0622  -4.0607  -0.7018  -0.6590  -0.4748  -0.3755   0.8305   0.8432
     1.1555   1.2122   1.2582   1.3218   2.8222   2.8677   5.9947   6.0127
     6.4299   6.4962

     occupation numbers 
     1.0000   1.0000   1.0000   1.0000   1.0000   1.0000   1.0000   1.0000
     1.0000   1.0000   1.0000   1.0000   1.0000   1.0000   1.0000   1.0000
     1.0000   1.0000   1.0000   1.0000   1.0000   1.0000   1.0000   1.0000
     1.0000   1.0000

          k =-0.2828-0.4243 0.4243 ( 10068 PWs)   bands (ev):

  -107.3171-107.3171 -69.3065 -69.3065 -51.0361 -51.0361 -51.0359 -51.0359
    -3.9728  -3.9705  -0.6843  -0.6699  -0.3876  -0.2617   0.8551   0.8779
     1.2700   1.2790   1.4582   1.4948   2.0495   2.1398   5.8148   5.8274
     6.3851   6.3922

     occupation numbers 
     1.0000   1.0000   1.0000   1.0000   1.0000   1.0000   1.0000   1.0000
     1.0000   1.0000   1.0000   1.0000   1.0000   1.0000   1.0000   1.0000
     1.0000   1.0000   1.0000   1.0000   1.0000   1.0000   1.0000   1.0000
     1.0000   1.0000

          k =-0.2121-0.3536 0.3536 ( 10065 PWs)   bands (ev):

  -107.3171-107.3171 -69.3065 -69.3065 -51.0361 -51.0361 -51.0359 -51.0359
    -3.9923  -3.9901  -0.6871  -0.6691  -0.4078  -0.2871   0.8485   0.8779
     1.2518   1.2789   1.3535   1.4102   2.2524   2.3411   5.7713   5.7892
     6.4792   6.5253

     occupation numbers 
     1.0000   1.0000   1.0000   1.0000   1.0000   1.0000   1.0000   1.0000
     1.0000   1.0000   1.0000   1.0000   1.0000   1.0000   1.0000   1.0000
     1.0000   1.0000   1.0000   1.0000   1.0000   1.0000   1.0000   1.0000
     1.0000   1.0000

          k =-0.1414-0.2828 0.2828 ( 10056 PWs)   bands (ev):

  -107.3171-107.3171 -69.3065 -69.3065 -51.0360 -51.0360 -51.0358 -51.0358
    -4.1120  -4.1107  -0.7050  -0.6623  -0.5139  -0.4250   0.8055   0.8330
     1.1364   1.1661   1.2117   1.3123   3.1406   3.1958   5.8984   5.9243
     6.7234   6.8031

     occupation numbers 
     1.0000   1.0000   1.0000   1.0000   1.0000   1.0000   1.0000   1.0000
     1.0000   1.0000   1.0000   1.0000   1.0000   1.0000   1.0000   1.0000
     1.0000   1.0000   1.0000   1.0000   1.0000   1.0000   1.0000   1.0000
     1.0000   1.0000

          k =-0.0707-0.2121 0.2121 ( 10042 PWs)   bands (ev):

  -107.3171-107.3171 -69.3065 -69.3065 -51.0359 -51.0359 -51.0358 -51.0358
    -4.2797  -4.2793  -0.7190  -0.6678  -0.6191  -0.5649   0.7334   0.7499
     1.1014   1.1301   1.1576   1.2664   4.2090   4.2343   6.2112   6.2363
     7.0431   7.1335

     occupation numbers 
     1.0000   1.0000   1.0000   1.0000   1.0000   1.0000   1.0000   1.0000
     1.0000   1.0000   1.0000   1.0000   1.0000   1.0000   1.0000   1.0000
     1.0000   1.0000   1.0000   1.0000   1.0000   1.0000   1.0000   1.0000
     1.0000   1.0000

          k = 0.0000-0.1414 0.1414 ( 10043 PWs)   bands (ev):

  -107.3171-107.3171 -69.3065 -69.3065 -51.0358 -51.0358 -51.0358 -51.0358
    -4.4289  -4.4288  -0.7270  -0.6838  -0.6810  -0.6549   0.6807   0.6864
     1.1152   1.1303   1.1389   1.2161   5.2334   5.2346   6.6851   6.7000
     7.3339   7.4116

     occupation numbers 
     1.0000   1.0000   1.0000   1.0000   1.0000   1.0000   1.0000   1.0000
     1.0000   1.0000   1.0000   1.0000   1.0000   1.0000   1.0000   1.0000
     1.0000   1.0000   1.0000   1.0000   1.0000   1.0000   1.0000   1.0000
     1.0000   1.0000

          k = 0.2828 0.0000 0.0000 ( 10057 PWs)   bands (ev):

  -107.3171-107.3171 -69.3065 -69.3065 -51.0359 -51.0359 -51.0358 -51.0358
    -4.3096  -4.3096  -0.6921  -0.6921  -0.6197  -0.6197   0.7165   0.7165
     1.1078   1.1078   1.2157   1.2157   4.6793   4.6793   6.3160   6.3160
     6.5805   6.5805

     occupation numbers 
     1.0000   1.0000   1.0000   1.0000   1.0000   1.0000   1.0000   1.0000
     1.0000   1.0000   1.0000   1.0000   1.0000   1.0000   1.0000   1.0000
     1.0000   1.0000   1.0000   1.0000   1.0000   1.0000   1.0000   1.0000
     1.0000   1.0000

          k = 0.3536 0.0707-0.0707 ( 10061 PWs)   bands (ev):

  -107.3171-107.3171 -69.3065 -69.3065 -51.0360 -51.0359 -51.0358 -51.0358
    -4.1747  -4.1740  -0.6926  -0.6418  -0.5974  -0.5177   0.7640   0.7669
     1.0832   1.1516   1.2138   1.2815   3.9366   3.9488   5.9336   5.9680
     6.1800   6.2721

     occupation numbers 
     1.0000   1.0000   1.0000   1.0000   1.0000   1.0000   1.0000   1.0000
     1.0000   1.0000   1.0000   1.0000   1.0000   1.0000   1.0000   1.0000
     1.0000   1.0000   1.0000   1.0000   1.0000   1.0000   1.0000   1.0000
     1.0000   1.0000

          k = 0.4243 0.1414-0.1414 ( 10068 PWs)   bands (ev):

  -107.3171-107.3171 -69.3065 -69.3065 -51.0361 -51.0360 -51.0359 -51.0359
    -4.0274  -4.0251  -0.6820  -0.6140  -0.5335  -0.3668   0.8359   0.8426
     1.0889   1.2152   1.2735   1.3424   3.0494   3.1075   5.5325   5.5374
     5.9693   6.0224

     occupation numbers 
     1.0000   1.0000   1.0000   1.0000   1.0000   1.0000   1.0000   1.0000
     1.0000   1.0000   1.0000   1.0000   1.0000   1.0000   1.0000   1.0000
     1.0000   1.0000   1.0000   1.0000   1.0000   1.0000   1.0000   1.0000
     1.0000   1.0000

          k =-0.2121-0.4950 0.4950 ( 10061 PWs)   bands (ev):

  -107.3171-107.3171 -69.3065 -69.3065 -51.0361 -51.0360 -51.0359 -51.0359
    -3.9264  -3.9222  -0.6661  -0.6183  -0.4565  -0.2251   0.8911   0.8927
     1.2010   1.2598   1.4221   1.4682   2.2685   2.4039   5.1797   5.1828
     5.9611   5.9650

     occupation numbers 
     1.0000   1.0000   1.0000   1.0000   1.0000   1.0000   1.0000   1.0000
     1.0000   1.0000   1.0000   1.0000   1.0000   1.0000   1.0000   1.0000
     1.0000   1.0000   1.0000   1.0000   1.0000   1.0000   1.0000   1.0000
     1.0000   1.0000

          k =-0.1414-0.4243 0.4243 ( 10066 PWs)   bands (ev):

  -107.3171-107.3171 -69.3065 -69.3065 -51.0361 -51.0360 -51.0359 -51.0359
    -3.9144  -3.9096  -0.6515  -0.6358  -0.4432  -0.1969   0.8900   0.9175
     1.2607   1.2796   1.4445   1.5150   2.0769   2.2944   4.9776   5.0059
     6.1031   6.1513

     occupation numbers 
     1.0000   1.0000   1.0000   1.0000   1.0000   1.0000   1.0000   1.0000
     1.0000   1.0000   1.0000   1.0000   1.0000   1.0000   1.0000   1.0000
     1.0000   1.0000   1.0000   1.0000   1.0000   1.0000   1.0000   1.0000
     1.0000   1.0000

          k =-0.0707-0.3536 0.3536 ( 10066 PWs)   bands (ev):

  -107.3171-107.3171 -69.3065 -69.3065 -51.0361 -51.0360 -51.0359 -51.0359
    -3.9961  -3.9926  -0.6606  -0.6448  -0.5032  -0.3023   0.8567   0.9063
     1.1807   1.2010   1.2524   1.3683   2.7277   2.8914   5.0265   5.0788
     6.3979   6.4758

     occupation numbers 
     1.0000   1.0000   1.0000   1.0000   1.0000   1.0000   1.0000   1.0000
     1.0000   1.0000   1.0000   1.0000   1.0000   1.0000   1.0000   1.0000
     1.0000   1.0000   1.0000   1.0000   1.0000   1.0000   1.0000   1.0000
     1.0000   1.0000

          k = 0.0000-0.2828 0.2828 ( 10071 PWs)   bands (ev):

  -107.3171-107.3171 -69.3065 -69.3065 -51.0360 -51.0360 -51.0359 -51.0358
    -4.1368  -4.1351  -0.6908  -0.6510  -0.5762  -0.4500   0.7895   0.8307
     1.1046   1.1353   1.1944   1.3146   3.5258   3.6172   5.4379   5.4864
     6.7512   6.8425

     occupation numbers 
     1.0000   1.0000   1.0000   1.0000   1.0000   1.0000   1.0000   1.0000
     1.0000   1.0000   1.0000   1.0000   1.0000   1.0000   1.0000   1.0000
     1.0000   1.0000   1.0000   1.0000   1.0000   1.0000   1.0000   1.0000
     1.0000   1.0000

          k = 0.4243 0.0000 0.0000 ( 10077 PWs)   bands (ev):

  -107.3171-107.3171 -69.3065 -69.3065 -51.0360 -51.0360 -51.0359 -51.0359
    -4.0731  -4.0731  -0.6558  -0.6558  -0.5007  -0.5007   0.7856   0.7856
     1.1282   1.1282   1.2908   1.2908   3.5862   3.5862   5.6862   5.6862
     5.8678   5.8678

     occupation numbers 
     1.0000   1.0000   1.0000   1.0000   1.0000   1.0000   1.0000   1.0000
     1.0000   1.0000   1.0000   1.0000   1.0000   1.0000   1.0000   1.0000
     1.0000   1.0000   1.0000   1.0000   1.0000   1.0000   1.0000   1.0000
     1.0000   1.0000

          k = 0.4950 0.0707-0.0707 ( 10075 PWs)   bands (ev):

  -107.3171-107.3171 -69.3065 -69.3065 -51.0361 -51.0360 -51.0359 -51.0359
    -3.9548  -3.9528  -0.6560  -0.6078  -0.4835  -0.3534   0.8234   0.8451
     1.1063   1.2171   1.3364   1.3723   2.9789   3.0198   5.3148   5.3453
     5.5707   5.6366

     occupation numbers 
     1.0000   1.0000   1.0000   1.0000   1.0000   1.0000   1.0000   1.0000
     1.0000   1.0000   1.0000   1.0000   1.0000   1.0000   1.0000   1.0000
     1.0000   1.0000   1.0000   1.0000   1.0000   1.0000   1.0000   1.0000
     1.0000   1.0000

          k =-0.1414-0.5657 0.5657 ( 10067 PWs)   bands (ev):

  -107.3171-107.3171 -69.3065 -69.3065 -51.0361 -51.0360 -51.0359 -51.0359
    -3.8658  -3.8610  -0.6471  -0.5651  -0.4767  -0.2029   0.8703   0.9385
     1.1263   1.2806   1.4588   1.4982   2.3550   2.4802   4.8621   4.8658
     5.5522   5.5577

     occupation numbers 
     1.0000   1.0000   1.0000   1.0000   1.0000   1.0000   1.0000   1.0000
     1.0000   1.0000   1.0000   1.0000   1.0000   1.0000   1.0000   1.0000
     1.0000   1.0000   1.0000   1.0000   1.0000   1.0000   1.0000   1.0000
     1.0000   1.0000

          k =-0.0707-0.4950 0.4950 ( 10068 PWs)   bands (ev):

  -107.3171-107.3171 -69.3065 -69.3065 -51.0362 -51.0360 -51.0360 -51.0359
    -3.8422  -3.8356  -0.6372  -0.5586  -0.4827  -0.1349   0.9136   0.9544
     1.2377   1.3071   1.5356   1.6146   1.9730   2.2589   4.5153   4.5520
     5.7029   5.7408

     occupation numbers 
     1.0000   1.0000   1.0000   1.0000   1.0000   1.0000   1.0000   1.0000
     1.0000   1.0000   1.0000   1.0000   1.0000   1.0000   1.0000   1.0000
     1.0000   1.0000   1.0000   1.0000   1.0000   1.0000   1.0000   1.0000
     1.0000   1.0000

          k =-0.0000-0.4243 0.4243 ( 10073 PWs)   bands (ev):

  -107.3171-107.3171 -69.3065 -69.3065 -51.0362 -51.0360 -51.0360 -51.0359
    -3.8926  -3.8868  -0.6349  -0.6007  -0.4926  -0.1842   0.9166   0.9371
     1.2716   1.2814   1.3339   1.4575   2.2708   2.5547   4.5139   4.5838
     6.0160   6.0813

     occupation numbers 
     1.0000   1.0000   1.0000   1.0000   1.0000   1.0000   1.0000   1.0000
     1.0000   1.0000   1.0000   1.0000   1.0000   1.0000   1.0000   1.0000
     1.0000   1.0000   1.0000   1.0000   1.0000   1.0000   1.0000   1.0000
     1.0000   1.0000

          k = 0.5657 0.0000 0.0000 ( 10082 PWs)   bands (ev):

  -107.3171-107.3171 -69.3065 -69.3065 -51.0361 -51.0361 -51.0359 -51.0359
    -3.8713  -3.8713  -0.6253  -0.6253  -0.3478  -0.3478   0.8373   0.8373
     1.1962   1.1962   1.4376   1.4376   2.6415   2.6415   5.2145   5.2145
     5.3815   5.3815

     occupation numbers 
     1.0000   1.0000   1.0000   1.0000   1.0000   1.0000   1.0000   1.0000
     1.0000   1.0000   1.0000   1.0000   1.0000   1.0000   1.0000   1.0000
     1.0000   1.0000   1.0000   1.0000   1.0000   1.0000   1.0000   1.0000
     1.0000   1.0000

          k =-0.0707-0.6364 0.6364 ( 10066 PWs)   bands (ev):

  -107.3171-107.3171 -69.3065 -69.3065 -51.0361 -51.0361 -51.0359 -51.0359
    -3.8138  -3.8104  -0.6314  -0.5874  -0.3772  -0.2074   0.8458   0.9082
     1.1607   1.2820   1.5512   1.5900   2.2210   2.2811   4.9448   4.9729
     5.2463   5.2902

     occupation numbers 
     1.0000   1.0000   1.0000   1.0000   1.0000   1.0000   1.0000   1.0000
     1.0000   1.0000   1.0000   1.0000   1.0000   1.0000   1.0000   1.0000
     1.0000   1.0000   1.0000   1.0000   1.0000   1.0000   1.0000   1.0000
     1.0000   1.0000

          k = 0.0000-0.5657 0.5657 ( 10057 PWs)   bands (ev):

  -107.3171-107.3171 -69.3065 -69.3065 -51.0362 -51.0361 -51.0360 -51.0359
    -3.8032  -3.7970  -0.6322  -0.5455  -0.4485  -0.1293   0.8773   0.9891
     1.1593   1.3160   1.6273   1.7197   1.9468   2.1267   4.5909   4.6052
     5.3972   5.4066

     occupation numbers 
     1.0000   1.0000   1.0000   1.0000   1.0000   1.0000   1.0000   1.0000
     1.0000   1.0000   1.0000   1.0000   1.0000   1.0000   1.0000   1.0000
     1.0000   1.0000   1.0000   1.0000   1.0000   1.0000   1.0000   1.0000
     1.0000   1.0000

          k =-0.7071 0.0000 0.0000 ( 10086 PWs)   bands (ev):

  -107.3171-107.3171 -69.3065 -69.3065 -51.0361 -51.0361 -51.0359 -51.0359
    -3.7919  -3.7919  -0.6137  -0.6137  -0.2668  -0.2668   0.8557   0.8557
     1.2379   1.2379   1.6481   1.6481   2.1101   2.1101   5.0378   5.0378
     5.2098   5.2098

     occupation numbers 
     1.0000   1.0000   1.0000   1.0000   1.0000   1.0000   1.0000   1.0000
     1.0000   1.0000   1.0000   1.0000   1.0000   1.0000   1.0000   1.0000
     1.0000   1.0000   1.0000   1.0000   1.0000   1.0000   1.0000   1.0000
     1.0000   1.0000

          k = 0.2828 0.1414 0.0000 ( 10051 PWs)   bands (ev):

  -107.3171-107.3171 -69.3065 -69.3065 -51.0359 -51.0359 -51.0358 -51.0358
    -4.2624  -4.2619  -0.7086  -0.6536  -0.6350  -0.5604   0.7350   0.7491
     1.0862   1.1482   1.1649   1.2659   4.2731   4.3001   6.0454   6.0957
     6.7122   6.8146

     occupation numbers 
     1.0000   1.0000   1.0000   1.0000   1.0000   1.0000   1.0000   1.0000
     1.0000   1.0000   1.0000   1.0000   1.0000   1.0000   1.0000   1.0000
     1.0000   1.0000   1.0000   1.0000   1.0000   1.0000   1.0000   1.0000
     1.0000   1.0000

          k = 0.3536 0.2121-0.0707 ( 10065 PWs)   bands (ev):

  -107.3171-107.3171 -69.3065 -69.3065 -51.0360 -51.0360 -51.0359 -51.0358
    -4.1067  -4.1050  -0.6915  -0.6393  -0.5622  -0.4304   0.8023   0.8289
     1.0881   1.1816   1.2048   1.3190   3.3775   3.4506   5.5515   5.6099
     6.4284   6.5269

     occupation numbers 
     1.0000   1.0000   1.0000   1.0000   1.0000   1.0000   1.0000   1.0000
     1.0000   1.0000   1.0000   1.0000   1.0000   1.0000   1.0000   1.0000
     1.0000   1.0000   1.0000   1.0000   1.0000   1.0000   1.0000   1.0000
     1.0000   1.0000

          k =-0.2828-0.4243 0.5657 ( 10076 PWs)   bands (ev):

  -107.3171-107.3171 -69.3065 -69.3065 -51.0361 -51.0360 -51.0359 -51.0359
    -3.9761  -3.9727  -0.6723  -0.6403  -0.4695  -0.2789   0.8637   0.8922
     1.1842   1.2376   1.3295   1.3872   2.5040   2.6303   5.3012   5.3452
     6.1767   6.2479

     occupation numbers 
     1.0000   1.0000   1.0000   1.0000   1.0000   1.0000   1.0000   1.0000
     1.0000   1.0000   1.0000   1.0000   1.0000   1.0000   1.0000   1.0000
     1.0000   1.0000   1.0000   1.0000   1.0000   1.0000   1.0000   1.0000
     1.0000   1.0000

          k =-0.2121-0.3536 0.4950 ( 10064 PWs)   bands (ev):

  -107.3171-107.3171 -69.3065 -69.3065 -51.0361 -51.0360 -51.0359 -51.0359
    -3.9252  -3.9210  -0.6567  -0.6499  -0.4237  -0.2057   0.8796   0.9076
     1.2565   1.2811   1.4960   1.5476   1.9976   2.1813   5.2366   5.2593
     6.0820   6.1274

     occupation numbers 
     1.0000   1.0000   1.0000   1.0000   1.0000   1.0000   1.0000   1.0000
     1.0000   1.0000   1.0000   1.0000   1.0000   1.0000   1.0000   1.0000
     1.0000   1.0000   1.0000   1.0000   1.0000   1.0000   1.0000   1.0000
     1.0000   1.0000

          k = 0.4243 0.1414-0.0000 ( 10079 PWs)   bands (ev):

  -107.3171-107.3171 -69.3065 -69.3065 -51.0360 -51.0360 -51.0359 -51.0359
    -4.0472  -4.0454  -0.6732  -0.6143  -0.5544  -0.4105   0.8126   0.8231
     1.0793   1.1990   1.2515   1.3336   3.3273   3.3885   5.4087   5.5093
     5.9009   6.0234

     occupation numbers 
     1.0000   1.0000   1.0000   1.0000   1.0000   1.0000   1.0000   1.0000
     1.0000   1.0000   1.0000   1.0000   1.0000   1.0000   1.0000   1.0000
     1.0000   1.0000   1.0000   1.0000   1.0000   1.0000   1.0000   1.0000
     1.0000   1.0000

          k =-0.2121-0.4950 0.6364 ( 10082 PWs)   bands (ev):

  -107.3171-107.3171 -69.3065 -69.3065 -51.0361 -51.0360 -51.0359 -51.0359
    -3.9283  -3.9241  -0.6532  -0.5901  -0.5084  -0.2619   0.8742   0.9051
     1.1053   1.2523   1.3666   1.4018   2.6339   2.7665   4.9810   5.0767
     5.6835   5.7759

     occupation numbers 
     1.0000   1.0000   1.0000   1.0000   1.0000   1.0000   1.0000   1.0000
     1.0000   1.0000   1.0000   1.0000   1.0000   1.0000   1.0000   1.0000
     1.0000   1.0000   1.0000   1.0000   1.0000   1.0000   1.0000   1.0000
     1.0000   1.0000

          k =-0.1414-0.4243 0.5657 ( 10061 PWs)   bands (ev):

  -107.3171-107.3171 -69.3065 -69.3065 -51.0362 -51.0360 -51.0359 -51.0359
    -3.8658  -3.8596  -0.6356  -0.5913  -0.4720  -0.1580   0.9102   0.9458
     1.2131   1.2902   1.4916   1.5705   2.0727   2.3024   4.7229   4.7861
     5.6482   5.7007

     occupation numbers 
     1.0000   1.0000   1.0000   1.0000   1.0000   1.0000   1.0000   1.0000
     1.0000   1.0000   1.0000   1.0000   1.0000   1.0000   1.0000   1.0000
     1.0000   1.0000   1.0000   1.0000   1.0000   1.0000   1.0000   1.0000
     1.0000   1.0000

          k =-0.0707-0.3536 0.4950 ( 10072 PWs)   bands (ev):

  -107.3171-107.3171 -69.3065 -69.3065 -51.0362 -51.0360 -51.0359 -51.0359
    -3.8852  -3.8792  -0.6276  -0.6099  -0.4817  -0.1768   0.9121   0.9432
     1.2239   1.2806   1.4143   1.4898   2.2026   2.4565   4.6451   4.7220
     5.8154   5.8861

     occupation numbers 
     1.0000   1.0000   1.0000   1.0000   1.0000   1.0000   1.0000   1.0000
     1.0000   1.0000   1.0000   1.0000   1.0000   1.0000   1.0000   1.0000
     1.0000   1.0000   1.0000   1.0000   1.0000   1.0000   1.0000   1.0000
     1.0000   1.0000

          k = 0.0000-0.2828 0.4243 ( 10056 PWs)   bands (ev):

  -107.3171-107.3171 -69.3065 -69.3065 -51.0361 -51.0360 -51.0359 -51.0359
    -3.9781  -3.9742  -0.6525  -0.6231  -0.5238  -0.2961   0.8681   0.9052
     1.1229   1.2238   1.2748   1.3737   2.7949   2.9670   4.8945   4.9801
     6.1242   6.2176

     occupation numbers 
     1.0000   1.0000   1.0000   1.0000   1.0000   1.0000   1.0000   1.0000
     1.0000   1.0000   1.0000   1.0000   1.0000   1.0000   1.0000   1.0000
     1.0000   1.0000   1.0000   1.0000   1.0000   1.0000   1.0000   1.0000
     1.0000   1.0000

          k =-0.1414-0.5657 0.7071 ( 10086 PWs)   bands (ev):

  -107.3171-107.3171 -69.3065 -69.3065 -51.0361 -51.0361 -51.0359 -51.0359
    -3.8658  -3.8619  -0.6392  -0.5843  -0.4505  -0.2390   0.8540   0.9091
     1.1140   1.2710   1.4515   1.4565   2.4991   2.5884   4.9806   5.1282
     5.2644   5.4081

     occupation numbers 
     1.0000   1.0000   1.0000   1.0000   1.0000   1.0000   1.0000   1.0000
     1.0000   1.0000   1.0000   1.0000   1.0000   1.0000   1.0000   1.0000
     1.0000   1.0000   1.0000   1.0000   1.0000   1.0000   1.0000   1.0000
     1.0000   1.0000

          k =-0.0707-0.4950 0.6364 ( 10068 PWs)   bands (ev):

  -107.3171-107.3171 -69.3065 -69.3065 -51.0362 -51.0360 -51.0360 -51.0359
    -3.8157  -3.8092  -0.6250  -0.5500  -0.4718  -0.1346   0.8913   0.9999
     1.1368   1.3080   1.5488   1.6565   2.0626   2.2324   4.6483   4.7362
     5.2523   5.3010

     occupation numbers 
     1.0000   1.0000   1.0000   1.0000   1.0000   1.0000   1.0000   1.0000
     1.0000   1.0000   1.0000   1.0000   1.0000   1.0000   1.0000   1.0000
     1.0000   1.0000   1.0000   1.0000   1.0000   1.0000   1.0000   1.0000
     1.0000   1.0000

          k =-0.0000-0.4243 0.5657 ( 10068 PWs)   bands (ev):

  -107.3171-107.3171 -69.3065 -69.3065 -51.0362 -51.0360 -51.0360 -51.0359
    -3.8236  -3.8162  -0.6187  -0.5453  -0.5022  -0.1141   0.9190   0.9917
     1.2262   1.3101   1.5469   1.6569   1.9391   2.2408   4.4383   4.5175
     5.4619   5.5105

     occupation numbers 
     1.0000   1.0000   1.0000   1.0000   1.0000   1.0000   1.0000   1.0000
     1.0000   1.0000   1.0000   1.0000   1.0000   1.0000   1.0000   1.0000
     1.0000   1.0000   1.0000   1.0000   1.0000   1.0000   1.0000   1.0000
     1.0000   1.0000

          k =-0.7071 0.1414 0.0000 ( 10052 PWs)   bands (ev):

  -107.3171-107.3171 -69.3065 -69.3065 -51.0362 -51.0361 -51.0359 -51.0359
    -3.7949  -3.7899  -0.6254  -0.5733  -0.3974  -0.1551   0.8620   0.9560
     1.1454   1.3057   1.6210   1.7209   2.0291   2.1019   4.8490   5.0016
     5.0189   5.1584

     occupation numbers 
     1.0000   1.0000   1.0000   1.0000   1.0000   1.0000   1.0000   1.0000
     1.0000   1.0000   1.0000   1.0000   1.0000   1.0000   1.0000   1.0000
     1.0000   1.0000   1.0000   1.0000   1.0000   1.0000   1.0000   1.0000
     1.0000   1.0000

          k =-0.1414-0.4243 0.7071 ( 10070 PWs)   bands (ev):

  -107.3171-107.3171 -69.3065 -69.3065 -51.0362 -51.0360 -51.0360 -51.0359
    -3.8476  -3.8408  -0.6142  -0.5734  -0.5001  -0.1527   0.9107   0.9913
     1.1443   1.2899   1.4699   1.5401   2.2010   2.4237   4.6113   4.7442
     5.3544   5.4388

     occupation numbers 
     1.0000   1.0000   1.0000   1.0000   1.0000   1.0000   1.0000   1.0000
     1.0000   1.0000   1.0000   1.0000   1.0000   1.0000   1.0000   1.0000
     1.0000   1.0000   1.0000   1.0000   1.0000   1.0000   1.0000   1.0000
     1.0000   1.0000

          k =-0.0707-0.3536 0.6364 ( 10072 PWs)   bands (ev):

  -107.3171-107.3171 -69.3065 -69.3065 -51.0362 -51.0360 -51.0360 -51.0359
    -3.8166  -3.8087  -0.5949  -0.5643  -0.5035  -0.1050   0.9210   1.0296
     1.1911   1.3045   1.5474   1.6993   1.9396   2.2003   4.5201   4.6450
     5.2106   5.2533

     occupation numbers 
     1.0000   1.0000   1.0000   1.0000   1.0000   1.0000   1.0000   1.0000
     1.0000   1.0000   1.0000   1.0000   1.0000   1.0000   1.0000   1.0000
     1.0000   1.0000   1.0000   1.0000   1.0000   1.0000   1.0000   1.0000
     1.0000   1.0000

          k =-0.7071 0.2828 0.0000 ( 10082 PWs)   bands (ev):

  -107.3171-107.3171 -69.3065 -69.3065 -51.0362 -51.0360 -51.0360 -51.0360
    -3.7973  -3.7892  -0.5966  -0.5377  -0.5069  -0.0936   0.9142   1.1008
     1.1075   1.3124   1.5879   1.8115   1.9047   2.0685   4.6125   4.8425
     4.8923   4.9899

     occupation numbers 
     1.0000   1.0000   1.0000   1.0000   1.0000   1.0000   1.0000   1.0000
     1.0000   1.0000   1.0000   1.0000   1.0000   1.0000   1.0000   1.0000
     1.0000   1.0000   1.0000   1.0000   1.0000   1.0000   1.0000   1.0000
     1.0000   1.0000

     highest occupied level (ev):     7.7211

!    total energy              =    -346.73729768 Ry
     estimated scf accuracy    <          3.1E-11 Ry

     The total energy is the sum of the following terms:
     one-electron contribution =    -227.34032798 Ry
     hartree contribution      =     116.15472700 Ry
     xc contribution           =     -55.84100858 Ry
     ewald contribution        =    -179.71068811 Ry

     convergence has been achieved in  12 iterations

     Forces acting on atoms (cartesian axes, Ry/au):

     atom    1 type  1   force =     0.00000000   -0.00000000   -0.00000000
     atom    2 type  2   force =    -0.00000000    0.00000000    0.00000000
     The non-local contrib.  to forces
     atom    1 type  1   force =     0.00000000   -0.00000000    0.00000000
     atom    2 type  2   force =    -0.00000000    0.00000000   -0.00000000
     The ionic contribution  to forces
     atom    1 type  1   force =     0.00000000    0.00000000   -0.00000000
     atom    2 type  2   force =    -0.00000000   -0.00000000   -0.00000000
     The local contribution  to forces
     atom    1 type  1   force =     0.00000000    0.00000000    0.00000000
     atom    2 type  2   force =    -0.00000000   -0.00000000    0.00000000
     The core correction contribution to forces
     atom    1 type  1   force =     0.00000000   -0.00000000    0.00000000
     atom    2 type  2   force =    -0.00000000    0.00000000   -0.00000000
     The Hubbard contrib.    to forces
     atom    1 type  1   force =     0.00000000    0.00000000    0.00000000
     atom    2 type  2   force =     0.00000000    0.00000000    0.00000000
     The SCF correction term to forces
     atom    1 type  1   force =    -0.00000000   -0.00000000    0.00000000
     atom    2 type  2   force =     0.00000000    0.00000000   -0.00000000

     Total force =     0.000000     Total SCF correction =     0.000000


     Computing stress (Cartesian axis) and pressure

          total   stress  (Ry/bohr**3)                   (kbar)     P=       35.18
   0.00023917  -0.00000000  -0.00000000           35.18       -0.00       -0.00
   0.00000000   0.00023917  -0.00000000            0.00       35.18       -0.00
  -0.00000000   0.00000000   0.00023917           -0.00        0.00       35.18

     kinetic stress (kbar)  27111.73     -0.00     -0.00
                               -0.00  27111.73      0.00
                               -0.00      0.00  27111.73

     local   stress (kbar) -26119.41     -0.00      0.00
                               -0.00 -26119.41      0.00
                                0.00      0.00 -26119.41

     nonloc. stress (kbar)  10217.92      0.00      0.00
                                0.00  10217.92      0.00
                                0.00      0.00  10217.92

     hartree stress (kbar)  12563.82     -0.00     -0.00
                               -0.00  12563.82      0.00
                               -0.00      0.00  12563.82

     exc-cor stress (kbar)   3642.92      0.00     -0.00
                                0.00   3642.92     -0.00
                               -0.00     -0.00   3642.92

     corecor stress (kbar)  -7943.47     -0.00      0.00
                               -0.00  -7943.47      0.00
                                0.00      0.00  -7943.47

     ewald   stress (kbar) -19438.32     -0.00      0.00
                               -0.00 -19438.32     -0.00
                                0.00     -0.00 -19438.32

     hubbard stress (kbar)      0.00      0.00      0.00
                                0.00      0.00      0.00
                                0.00      0.00      0.00

     DFT-D   stress (kbar)      0.00      0.00      0.00
                                0.00      0.00      0.00
                                0.00      0.00      0.00

     XDM     stress (kbar)      0.00      0.00      0.00
                                0.00      0.00      0.00
                                0.00      0.00      0.00

     dft-nl  stress (kbar)      0.00      0.00      0.00
                                0.00      0.00      0.00
                                0.00      0.00      0.00

     TS-vdW  stress (kbar)      0.00      0.00      0.00
                                0.00      0.00      0.00
                                0.00      0.00      0.00

     MDB     stress (kbar)      0.00      0.00      0.00
                                0.00      0.00      0.00
                                0.00      0.00      0.00

     3D-RISM stress (kbar)      0.00      0.00      0.00
                                0.00      0.00      0.00
                                0.00      0.00      0.00


     BFGS Geometry Optimization
     Energy error            =      1.9E-03 Ry
     Gradient error          =      5.6E-31 Ry/Bohr
     Cell gradient error     =      3.5E+01 kbar

     number of scf cycles    =   1
     number of bfgs steps    =   0

     enthalpy           new  =    -346.7372976776 Ry

     new trust radius        =       0.0254615234 bohr
     new conv_thr            =            1.0E-10 Ry

     new unit-cell volume =    461.51797 a.u.^3 (    68.38991 Ang^3 )
     density =      7.96866 g/cm^3

CELL_PARAMETERS (angstrom)
  -0.000000000   3.245791911   3.245791911
   3.245791911  -0.000000000   3.245791911
   3.245791911   3.245791911   0.000000000

ATOMIC_POSITIONS (crystal)
Hg              -0.0000000000        0.0000000000       -0.0000000000
Te               0.2500000000        0.2500000000        0.2500000000



     Writing config-only to output data dir /home/User/opencode_workspace/DFT/calculations/hgte/relax_soc/out/pwscf.save/ :
     XML data file
     NEW-OLD atomic charge density approx. for the potential
     New effective cutoffs (rho, wfc):  711.46  118.58

     total cpu time spent up to now is     1064.6 secs

     per-process dynamical memory:   148.3 Mb

     Self-consistent Calculation

     iteration #  1     ecut=   120.00 Ry     beta= 0.30
     Davidson diagonalization with overlap

---- Real-time Memory Report at c_bands before calling an iterative solver
           435 MiB given to the printing process from OS
           144 MiB allocation reported by mallinfo(arena+hblkhd)
         10710 MiB available memory on the node where the printing process lives
------------------
     ethr =  1.00E-06,  avg # of iterations =  6.1

     Threshold (ethr) on eigenvalues was too large:
     Diagonalizing with lowered threshold

     Davidson diagonalization with overlap

---- Real-time Memory Report at c_bands before calling an iterative solver
           435 MiB given to the printing process from OS
           147 MiB allocation reported by mallinfo(arena+hblkhd)
         10746 MiB available memory on the node where the printing process lives
------------------
     ethr =  8.06E-09,  avg # of iterations =  5.5

     total cpu time spent up to now is     1144.2 secs

     total energy              =    -346.73899981 Ry
     estimated scf accuracy    <       0.00000216 Ry

     iteration #  2     ecut=   120.00 Ry     beta= 0.30
     Davidson diagonalization with overlap

---- Real-time Memory Report at c_bands before calling an iterative solver
           435 MiB given to the printing process from OS
           158 MiB allocation reported by mallinfo(arena+hblkhd)
         10570 MiB available memory on the node where the printing process lives
------------------
     ethr =  8.30E-09,  avg # of iterations =  1.2

     total cpu time spent up to now is     1152.3 secs

     total energy              =    -346.73899980 Ry
     estimated scf accuracy    <       0.00000083 Ry

     iteration #  3     ecut=   120.00 Ry     beta= 0.30
     Davidson diagonalization with overlap

---- Real-time Memory Report at c_bands before calling an iterative solver
           435 MiB given to the printing process from OS
           159 MiB allocation reported by mallinfo(arena+hblkhd)
         10626 MiB available memory on the node where the printing process lives
------------------
     ethr =  3.20E-09,  avg # of iterations =  2.1

     total cpu time spent up to now is     1161.2 secs

     total energy              =    -346.73899992 Ry
     estimated scf accuracy    <       0.00000010 Ry

     iteration #  4     ecut=   120.00 Ry     beta= 0.30
     Davidson diagonalization with overlap

---- Real-time Memory Report at c_bands before calling an iterative solver
           435 MiB given to the printing process from OS
           161 MiB allocation reported by mallinfo(arena+hblkhd)
         10599 MiB available memory on the node where the printing process lives
------------------
     ethr =  3.89E-10,  avg # of iterations =  2.2

     total cpu time spent up to now is     1170.8 secs

     total energy              =    -346.73899994 Ry
     estimated scf accuracy    <       0.00000001 Ry

     iteration #  5     ecut=   120.00 Ry     beta= 0.30
     Davidson diagonalization with overlap

---- Real-time Memory Report at c_bands before calling an iterative solver
           435 MiB given to the printing process from OS
           162 MiB allocation reported by mallinfo(arena+hblkhd)
         10540 MiB available memory on the node where the printing process lives
------------------
     ethr =  4.08E-11,  avg # of iterations =  3.7

     total cpu time spent up to now is     1181.7 secs

     total energy              =    -346.73899995 Ry
     estimated scf accuracy    <          3.7E-09 Ry

     iteration #  6     ecut=   120.00 Ry     beta= 0.30
     Davidson diagonalization with overlap

---- Real-time Memory Report at c_bands before calling an iterative solver
           435 MiB given to the printing process from OS
           164 MiB allocation reported by mallinfo(arena+hblkhd)
         10522 MiB available memory on the node where the printing process lives
------------------
     ethr =  1.41E-11,  avg # of iterations =  4.0

     total cpu time spent up to now is     1192.0 secs

     total energy              =    -346.73899995 Ry
     estimated scf accuracy    <          1.6E-09 Ry

     iteration #  7     ecut=   120.00 Ry     beta= 0.30
     Davidson diagonalization with overlap

---- Real-time Memory Report at c_bands before calling an iterative solver
           435 MiB given to the printing process from OS
           166 MiB allocation reported by mallinfo(arena+hblkhd)
         10560 MiB available memory on the node where the printing process lives
------------------
     ethr =  6.34E-12,  avg # of iterations =  2.5

     total cpu time spent up to now is     1201.3 secs

     total energy              =    -346.73899995 Ry
     estimated scf accuracy    <          1.5E-10 Ry

     iteration #  8     ecut=   120.00 Ry     beta= 0.30
     Davidson diagonalization with overlap

---- Real-time Memory Report at c_bands before calling an iterative solver
           435 MiB given to the printing process from OS
           167 MiB allocation reported by mallinfo(arena+hblkhd)
         10710 MiB available memory on the node where the printing process lives
------------------
     ethr =  5.74E-13,  avg # of iterations =  5.1

     total cpu time spent up to now is     1213.1 secs

     total energy              =    -346.73899995 Ry
     estimated scf accuracy    <          2.1E-10 Ry

     iteration #  9     ecut=   120.00 Ry     beta= 0.30
     Davidson diagonalization with overlap

---- Real-time Memory Report at c_bands before calling an iterative solver
           435 MiB given to the printing process from OS
           169 MiB allocation reported by mallinfo(arena+hblkhd)
         10501 MiB available memory on the node where the printing process lives
------------------
     ethr =  5.74E-13,  avg # of iterations =  2.2

     total cpu time spent up to now is     1222.2 secs

     End of self-consistent calculation

          k = 0.0000 0.0000 0.0000 ( 10081 PWs)   bands (ev):

  -107.5056-107.5056 -69.4948 -69.4948 -51.2239 -51.2239 -51.2239 -51.2239
    -4.6942  -4.6942  -0.8879  -0.8879  -0.8879  -0.8879   0.4876   0.4876
     0.9695   0.9695   0.9695   0.9695   6.4581   6.4581   6.6796   6.6796
     7.4553   7.4553

     occupation numbers 
     1.0000   1.0000   1.0000   1.0000   1.0000   1.0000   1.0000   1.0000
     1.0000   1.0000   1.0000   1.0000   1.0000   1.0000   1.0000   1.0000
     1.0000   1.0000   1.0000   1.0000   1.0000   1.0000   1.0000   1.0000
     1.0000   1.0000

          k = 0.0703 0.0703-0.0703 (  9991 PWs)   bands (ev):

  -107.5055-107.5055 -69.4948 -69.4948 -51.2239 -51.2239 -51.2239 -51.2239
    -4.6460  -4.6460  -0.8993  -0.8701  -0.8688  -0.8688   0.5025   0.5025
     0.9535   0.9616   0.9616   1.0085   5.6333   5.6333   6.7632   6.7632
     7.3117   7.3727

     occupation numbers 
     1.0000   1.0000   1.0000   1.0000   1.0000   1.0000   1.0000   1.0000
     1.0000   1.0000   1.0000   1.0000   1.0000   1.0000   1.0000   1.0000
     1.0000   1.0000   1.0000   1.0000   1.0000   1.0000   1.0000   1.0000
     1.0000   1.0000

          k = 0.1406 0.1406-0.1406 ( 10033 PWs)   bands (ev):

  -107.5055-107.5055 -69.4948 -69.4948 -51.2240 -51.2240 -51.2239 -51.2239
    -4.5160  -4.5160  -0.9008  -0.8534  -0.8077  -0.8077   0.5488   0.5488
     0.9469   0.9469   0.9678   1.0584   4.4752   4.4752   6.5218   6.5218
     7.0268   7.1205

     occupation numbers 
     1.0000   1.0000   1.0000   1.0000   1.0000   1.0000   1.0000   1.0000
     1.0000   1.0000   1.0000   1.0000   1.0000   1.0000   1.0000   1.0000
     1.0000   1.0000   1.0000   1.0000   1.0000   1.0000   1.0000   1.0000
     1.0000   1.0000

          k = 0.2109 0.2109-0.2109 ( 10056 PWs)   bands (ev):

  -107.5056-107.5056 -69.4948 -69.4948 -51.2241 -51.2241 -51.2239 -51.2239
    -4.3472  -4.3472  -0.8927  -0.8453  -0.6996  -0.6996   0.6211   0.6211
     0.9613   0.9613   1.0103   1.1030   3.3305   3.3305   6.2325   6.2325
     6.7353   6.8256

     occupation numbers 
     1.0000   1.0000   1.0000   1.0000   1.0000   1.0000   1.0000   1.0000
     1.0000   1.0000   1.0000   1.0000   1.0000   1.0000   1.0000   1.0000
     1.0000   1.0000   1.0000   1.0000   1.0000   1.0000   1.0000   1.0000
     1.0000   1.0000

          k = 0.2812 0.2812-0.2812 ( 10047 PWs)   bands (ev):

  -107.5055-107.5055 -69.4948 -69.4948 -51.2241 -51.2241 -51.2239 -51.2239
    -4.2041  -4.2041  -0.8781  -0.8488  -0.5698  -0.5698   0.6779   0.6779
     1.0659   1.1007   1.1007   1.1243   2.3542   2.3542   6.0181   6.0181
     6.5368   6.5919

     occupation numbers 
     1.0000   1.0000   1.0000   1.0000   1.0000   1.0000   1.0000   1.0000
     1.0000   1.0000   1.0000   1.0000   1.0000   1.0000   1.0000   1.0000
     1.0000   1.0000   1.0000   1.0000   1.0000   1.0000   1.0000   1.0000
     1.0000   1.0000

          k =-0.3515-0.3515 0.3515 ( 10002 PWs)   bands (ev):

  -107.5055-107.5055 -69.4948 -69.4948 -51.2242 -51.2242 -51.2239 -51.2239
    -4.1478  -4.1478  -0.8616  -0.8616  -0.5051  -0.5051   0.6913   0.6913
     1.1106   1.1106   1.3440   1.3440   1.8020   1.8020   5.9399   5.9399
     6.4856   6.4856

     occupation numbers 
     1.0000   1.0000   1.0000   1.0000   1.0000   1.0000   1.0000   1.0000
     1.0000   1.0000   1.0000   1.0000   1.0000   1.0000   1.0000   1.0000
     1.0000   1.0000   1.0000   1.0000   1.0000   1.0000   1.0000   1.0000
     1.0000   1.0000

          k = 0.1406 0.0000 0.0000 ( 10005 PWs)   bands (ev):

  -107.5055-107.5055 -69.4948 -69.4948 -51.2239 -51.2239 -51.2239 -51.2239
    -4.6298  -4.6298  -0.8869  -0.8869  -0.8594  -0.8594   0.5069   0.5069
     0.9476   0.9476   0.9968   0.9968   5.5483   5.5483   6.6382   6.6382
     7.0863   7.0863

     occupation numbers 
     1.0000   1.0000   1.0000   1.0000   1.0000   1.0000   1.0000   1.0000
     1.0000   1.0000   1.0000   1.0000   1.0000   1.0000   1.0000   1.0000
     1.0000   1.0000   1.0000   1.0000   1.0000   1.0000   1.0000   1.0000
     1.0000   1.0000

          k = 0.2109 0.0703-0.0703 ( 10030 PWs)   bands (ev):

  -107.5055-107.5055 -69.4948 -69.4948 -51.2240 -51.2239 -51.2239 -51.2239
    -4.5269  -4.5268  -0.8921  -0.8486  -0.8399  -0.8062   0.5393   0.5435
     0.9299   0.9555   0.9835   1.0475   4.7080   4.7085   6.3622   6.3881
     6.7404   6.8224

     occupation numbers 
     1.0000   1.0000   1.0000   1.0000   1.0000   1.0000   1.0000   1.0000
     1.0000   1.0000   1.0000   1.0000   1.0000   1.0000   1.0000   1.0000
     1.0000   1.0000   1.0000   1.0000   1.0000   1.0000   1.0000   1.0000
     1.0000   1.0000

          k = 0.2812 0.1406-0.1406 ( 10040 PWs)   bands (ev):

  -107.5055-107.5055 -69.4948 -69.4948 -51.2241 -51.2240 -51.2239 -51.2239
    -4.3705  -4.3699  -0.8864  -0.8329  -0.7643  -0.7019   0.6020   0.6110
     0.9211   0.9841   0.9952   1.0998   3.6407   3.6583   6.0389   6.0708
     6.4224   6.5222

     occupation numbers 
     1.0000   1.0000   1.0000   1.0000   1.0000   1.0000   1.0000   1.0000
     1.0000   1.0000   1.0000   1.0000   1.0000   1.0000   1.0000   1.0000
     1.0000   1.0000   1.0000   1.0000   1.0000   1.0000   1.0000   1.0000
     1.0000   1.0000

          k = 0.3515 0.2109-0.2109 ( 10057 PWs)   bands (ev):

  -107.5056-107.5056 -69.4948 -69.4948 -51.2241 -51.2241 -51.2239 -51.2239
    -4.2179  -4.2164  -0.8730  -0.8323  -0.6546  -0.5590   0.6697   0.6829
     0.9874   1.0380   1.0846   1.1416   2.6326   2.6782   5.7662   5.7934
     6.2039   6.2707

     occupation numbers 
     1.0000   1.0000   1.0000   1.0000   1.0000   1.0000   1.0000   1.0000
     1.0000   1.0000   1.0000   1.0000   1.0000   1.0000   1.0000   1.0000
     1.0000   1.0000   1.0000   1.0000   1.0000   1.0000   1.0000   1.0000
     1.0000   1.0000

          k =-0.2812-0.4217 0.4217 ( 10068 PWs)   bands (ev):

  -107.5056-107.5056 -69.4948 -69.4948 -51.2242 -51.2241 -51.2240 -51.2240
    -4.1321  -4.1297  -0.8564  -0.8426  -0.5727  -0.4517   0.6929   0.7151
     1.0916   1.1010   1.2772   1.3156   1.8900   1.9765   5.5915   5.6139
     6.1595   6.1694

     occupation numbers 
     1.0000   1.0000   1.0000   1.0000   1.0000   1.0000   1.0000   1.0000
     1.0000   1.0000   1.0000   1.0000   1.0000   1.0000   1.0000   1.0000
     1.0000   1.0000   1.0000   1.0000   1.0000   1.0000   1.0000   1.0000
     1.0000   1.0000

          k =-0.2109-0.3515 0.3515 ( 10065 PWs)   bands (ev):

  -107.5056-107.5056 -69.4948 -69.4948 -51.2242 -51.2241 -51.2240 -51.2239
    -4.1508  -4.1486  -0.8591  -0.8420  -0.5917  -0.4755   0.6868   0.7151
     1.0750   1.1017   1.1788   1.2345   2.0824   2.1686   5.5505   5.5777
     6.2528   6.2945

     occupation numbers 
     1.0000   1.0000   1.0000   1.0000   1.0000   1.0000   1.0000   1.0000
     1.0000   1.0000   1.0000   1.0000   1.0000   1.0000   1.0000   1.0000
     1.0000   1.0000   1.0000   1.0000   1.0000   1.0000   1.0000   1.0000
     1.0000   1.0000

          k =-0.1406-0.2812 0.2812 ( 10056 PWs)   bands (ev):

  -107.5056-107.5056 -69.4948 -69.4948 -51.2241 -51.2241 -51.2239 -51.2239
    -4.2657  -4.2644  -0.8761  -0.8355  -0.6918  -0.6057   0.6460   0.6730
     0.9681   0.9963   1.0349   1.1324   2.9411   2.9967   5.6758   5.7109
     6.4883   6.5628

     occupation numbers 
     1.0000   1.0000   1.0000   1.0000   1.0000   1.0000   1.0000   1.0000
     1.0000   1.0000   1.0000   1.0000   1.0000   1.0000   1.0000   1.0000
     1.0000   1.0000   1.0000   1.0000   1.0000   1.0000   1.0000   1.0000
     1.0000   1.0000

          k =-0.0703-0.2109 0.2109 ( 10042 PWs)   bands (ev):

  -107.5055-107.5055 -69.4948 -69.4948 -51.2240 -51.2240 -51.2239 -51.2239
    -4.4269  -4.4264  -0.8894  -0.8407  -0.7923  -0.7396   0.5763   0.5928
     0.9306   0.9579   0.9826   1.0875   3.9785   4.0062   5.9807   6.0159
     6.7974   6.8820

     occupation numbers 
     1.0000   1.0000   1.0000   1.0000   1.0000   1.0000   1.0000   1.0000
     1.0000   1.0000   1.0000   1.0000   1.0000   1.0000   1.0000   1.0000
     1.0000   1.0000   1.0000   1.0000   1.0000   1.0000   1.0000   1.0000
     1.0000   1.0000

          k = 0.0000-0.1406 0.1406 ( 10043 PWs)   bands (ev):

  -107.5056-107.5056 -69.4948 -69.4948 -51.2239 -51.2239 -51.2239 -51.2239
    -4.5704  -4.5703  -0.8970  -0.8558  -0.8522  -0.8269   0.5248   0.5305
     0.9422   0.9561   0.9649   1.0388   4.9758   4.9803   6.4368   6.4620
     7.0802   7.1522

     occupation numbers 
     1.0000   1.0000   1.0000   1.0000   1.0000   1.0000   1.0000   1.0000
     1.0000   1.0000   1.0000   1.0000   1.0000   1.0000   1.0000   1.0000
     1.0000   1.0000   1.0000   1.0000   1.0000   1.0000   1.0000   1.0000
     1.0000   1.0000

          k = 0.2812 0.0000 0.0000 ( 10057 PWs)   bands (ev):

  -107.5056-107.5056 -69.4948 -69.4948 -51.2240 -51.2240 -51.2239 -51.2239
    -4.4556  -4.4556  -0.8631  -0.8631  -0.7932  -0.7932   0.5604   0.5604
     0.9350   0.9350   1.0391   1.0391   4.4299   4.4299   6.0825   6.0825
     6.3558   6.3558

     occupation numbers 
     1.0000   1.0000   1.0000   1.0000   1.0000   1.0000   1.0000   1.0000
     1.0000   1.0000   1.0000   1.0000   1.0000   1.0000   1.0000   1.0000
     1.0000   1.0000   1.0000   1.0000   1.0000   1.0000   1.0000   1.0000
     1.0000   1.0000

          k = 0.3515 0.0703-0.0703 ( 10061 PWs)   bands (ev):

  -107.5056-107.5056 -69.4948 -69.4948 -51.2241 -51.2240 -51.2239 -51.2239
    -4.3259  -4.3252  -0.8638  -0.8154  -0.7712  -0.6944   0.6070   0.6104
     0.9124   0.9770   1.0388   1.1027   3.7061   3.7208   5.7095   5.7526
     5.9633   6.0553

     occupation numbers 
     1.0000   1.0000   1.0000   1.0000   1.0000   1.0000   1.0000   1.0000
     1.0000   1.0000   1.0000   1.0000   1.0000   1.0000   1.0000   1.0000
     1.0000   1.0000   1.0000   1.0000   1.0000   1.0000   1.0000   1.0000
     1.0000   1.0000

          k = 0.4217 0.1406-0.1406 ( 10068 PWs)   bands (ev):

  -107.5056-107.5056 -69.4948 -69.4948 -51.2241 -51.2241 -51.2240 -51.2240
    -4.1845  -4.1821  -0.8538  -0.7895  -0.7099  -0.5501   0.6779   0.6831
     0.9205   1.0385   1.0991   1.1619   2.8461   2.9057   5.3180   5.3366
     5.7553   5.8117

     occupation numbers 
     1.0000   1.0000   1.0000   1.0000   1.0000   1.0000   1.0000   1.0000
     1.0000   1.0000   1.0000   1.0000   1.0000   1.0000   1.0000   1.0000
     1.0000   1.0000   1.0000   1.0000   1.0000   1.0000   1.0000   1.0000
     1.0000   1.0000

          k =-0.2109-0.4920 0.4920 ( 10061 PWs)   bands (ev):

  -107.5056-107.5056 -69.4948 -69.4948 -51.2242 -51.2241 -51.2240 -51.2240
    -4.0876  -4.0833  -0.8388  -0.7933  -0.6379  -0.4159   0.7301   0.7301
     1.0293   1.0822   1.2408   1.2898   2.0931   2.2260   4.9744   4.9906
     5.7504   5.7505

     occupation numbers 
     1.0000   1.0000   1.0000   1.0000   1.0000   1.0000   1.0000   1.0000
     1.0000   1.0000   1.0000   1.0000   1.0000   1.0000   1.0000   1.0000
     1.0000   1.0000   1.0000   1.0000   1.0000   1.0000   1.0000   1.0000
     1.0000   1.0000

          k =-0.1406-0.4217 0.4217 ( 10066 PWs)   bands (ev):

  -107.5056-107.5056 -69.4948 -69.4948 -51.2242 -51.2241 -51.2240 -51.2240
    -4.0760  -4.0712  -0.8250  -0.8098  -0.6260  -0.3891   0.7273   0.7542
     1.0836   1.1018   1.2638   1.3368   1.9107   2.1197   4.7792   4.8192
     5.8868   5.9306

     occupation numbers 
     1.0000   1.0000   1.0000   1.0000   1.0000   1.0000   1.0000   1.0000
     1.0000   1.0000   1.0000   1.0000   1.0000   1.0000   1.0000   1.0000
     1.0000   1.0000   1.0000   1.0000   1.0000   1.0000   1.0000   1.0000
     1.0000   1.0000

          k =-0.0703-0.3515 0.3515 ( 10066 PWs)   bands (ev):

  -107.5056-107.5056 -69.4948 -69.4948 -51.2242 -51.2241 -51.2240 -51.2240
    -4.1545  -4.1509  -0.8335  -0.8187  -0.6824  -0.4883   0.6955   0.7435
     1.0127   1.0305   1.0742   1.1896   2.5344   2.6956   4.8302   4.8932
     6.1715   6.2445

     occupation numbers 
     1.0000   1.0000   1.0000   1.0000   1.0000   1.0000   1.0000   1.0000
     1.0000   1.0000   1.0000   1.0000   1.0000   1.0000   1.0000   1.0000
     1.0000   1.0000   1.0000   1.0000   1.0000   1.0000   1.0000   1.0000
     1.0000   1.0000

          k = 0.0000-0.2812 0.2812 ( 10071 PWs)   bands (ev):

  -107.5056-107.5056 -69.4948 -69.4948 -51.2241 -51.2240 -51.2240 -51.2239
    -4.2896  -4.2878  -0.8624  -0.8247  -0.7514  -0.6289   0.6310   0.6716
     0.9358   0.9647   1.0180   1.1348   3.3088   3.4014   5.2327   5.2921
     6.5132   6.5990

     occupation numbers 
     1.0000   1.0000   1.0000   1.0000   1.0000   1.0000   1.0000   1.0000
     1.0000   1.0000   1.0000   1.0000   1.0000   1.0000   1.0000   1.0000
     1.0000   1.0000   1.0000   1.0000   1.0000   1.0000   1.0000   1.0000
     1.0000   1.0000

          k = 0.4217 0.0000 0.0000 ( 10077 PWs)   bands (ev):

  -107.5056-107.5056 -69.4948 -69.4948 -51.2241 -51.2241 -51.2240 -51.2240
    -4.2283  -4.2283  -0.8283  -0.8283  -0.6784  -0.6784   0.6295   0.6295
     0.9548   0.9548   1.1127   1.1127   3.3629   3.3629   5.4734   5.4734
     5.6642   5.6642

     occupation numbers 
     1.0000   1.0000   1.0000   1.0000   1.0000   1.0000   1.0000   1.0000
     1.0000   1.0000   1.0000   1.0000   1.0000   1.0000   1.0000   1.0000
     1.0000   1.0000   1.0000   1.0000   1.0000   1.0000   1.0000   1.0000
     1.0000   1.0000

          k = 0.4920 0.0703-0.0703 ( 10075 PWs)   bands (ev):

  -107.5056-107.5056 -69.4948 -69.4948 -51.2242 -51.2241 -51.2240 -51.2240
    -4.1148  -4.1127  -0.8286  -0.7830  -0.6621  -0.5375   0.6676   0.6883
     0.9344   1.0396   1.1589   1.1915   2.7720   2.8141   5.1107   5.1515
     5.3698   5.4387

     occupation numbers 
     1.0000   1.0000   1.0000   1.0000   1.0000   1.0000   1.0000   1.0000
     1.0000   1.0000   1.0000   1.0000   1.0000   1.0000   1.0000   1.0000
     1.0000   1.0000   1.0000   1.0000   1.0000   1.0000   1.0000   1.0000
     1.0000   1.0000

          k =-0.1406-0.5623 0.5623 ( 10067 PWs)   bands (ev):

  -107.5056-107.5056 -69.4948 -69.4948 -51.2242 -51.2241 -51.2240 -51.2240
    -4.0294  -4.0245  -0.8203  -0.7430  -0.6561  -0.3946   0.7129   0.7773
     0.9560   1.1010   1.2755   1.3169   2.1693   2.2934   4.6706   4.6875
     5.3500   5.3597

     occupation numbers 
     1.0000   1.0000   1.0000   1.0000   1.0000   1.0000   1.0000   1.0000
     1.0000   1.0000   1.0000   1.0000   1.0000   1.0000   1.0000   1.0000
     1.0000   1.0000   1.0000   1.0000   1.0000   1.0000   1.0000   1.0000
     1.0000   1.0000

          k =-0.0703-0.4920 0.4920 ( 10068 PWs)   bands (ev):

  -107.5056-107.5056 -69.4948 -69.4948 -51.2242 -51.2241 -51.2240 -51.2240
    -4.0068  -4.0002  -0.8111  -0.7364  -0.6633  -0.3298   0.7530   0.7900
     1.0618   1.1267   1.3490   1.4320   1.8062   2.0800   4.3339   4.3825
     5.4990   5.5325

     occupation numbers 
     1.0000   1.0000   1.0000   1.0000   1.0000   1.0000   1.0000   1.0000
     1.0000   1.0000   1.0000   1.0000   1.0000   1.0000   1.0000   1.0000
     1.0000   1.0000   1.0000   1.0000   1.0000   1.0000   1.0000   1.0000
     1.0000   1.0000

          k =-0.0000-0.4217 0.4217 ( 10073 PWs)   bands (ev):

  -107.5056-107.5056 -69.4948 -69.4948 -51.2242 -51.2241 -51.2240 -51.2240
    -4.0552  -4.0493  -0.8091  -0.7762  -0.6730  -0.3761   0.7533   0.7737
     1.0930   1.1038   1.1613   1.2827   2.0888   2.3638   4.3336   4.4139
     5.8017   5.8624

     occupation numbers 
     1.0000   1.0000   1.0000   1.0000   1.0000   1.0000   1.0000   1.0000
     1.0000   1.0000   1.0000   1.0000   1.0000   1.0000   1.0000   1.0000
     1.0000   1.0000   1.0000   1.0000   1.0000   1.0000   1.0000   1.0000
     1.0000   1.0000

          k = 0.5623 0.0000 0.0000 ( 10082 PWs)   bands (ev):

  -107.5056-107.5056 -69.4948 -69.4948 -51.2242 -51.2242 -51.2240 -51.2240
    -4.0346  -4.0346  -0.7992  -0.7992  -0.5330  -0.5330   0.6826   0.6826
     1.0196   1.0196   1.2555   1.2555   2.4451   2.4451   5.0166   5.0166
     5.1918   5.1918

     occupation numbers 
     1.0000   1.0000   1.0000   1.0000   1.0000   1.0000   1.0000   1.0000
     1.0000   1.0000   1.0000   1.0000   1.0000   1.0000   1.0000   1.0000
     1.0000   1.0000   1.0000   1.0000   1.0000   1.0000   1.0000   1.0000
     1.0000   1.0000

          k =-0.0703-0.6326 0.6326 ( 10066 PWs)   bands (ev):

  -107.5056-107.5056 -69.4948 -69.4948 -51.2242 -51.2242 -51.2240 -51.2240
    -3.9794  -3.9761  -0.8050  -0.7635  -0.5617  -0.3997   0.6913   0.7520
     0.9859   1.1017   1.3634   1.4020   2.0392   2.0997   4.7530   4.7909
     5.0546   5.1022

     occupation numbers 
     1.0000   1.0000   1.0000   1.0000   1.0000   1.0000   1.0000   1.0000
     1.0000   1.0000   1.0000   1.0000   1.0000   1.0000   1.0000   1.0000
     1.0000   1.0000   1.0000   1.0000   1.0000   1.0000   1.0000   1.0000
     1.0000   1.0000

          k = 0.0000-0.5623 0.5623 ( 10057 PWs)   bands (ev):

  -107.5055-107.5055 -69.4948 -69.4948 -51.2242 -51.2241 -51.2240 -51.2240
    -3.9693  -3.9631  -0.8060  -0.7243  -0.6298  -0.3250   0.7204   0.8263
     0.9865   1.1347   1.4316   1.5248   1.7814   1.9557   4.4095   4.4361
     5.2036   5.2087

     occupation numbers 
     1.0000   1.0000   1.0000   1.0000   1.0000   1.0000   1.0000   1.0000
     1.0000   1.0000   1.0000   1.0000   1.0000   1.0000   1.0000   1.0000
     1.0000   1.0000   1.0000   1.0000   1.0000   1.0000   1.0000   1.0000
     1.0000   1.0000

          k =-0.7029 0.0000 0.0000 ( 10086 PWs)   bands (ev):

  -107.5056-107.5056 -69.4948 -69.4948 -51.2242 -51.2242 -51.2240 -51.2240
    -3.9584  -3.9584  -0.7882  -0.7882  -0.4569  -0.4569   0.7019   0.7019
     1.0594   1.0594   1.4533   1.4533   1.9371   1.9371   4.8457   4.8457
     5.0250   5.0250

     occupation numbers 
     1.0000   1.0000   1.0000   1.0000   1.0000   1.0000   1.0000   1.0000
     1.0000   1.0000   1.0000   1.0000   1.0000   1.0000   1.0000   1.0000
     1.0000   1.0000   1.0000   1.0000   1.0000   1.0000   1.0000   1.0000
     1.0000   1.0000

          k = 0.2812 0.1406 0.0000 ( 10051 PWs)   bands (ev):

  -107.5056-107.5056 -69.4948 -69.4948 -51.2240 -51.2240 -51.2239 -51.2239
    -4.4103  -4.4097  -0.8793  -0.8272  -0.8072  -0.7354   0.5781   0.5923
     0.9154   0.9739   0.9911   1.0872   4.0364   4.0657   5.8222   5.8806
     6.4758   6.5752

     occupation numbers 
     1.0000   1.0000   1.0000   1.0000   1.0000   1.0000   1.0000   1.0000
     1.0000   1.0000   1.0000   1.0000   1.0000   1.0000   1.0000   1.0000
     1.0000   1.0000   1.0000   1.0000   1.0000   1.0000   1.0000   1.0000
     1.0000   1.0000

          k = 0.3515 0.2109-0.0703 ( 10065 PWs)   bands (ev):

  -107.5056-107.5056 -69.4948 -69.4948 -51.2241 -51.2241 -51.2240 -51.2239
    -4.2607  -4.2589  -0.8630  -0.8135  -0.7377  -0.6104   0.6437   0.6700
     0.9197   1.0091   1.0290   1.1391   3.1659   3.2399   5.3420   5.4083
     6.2006   6.2954

     occupation numbers 
     1.0000   1.0000   1.0000   1.0000   1.0000   1.0000   1.0000   1.0000
     1.0000   1.0000   1.0000   1.0000   1.0000   1.0000   1.0000   1.0000
     1.0000   1.0000   1.0000   1.0000   1.0000   1.0000   1.0000   1.0000
     1.0000   1.0000

          k =-0.2812-0.4217 0.5623 ( 10076 PWs)   bands (ev):

  -107.5056-107.5056 -69.4948 -69.4948 -51.2242 -51.2241 -51.2240 -51.2240
    -4.1353  -4.1319  -0.8448  -0.8143  -0.6502  -0.4667   0.7022   0.7301
     1.0145   1.0619   1.1527   1.2094   2.3209   2.4450   5.0955   5.1474
     5.9582   6.0249

     occupation numbers 
     1.0000   1.0000   1.0000   1.0000   1.0000   1.0000   1.0000   1.0000
     1.0000   1.0000   1.0000   1.0000   1.0000   1.0000   1.0000   1.0000
     1.0000   1.0000   1.0000   1.0000   1.0000   1.0000   1.0000   1.0000
     1.0000   1.0000

          k =-0.2109-0.3515 0.4920 ( 10064 PWs)   bands (ev):

  -107.5056-107.5056 -69.4948 -69.4948 -51.2242 -51.2241 -51.2240 -51.2240
    -4.0864  -4.0822  -0.8301  -0.8233  -0.6073  -0.3978   0.7172   0.7444
     1.0800   1.1025   1.3106   1.3666   1.8389   2.0139   5.0299   5.0634
     5.8683   5.9073

     occupation numbers 
     1.0000   1.0000   1.0000   1.0000   1.0000   1.0000   1.0000   1.0000
     1.0000   1.0000   1.0000   1.0000   1.0000   1.0000   1.0000   1.0000
     1.0000   1.0000   1.0000   1.0000   1.0000   1.0000   1.0000   1.0000
     1.0000   1.0000

          k = 0.4217 0.1406-0.0000 ( 10079 PWs)   bands (ev):

  -107.5056-107.5056 -69.4948 -69.4948 -51.2241 -51.2241 -51.2240 -51.2240
    -4.2035  -4.2016  -0.8453  -0.7896  -0.7296  -0.5915   0.6555   0.6654
     0.9094   1.0223   1.0768   1.1536   3.1121   3.1740   5.2048   5.3123
     5.6881   5.8106

     occupation numbers 
     1.0000   1.0000   1.0000   1.0000   1.0000   1.0000   1.0000   1.0000
     1.0000   1.0000   1.0000   1.0000   1.0000   1.0000   1.0000   1.0000
     1.0000   1.0000   1.0000   1.0000   1.0000   1.0000   1.0000   1.0000
     1.0000   1.0000

          k =-0.2109-0.4920 0.6326 ( 10082 PWs)   bands (ev):

  -107.5056-107.5056 -69.4948 -69.4948 -51.2242 -51.2241 -51.2240 -51.2240
    -4.0894  -4.0851  -0.8262  -0.7668  -0.6864  -0.4501   0.7151   0.7444
     0.9367   1.0746   1.1887   1.2218   2.4401   2.5708   4.7890   4.8899
     5.4782   5.5694

     occupation numbers 
     1.0000   1.0000   1.0000   1.0000   1.0000   1.0000   1.0000   1.0000
     1.0000   1.0000   1.0000   1.0000   1.0000   1.0000   1.0000   1.0000
     1.0000   1.0000   1.0000   1.0000   1.0000   1.0000   1.0000   1.0000
     1.0000   1.0000

          k =-0.1406-0.4217 0.5623 ( 10061 PWs)   bands (ev):

  -107.5056-107.5055 -69.4948 -69.4948 -51.2242 -51.2241 -51.2240 -51.2240
    -4.0294  -4.0232  -0.8097  -0.7673  -0.6531  -0.3518   0.7485   0.7821
     1.0395   1.1111   1.3077   1.3890   1.9022   2.1237   4.5362   4.6057
     5.4466   5.4941

     occupation numbers 
     1.0000   1.0000   1.0000   1.0000   1.0000   1.0000   1.0000   1.0000
     1.0000   1.0000   1.0000   1.0000   1.0000   1.0000   1.0000   1.0000
     1.0000   1.0000   1.0000   1.0000   1.0000   1.0000   1.0000   1.0000
     1.0000   1.0000

          k =-0.0703-0.3515 0.4920 ( 10072 PWs)   bands (ev):

  -107.5056-107.5056 -69.4948 -69.4948 -51.2242 -51.2241 -51.2240 -51.2240
    -4.0480  -4.0420  -0.8024  -0.7848  -0.6626  -0.3693   0.7494   0.7795
     1.0502   1.1027   1.2348   1.3133   2.0249   2.2705   4.4609   4.5455
     5.6080   5.6734

     occupation numbers 
     1.0000   1.0000   1.0000   1.0000   1.0000   1.0000   1.0000   1.0000
     1.0000   1.0000   1.0000   1.0000   1.0000   1.0000   1.0000   1.0000
     1.0000   1.0000   1.0000   1.0000   1.0000   1.0000   1.0000   1.0000
     1.0000   1.0000

          k = 0.0000-0.2812 0.4217 ( 10056 PWs)   bands (ev):

  -107.5055-107.5055 -69.4948 -69.4948 -51.2242 -51.2241 -51.2240 -51.2240
    -4.1372  -4.1333  -0.8258  -0.7979  -0.7017  -0.4821   0.7074   0.7434
     0.9553   1.0501   1.0983   1.1944   2.5963   2.7656   4.7051   4.7986
     5.9062   5.9948

     occupation numbers 
     1.0000   1.0000   1.0000   1.0000   1.0000   1.0000   1.0000   1.0000
     1.0000   1.0000   1.0000   1.0000   1.0000   1.0000   1.0000   1.0000
     1.0000   1.0000   1.0000   1.0000   1.0000   1.0000   1.0000   1.0000
     1.0000   1.0000

          k =-0.1406-0.5623 0.7029 ( 10086 PWs)   bands (ev):

  -107.5056-107.5056 -69.4948 -69.4948 -51.2242 -51.2241 -51.2240 -51.2240
    -4.0294  -4.0254  -0.8127  -0.7609  -0.6311  -0.4289   0.6977   0.7517
     0.9418   1.0914   1.2683   1.2759   2.3068   2.3952   4.7895   4.9425
     5.0696   5.2159

     occupation numbers 
     1.0000   1.0000   1.0000   1.0000   1.0000   1.0000   1.0000   1.0000
     1.0000   1.0000   1.0000   1.0000   1.0000   1.0000   1.0000   1.0000
     1.0000   1.0000   1.0000   1.0000   1.0000   1.0000   1.0000   1.0000
     1.0000   1.0000

          k =-0.0703-0.4920 0.6326 ( 10068 PWs)   bands (ev):

  -107.5056-107.5056 -69.4948 -69.4948 -51.2242 -51.2241 -51.2240 -51.2240
    -3.9813  -3.9748  -0.7992  -0.7287  -0.6519  -0.3298   0.7328   0.8371
     0.9654   1.1274   1.3620   1.4674   1.8879   2.0535   4.4693   4.5587
     5.0609   5.1086

     occupation numbers 
     1.0000   1.0000   1.0000   1.0000   1.0000   1.0000   1.0000   1.0000
     1.0000   1.0000   1.0000   1.0000   1.0000   1.0000   1.0000   1.0000
     1.0000   1.0000   1.0000   1.0000   1.0000   1.0000   1.0000   1.0000
     1.0000   1.0000

          k = 0.0000-0.4217 0.5623 ( 10068 PWs)   bands (ev):

  -107.5056-107.5056 -69.4948 -69.4948 -51.2242 -51.2241 -51.2241 -51.2240
    -3.9889  -3.9815  -0.7936  -0.7236  -0.6819  -0.3099   0.7578   0.8264
     1.0506   1.1300   1.3610   1.4721   1.7717   2.0598   4.2637   4.3480
     5.2658   5.3089

     occupation numbers 
     1.0000   1.0000   1.0000   1.0000   1.0000   1.0000   1.0000   1.0000
     1.0000   1.0000   1.0000   1.0000   1.0000   1.0000   1.0000   1.0000
     1.0000   1.0000   1.0000   1.0000   1.0000   1.0000   1.0000   1.0000
     1.0000   1.0000

          k =-0.7029 0.1406 0.0000 ( 10052 PWs)   bands (ev):

  -107.5055-107.5055 -69.4948 -69.4948 -51.2242 -51.2242 -51.2240 -51.2240
    -3.9614  -3.9564  -0.7993  -0.7503  -0.5812  -0.3500   0.7063   0.7983
     0.9711   1.1246   1.4276   1.5222   1.8579   1.9328   4.6620   4.8153
     4.8355   4.9745

     occupation numbers 
     1.0000   1.0000   1.0000   1.0000   1.0000   1.0000   1.0000   1.0000
     1.0000   1.0000   1.0000   1.0000   1.0000   1.0000   1.0000   1.0000
     1.0000   1.0000   1.0000   1.0000   1.0000   1.0000   1.0000   1.0000
     1.0000   1.0000

          k =-0.1406-0.4217 0.7029 ( 10070 PWs)   bands (ev):

  -107.5056-107.5056 -69.4948 -69.4948 -51.2242 -51.2241 -51.2240 -51.2240
    -4.0119  -4.0052  -0.7893  -0.7504  -0.6794  -0.3465   0.7497   0.8270
     0.9744   1.1111   1.2874   1.3598   2.0200   2.2355   4.4324   4.5683
     5.1587   5.2420

     occupation numbers 
     1.0000   1.0000   1.0000   1.0000   1.0000   1.0000   1.0000   1.0000
     1.0000   1.0000   1.0000   1.0000   1.0000   1.0000   1.0000   1.0000
     1.0000   1.0000   1.0000   1.0000   1.0000   1.0000   1.0000   1.0000
     1.0000   1.0000

          k =-0.0703-0.3515 0.6326 ( 10072 PWs)   bands (ev):

  -107.5056-107.5056 -69.4948 -69.4948 -51.2242 -51.2241 -51.2241 -51.2240
    -3.9822  -3.9744  -0.7715  -0.7409  -0.6833  -0.3012   0.7595   0.8627
     1.0181   1.1249   1.3620   1.5108   1.7715   2.0213   4.3451   4.4704
     5.0202   5.0611

     occupation numbers 
     1.0000   1.0000   1.0000   1.0000   1.0000   1.0000   1.0000   1.0000
     1.0000   1.0000   1.0000   1.0000   1.0000   1.0000   1.0000   1.0000
     1.0000   1.0000   1.0000   1.0000   1.0000   1.0000   1.0000   1.0000
     1.0000   1.0000

          k =-0.7029 0.2812 0.0000 ( 10082 PWs)   bands (ev):

  -107.5056-107.5056 -69.4948 -69.4948 -51.2242 -51.2241 -51.2241 -51.2240
    -3.9636  -3.9556  -0.7725  -0.7172  -0.6852  -0.2906   0.7538   0.9347
     0.9356   1.1321   1.3992   1.6076   1.7396   1.9015   4.4382   4.6557
     4.7149   4.8073

     occupation numbers 
     1.0000   1.0000   1.0000   1.0000   1.0000   1.0000   1.0000   1.0000
     1.0000   1.0000   1.0000   1.0000   1.0000   1.0000   1.0000   1.0000
     1.0000   1.0000   1.0000   1.0000   1.0000   1.0000   1.0000   1.0000
     1.0000   1.0000

     highest occupied level (ev):     7.4553

!    total energy              =    -346.73899995 Ry
     estimated scf accuracy    <          6.9E-12 Ry

     The total energy is the sum of the following terms:
     one-electron contribution =    -229.13944144 Ry
     hartree contribution      =     116.86713337 Ry
     xc contribution           =     -55.82414454 Ry
     ewald contribution        =    -178.64254735 Ry

     convergence has been achieved in   9 iterations

     Forces acting on atoms (cartesian axes, Ry/au):

     atom    1 type  1   force =    -0.00000000    0.00000000    0.00000000
     atom    2 type  2   force =     0.00000000    0.00000000    0.00000000
     The non-local contrib.  to forces
     atom    1 type  1   force =     0.00000000    0.00000000   -0.00000000
     atom    2 type  2   force =    -0.00000000    0.00000000   -0.00000000
     The ionic contribution  to forces
     atom    1 type  1   force =    -0.00000000    0.00000000   -0.00000000
     atom    2 type  2   force =     0.00000000   -0.00000000    0.00000000
     The local contribution  to forces
     atom    1 type  1   force =    -0.00000000   -0.00000000    0.00000000
     atom    2 type  2   force =     0.00000000    0.00000000   -0.00000000
     The core correction contribution to forces
     atom    1 type  1   force =     0.00000000   -0.00000000   -0.00000000
     atom    2 type  2   force =     0.00000000    0.00000000   -0.00000000
     The Hubbard contrib.    to forces
     atom    1 type  1   force =     0.00000000    0.00000000    0.00000000
     atom    2 type  2   force =     0.00000000    0.00000000    0.00000000
     The SCF correction term to forces
     atom    1 type  1   force =    -0.00000000   -0.00000000    0.00000000
     atom    2 type  2   force =     0.00000000    0.00000000   -0.00000000

     Total force =     0.000000     Total SCF correction =     0.000000


     Computing stress (Cartesian axis) and pressure

          total   stress  (Ry/bohr**3)                   (kbar)     P=       26.20
   0.00017810   0.00000000   0.00000000           26.20        0.00        0.00
   0.00000000   0.00017810   0.00000000            0.00       26.20        0.00
   0.00000000   0.00000000   0.00017810            0.00        0.00       26.20

     kinetic stress (kbar)  26622.68      0.00     -0.00
                                0.00  26622.68     -0.00
                               -0.00     -0.00  26622.68

     local   stress (kbar) -25845.62     -0.00      0.00
                               -0.00 -25845.62     -0.00
                                0.00     -0.00 -25845.62

     nonloc. stress (kbar)  10035.33     -0.00      0.00
                               -0.00  10035.33      0.00
                                0.00      0.00  10035.33

     hartree stress (kbar)  12416.81     -0.00      0.00
                               -0.00  12416.81     -0.00
                                0.00     -0.00  12416.81

     exc-cor stress (kbar)   3579.55      0.00     -0.00
                                0.00   3579.55     -0.00
                               -0.00     -0.00   3579.55

     corecor stress (kbar)  -7802.28     -0.00      0.00
                               -0.00  -7802.28      0.00
                                0.00      0.00  -7802.28

     ewald   stress (kbar) -18980.28     -0.00      0.00
                               -0.00 -18980.28     -0.00
                                0.00     -0.00 -18980.28

     hubbard stress (kbar)      0.00      0.00      0.00
                                0.00      0.00      0.00
                                0.00      0.00      0.00

     DFT-D   stress (kbar)      0.00      0.00      0.00
                                0.00      0.00      0.00
                                0.00      0.00      0.00

     XDM     stress (kbar)      0.00      0.00      0.00
                                0.00      0.00      0.00
                                0.00      0.00      0.00

     dft-nl  stress (kbar)      0.00      0.00      0.00
                                0.00      0.00      0.00
                                0.00      0.00      0.00

     TS-vdW  stress (kbar)      0.00      0.00      0.00
                                0.00      0.00      0.00
                                0.00      0.00      0.00

     MDB     stress (kbar)      0.00      0.00      0.00
                                0.00      0.00      0.00
                                0.00      0.00      0.00

     3D-RISM stress (kbar)      0.00      0.00      0.00
                                0.00      0.00      0.00
                                0.00      0.00      0.00

     Energy error            =      1.7E-03 Ry
     Gradient error          =      3.7E-31 Ry/Bohr
     Cell gradient error     =      2.6E+01 kbar

     number of scf cycles    =   2
     number of bfgs steps    =   1

     enthalpy           old  =    -346.7372976776 Ry
     enthalpy           new  =    -346.7389999522 Ry

     CASE: enthalpy          _new < enthalpy          _old

     new trust radius        =       0.0280912828 bohr
     new conv_thr            =            1.0E-12 Ry

     new unit-cell volume =    470.62955 a.u.^3 (    69.74010 Ang^3 )
     density =      7.81438 g/cm^3

CELL_PARAMETERS (angstrom)
   0.000000000   3.267013014   3.267013014
   3.267013014   0.000000000   3.267013014
   3.267013014   3.267013014   0.000000000

ATOMIC_POSITIONS (crystal)
Hg              -0.0000000000        0.0000000000       -0.0000000000
Te               0.2500000000        0.2500000000        0.2500000000



     Writing config-only to output data dir /home/User/opencode_workspace/DFT/calculations/hgte/relax_soc/out/pwscf.save/ :
     XML data file
     NEW-OLD atomic charge density approx. for the potential
     New effective cutoffs (rho, wfc):  702.25  117.04

     total cpu time spent up to now is     1231.1 secs

     per-process dynamical memory:   148.3 Mb

     Self-consistent Calculation

     iteration #  1     ecut=   120.00 Ry     beta= 0.30
     Davidson diagonalization with overlap

---- Real-time Memory Report at c_bands before calling an iterative solver
           435 MiB given to the printing process from OS
           144 MiB allocation reported by mallinfo(arena+hblkhd)
         10644 MiB available memory on the node where the printing process lives
------------------
     ethr =  1.00E-06,  avg # of iterations =  6.1

     Threshold (ethr) on eigenvalues was too large:
     Diagonalizing with lowered threshold

     Davidson diagonalization with overlap

---- Real-time Memory Report at c_bands before calling an iterative solver
           435 MiB given to the printing process from OS
           147 MiB allocation reported by mallinfo(arena+hblkhd)
         10803 MiB available memory on the node where the printing process lives
------------------
     ethr =  9.20E-09,  avg # of iterations =  5.6

     total cpu time spent up to now is     1259.7 secs

     total energy              =    -346.74033955 Ry
     estimated scf accuracy    <       0.00000243 Ry

     iteration #  2     ecut=   120.00 Ry     beta= 0.30
     Davidson diagonalization with overlap

---- Real-time Memory Report at c_bands before calling an iterative solver
           435 MiB given to the printing process from OS
           158 MiB allocation reported by mallinfo(arena+hblkhd)
         10570 MiB available memory on the node where the printing process lives
------------------
     ethr =  9.34E-09,  avg # of iterations =  1.2

     total cpu time spent up to now is     1267.2 secs

     total energy              =    -346.74033955 Ry
     estimated scf accuracy    <       0.00000095 Ry

     iteration #  3     ecut=   120.00 Ry     beta= 0.30
     Davidson diagonalization with overlap

---- Real-time Memory Report at c_bands before calling an iterative solver
           435 MiB given to the printing process from OS
           159 MiB allocation reported by mallinfo(arena+hblkhd)
         10564 MiB available memory on the node where the printing process lives
------------------
     ethr =  3.64E-09,  avg # of iterations =  2.0

     total cpu time spent up to now is     1275.7 secs

     total energy              =    -346.74033968 Ry
     estimated scf accuracy    <       0.00000011 Ry

     iteration #  4     ecut=   120.00 Ry     beta= 0.30
     Davidson diagonalization with overlap

---- Real-time Memory Report at c_bands before calling an iterative solver
           435 MiB given to the printing process from OS
           161 MiB allocation reported by mallinfo(arena+hblkhd)
         10567 MiB available memory on the node where the printing process lives
------------------
     ethr =  4.15E-10,  avg # of iterations =  2.6

     total cpu time spent up to now is     1284.9 secs

     total energy              =    -346.74033971 Ry
     estimated scf accuracy    <       0.00000001 Ry

     iteration #  5     ecut=   120.00 Ry     beta= 0.30
     Davidson diagonalization with overlap

---- Real-time Memory Report at c_bands before calling an iterative solver
           435 MiB given to the printing process from OS
           162 MiB allocation reported by mallinfo(arena+hblkhd)
         10582 MiB available memory on the node where the printing process lives
------------------
     ethr =  4.28E-11,  avg # of iterations =  3.5

     total cpu time spent up to now is     1294.6 secs

     total energy              =    -346.74033971 Ry
     estimated scf accuracy    <          3.9E-09 Ry

     iteration #  6     ecut=   120.00 Ry     beta= 0.30
     Davidson diagonalization with overlap

---- Real-time Memory Report at c_bands before calling an iterative solver
           435 MiB given to the printing process from OS
           164 MiB allocation reported by mallinfo(arena+hblkhd)
         10691 MiB available memory on the node where the printing process lives
------------------
     ethr =  1.49E-11,  avg # of iterations =  3.9

     total cpu time spent up to now is     1307.3 secs

     total energy              =    -346.74033971 Ry
     estimated scf accuracy    <          1.9E-09 Ry

     iteration #  7     ecut=   120.00 Ry     beta= 0.30
     Davidson diagonalization with overlap

---- Real-time Memory Report at c_bands before calling an iterative solver
           435 MiB given to the printing process from OS
           166 MiB allocation reported by mallinfo(arena+hblkhd)
         10640 MiB available memory on the node where the printing process lives
------------------
     ethr =  7.14E-12,  avg # of iterations =  2.0

     total cpu time spent up to now is     1315.8 secs

     total energy              =    -346.74033972 Ry
     estimated scf accuracy    <          2.4E-10 Ry

     iteration #  8     ecut=   120.00 Ry     beta= 0.30
     Davidson diagonalization with overlap

---- Real-time Memory Report at c_bands before calling an iterative solver
           435 MiB given to the printing process from OS
           167 MiB allocation reported by mallinfo(arena+hblkhd)
         10532 MiB available memory on the node where the printing process lives
------------------
     ethr =  9.05E-13,  avg # of iterations =  5.1

     total cpu time spent up to now is     1326.8 secs

     total energy              =    -346.74033972 Ry
     estimated scf accuracy    <          2.7E-10 Ry

     iteration #  9     ecut=   120.00 Ry     beta= 0.30
     Davidson diagonalization with overlap

---- Real-time Memory Report at c_bands before calling an iterative solver
           435 MiB given to the printing process from OS
           169 MiB allocation reported by mallinfo(arena+hblkhd)
         10523 MiB available memory on the node where the printing process lives
------------------
     ethr =  9.05E-13,  avg # of iterations =  2.0

     total cpu time spent up to now is     1335.7 secs

     total energy              =    -346.74033972 Ry
     estimated scf accuracy    <          1.4E-11 Ry

     iteration # 10     ecut=   120.00 Ry     beta= 0.30
     Davidson diagonalization with overlap

---- Real-time Memory Report at c_bands before calling an iterative solver
           436 MiB given to the printing process from OS
           171 MiB allocation reported by mallinfo(arena+hblkhd)
         10516 MiB available memory on the node where the printing process lives
------------------
     ethr =  1.00E-13,  avg # of iterations =  4.1

     total cpu time spent up to now is     1345.9 secs

     total energy              =    -346.74033972 Ry
     estimated scf accuracy    <          5.2E-12 Ry

     iteration # 11     ecut=   120.00 Ry     beta= 0.30
     Davidson diagonalization with overlap

---- Real-time Memory Report at c_bands before calling an iterative solver
           436 MiB given to the printing process from OS
           171 MiB allocation reported by mallinfo(arena+hblkhd)
         10549 MiB available memory on the node where the printing process lives
------------------
     ethr =  1.00E-13,  avg # of iterations =  1.0

     total cpu time spent up to now is     1353.5 secs

     total energy              =    -346.74033972 Ry
     estimated scf accuracy    <          2.4E-12 Ry

     iteration # 12     ecut=   120.00 Ry     beta= 0.30
     Davidson diagonalization with overlap

---- Real-time Memory Report at c_bands before calling an iterative solver
           436 MiB given to the printing process from OS
           171 MiB allocation reported by mallinfo(arena+hblkhd)
         10701 MiB available memory on the node where the printing process lives
------------------
     ethr =  1.00E-13,  avg # of iterations =  1.0

     total cpu time spent up to now is     1361.8 secs

     End of self-consistent calculation

          k = 0.0000 0.0000 0.0000 ( 10081 PWs)   bands (ev):

  -107.7084-107.7084 -69.6976 -69.6976 -51.4265 -51.4265 -51.4265 -51.4265
    -4.8420  -4.8420  -1.0718  -1.0718  -1.0718  -1.0718   0.3200   0.3200
     0.7809   0.7809   0.7809   0.7809   6.1287   6.1287   6.3969   6.3969
     7.1711   7.1711

     occupation numbers 
     1.0000   1.0000   1.0000   1.0000   1.0000   1.0000   1.0000   1.0000
     1.0000   1.0000   1.0000   1.0000   1.0000   1.0000   1.0000   1.0000
     1.0000   1.0000   1.0000   1.0000   1.0000   1.0000   1.0000   1.0000
     1.0000   1.0000

          k = 0.0698 0.0698-0.0698 (  9991 PWs)   bands (ev):

  -107.7084-107.7084 -69.6976 -69.6976 -51.4265 -51.4265 -51.4265 -51.4265
    -4.7957  -4.7957  -1.0828  -1.0550  -1.0533  -1.0533   0.3347   0.3347
     0.7658   0.7738   0.7738   0.8185   5.3427   5.3427   6.4804   6.4804
     7.0335   7.0922

     occupation numbers 
     1.0000   1.0000   1.0000   1.0000   1.0000   1.0000   1.0000   1.0000
     1.0000   1.0000   1.0000   1.0000   1.0000   1.0000   1.0000   1.0000
     1.0000   1.0000   1.0000   1.0000   1.0000   1.0000   1.0000   1.0000
     1.0000   1.0000

          k = 0.1397 0.1397-0.1397 ( 10033 PWs)   bands (ev):

  -107.7084-107.7084 -69.6976 -69.6976 -51.4265 -51.4265 -51.4265 -51.4265
    -4.6710  -4.6710  -1.0844  -1.0393  -0.9941  -0.9941   0.3800   0.3800
     0.7610   0.7610   0.7798   0.8665   4.2194   4.2194   6.2542   6.2542
     6.7599   6.8502

     occupation numbers 
     1.0000   1.0000   1.0000   1.0000   1.0000   1.0000   1.0000   1.0000
     1.0000   1.0000   1.0000   1.0000   1.0000   1.0000   1.0000   1.0000
     1.0000   1.0000   1.0000   1.0000   1.0000   1.0000   1.0000   1.0000
     1.0000   1.0000

          k = 0.2095 0.2095-0.2095 ( 10056 PWs)   bands (ev):

  -107.7084-107.7084 -69.6976 -69.6976 -51.4266 -51.4266 -51.4265 -51.4265
    -4.5095  -4.5095  -1.0767  -1.0317  -0.8907  -0.8907   0.4501   0.4501
     0.7782   0.7782   0.8207   0.9093   3.1088   3.1088   5.9770   5.9770
     6.4790   6.5662

     occupation numbers 
     1.0000   1.0000   1.0000   1.0000   1.0000   1.0000   1.0000   1.0000
     1.0000   1.0000   1.0000   1.0000   1.0000   1.0000   1.0000   1.0000
     1.0000   1.0000   1.0000   1.0000   1.0000   1.0000   1.0000   1.0000
     1.0000   1.0000

          k = 0.2793 0.2793-0.2793 ( 10047 PWs)   bands (ev):

  -107.7084-107.7084 -69.6976 -69.6976 -51.4267 -51.4267 -51.4265 -51.4265
    -4.3726  -4.3726  -1.0629  -1.0351  -0.7683  -0.7683   0.5037   0.5037
     0.8739   0.9174   0.9174   0.9297   2.1640   2.1640   5.7708   5.7708
     6.2877   6.3407

     occupation numbers 
     1.0000   1.0000   1.0000   1.0000   1.0000   1.0000   1.0000   1.0000
     1.0000   1.0000   1.0000   1.0000   1.0000   1.0000   1.0000   1.0000
     1.0000   1.0000   1.0000   1.0000   1.0000   1.0000   1.0000   1.0000
     1.0000   1.0000

          k =-0.3492-0.3492 0.3492 ( 10002 PWs)   bands (ev):

  -107.7084-107.7084 -69.6976 -69.6976 -51.4267 -51.4267 -51.4265 -51.4265
    -4.3189  -4.3189  -1.0472  -1.0472  -0.7080  -0.7080   0.5161   0.5161
     0.9166   0.9166   1.1436   1.1436   1.6414   1.6414   5.6955   5.6955
     6.2382   6.2382

     occupation numbers 
     1.0000   1.0000   1.0000   1.0000   1.0000   1.0000   1.0000   1.0000
     1.0000   1.0000   1.0000   1.0000   1.0000   1.0000   1.0000   1.0000
     1.0000   1.0000   1.0000   1.0000   1.0000   1.0000   1.0000   1.0000
     1.0000   1.0000

          k = 0.1397 0.0000 0.0000 ( 10005 PWs)   bands (ev):

  -107.7084-107.7084 -69.6976 -69.6976 -51.4265 -51.4265 -51.4265 -51.4265
    -4.7802  -4.7802  -1.0707  -1.0707  -1.0445  -1.0445   0.3390   0.3390
     0.7603   0.7603   0.8074   0.8074   5.2558   5.2558   6.3626   6.3626
     6.8189   6.8189

     occupation numbers 
     1.0000   1.0000   1.0000   1.0000   1.0000   1.0000   1.0000   1.0000
     1.0000   1.0000   1.0000   1.0000   1.0000   1.0000   1.0000   1.0000
     1.0000   1.0000   1.0000   1.0000   1.0000   1.0000   1.0000   1.0000
     1.0000   1.0000

          k = 0.2095 0.0698-0.0698 ( 10030 PWs)   bands (ev):

  -107.7084-107.7084 -69.6976 -69.6976 -51.4265 -51.4265 -51.4265 -51.4265
    -4.6815  -4.6814  -1.0758  -1.0345  -1.0252  -0.9928   0.3708   0.3751
     0.7442   0.7681   0.7956   0.8562   4.4394   4.4417   6.0978   6.1299
     6.4843   6.5634

     occupation numbers 
     1.0000   1.0000   1.0000   1.0000   1.0000   1.0000   1.0000   1.0000
     1.0000   1.0000   1.0000   1.0000   1.0000   1.0000   1.0000   1.0000
     1.0000   1.0000   1.0000   1.0000   1.0000   1.0000   1.0000   1.0000
     1.0000   1.0000

          k = 0.2793 0.1397-0.1397 ( 10040 PWs)   bands (ev):

  -107.7084-107.7084 -69.6976 -69.6976 -51.4266 -51.4266 -51.4265 -51.4265
    -4.5318  -4.5311  -1.0705  -1.0199  -0.9523  -0.8924   0.4317   0.4411
     0.7380   0.7985   0.8063   0.9065   3.4051   3.4246   5.7860   5.8265
     6.1749   6.2726

     occupation numbers 
     1.0000   1.0000   1.0000   1.0000   1.0000   1.0000   1.0000   1.0000
     1.0000   1.0000   1.0000   1.0000   1.0000   1.0000   1.0000   1.0000
     1.0000   1.0000   1.0000   1.0000   1.0000   1.0000   1.0000   1.0000
     1.0000   1.0000

          k = 0.3492 0.2095-0.2095 ( 10057 PWs)   bands (ev):

  -107.7084-107.7084 -69.6976 -69.6976 -51.4267 -51.4267 -51.4265 -51.4265
    -4.3859  -4.3843  -1.0579  -1.0194  -0.8487  -0.7570   0.4963   0.5098
     0.8058   0.8494   0.8979   0.9475   2.4299   2.4758   5.5215   5.5588
     5.9621   6.0294

     occupation numbers 
     1.0000   1.0000   1.0000   1.0000   1.0000   1.0000   1.0000   1.0000
     1.0000   1.0000   1.0000   1.0000   1.0000   1.0000   1.0000   1.0000
     1.0000   1.0000   1.0000   1.0000   1.0000   1.0000   1.0000   1.0000
     1.0000   1.0000

          k =-0.2793-0.4190 0.4190 ( 10068 PWs)   bands (ev):

  -107.7084-107.7084 -69.6976 -69.6976 -51.4267 -51.4267 -51.4265 -51.4265
    -4.3039  -4.3015  -1.0422  -1.0291  -0.7722  -0.6565   0.5179   0.5395
     0.8992   0.9088   1.0813   1.1213   1.7199   1.8029   5.3524   5.3854
     5.9181   5.9311

     occupation numbers 
     1.0000   1.0000   1.0000   1.0000   1.0000   1.0000   1.0000   1.0000
     1.0000   1.0000   1.0000   1.0000   1.0000   1.0000   1.0000   1.0000
     1.0000   1.0000   1.0000   1.0000   1.0000   1.0000   1.0000   1.0000
     1.0000   1.0000

          k =-0.2095-0.3492 0.3492 ( 10065 PWs)   bands (ev):

  -107.7084-107.7084 -69.6976 -69.6976 -51.4267 -51.4267 -51.4265 -51.4265
    -4.3218  -4.3195  -1.0447  -1.0285  -0.7900  -0.6786   0.5122   0.5394
     0.8839   0.9102   0.9900   1.0446   1.9012   1.9848   5.3140   5.3515
     6.0105   6.0475

     occupation numbers 
     1.0000   1.0000   1.0000   1.0000   1.0000   1.0000   1.0000   1.0000
     1.0000   1.0000   1.0000   1.0000   1.0000   1.0000   1.0000   1.0000
     1.0000   1.0000   1.0000   1.0000   1.0000   1.0000   1.0000   1.0000
     1.0000   1.0000

          k =-0.1397-0.2793 0.2793 ( 10056 PWs)   bands (ev):

  -107.7084-107.7084 -69.6976 -69.6976 -51.4267 -51.4266 -51.4265 -51.4265
    -4.4316  -4.4302  -1.0609  -1.0224  -0.8839  -0.8009   0.4738   0.5003
     0.7865   0.8130   0.8443   0.9385   2.7278   2.7838   5.4372   5.4825
     6.2369   6.3057

     occupation numbers 
     1.0000   1.0000   1.0000   1.0000   1.0000   1.0000   1.0000   1.0000
     1.0000   1.0000   1.0000   1.0000   1.0000   1.0000   1.0000   1.0000
     1.0000   1.0000   1.0000   1.0000   1.0000   1.0000   1.0000   1.0000
     1.0000   1.0000

          k =-0.0698-0.2095 0.2095 ( 10042 PWs)   bands (ev):

  -107.7084-107.7084 -69.6976 -69.6976 -51.4266 -51.4266 -51.4265 -51.4265
    -4.5858  -4.5852  -1.0735  -1.0273  -0.9794  -0.9284   0.4068   0.4233
     0.7464   0.7723   0.7941   0.8947   3.7320   3.7621   5.7335   5.7797
     6.5348   6.6129

     occupation numbers 
     1.0000   1.0000   1.0000   1.0000   1.0000   1.0000   1.0000   1.0000
     1.0000   1.0000   1.0000   1.0000   1.0000   1.0000   1.0000   1.0000
     1.0000   1.0000   1.0000   1.0000   1.0000   1.0000   1.0000   1.0000
     1.0000   1.0000

          k = 0.0000-0.1397 0.1397 ( 10043 PWs)   bands (ev):

  -107.7084-107.7084 -69.6976 -69.6976 -51.4265 -51.4265 -51.4265 -51.4265
    -4.7232  -4.7231  -1.0806  -1.0416  -1.0371  -1.0126   0.3565   0.3623
     0.7558   0.7685   0.7775   0.8477   4.7001   4.7080   6.1707   6.2065
     6.8091   6.8748

     occupation numbers 
     1.0000   1.0000   1.0000   1.0000   1.0000   1.0000   1.0000   1.0000
     1.0000   1.0000   1.0000   1.0000   1.0000   1.0000   1.0000   1.0000
     1.0000   1.0000   1.0000   1.0000   1.0000   1.0000   1.0000   1.0000
     1.0000   1.0000

          k = 0.2793 0.0000 0.0000 ( 10057 PWs)   bands (ev):

  -107.7084-107.7084 -69.6976 -69.6976 -51.4266 -51.4266 -51.4265 -51.4265
    -4.6132  -4.6132  -1.0478  -1.0478  -0.9805  -0.9805   0.3919   0.3919
     0.7489   0.7489   0.8488   0.8488   4.1636   4.1636   5.8324   5.8324
     6.1153   6.1153

     occupation numbers 
     1.0000   1.0000   1.0000   1.0000   1.0000   1.0000   1.0000   1.0000
     1.0000   1.0000   1.0000   1.0000   1.0000   1.0000   1.0000   1.0000
     1.0000   1.0000   1.0000   1.0000   1.0000   1.0000   1.0000   1.0000
     1.0000   1.0000

          k = 0.3492 0.0698-0.0698 ( 10061 PWs)   bands (ev):

  -107.7084-107.7084 -69.6976 -69.6976 -51.4266 -51.4266 -51.4265 -51.4265
    -4.4891  -4.4884  -1.0486  -1.0029  -0.9587  -0.8853   0.4376   0.4415
     0.7283   0.7889   0.8501   0.9100   3.4599   3.4772   5.4693   5.5214
     5.7316   5.8233

     occupation numbers 
     1.0000   1.0000   1.0000   1.0000   1.0000   1.0000   1.0000   1.0000
     1.0000   1.0000   1.0000   1.0000   1.0000   1.0000   1.0000   1.0000
     1.0000   1.0000   1.0000   1.0000   1.0000   1.0000   1.0000   1.0000
     1.0000   1.0000

          k = 0.4190 0.1397-0.1397 ( 10068 PWs)   bands (ev):

  -107.7084-107.7084 -69.6976 -69.6976 -51.4267 -51.4267 -51.4265 -51.4265
    -4.3539  -4.3515  -1.0393  -0.9789  -0.9004  -0.7479   0.5072   0.5110
     0.7389   0.8479   0.9112   0.9674   2.6289   2.6901   5.0884   5.1217
     5.5261   5.5862

     occupation numbers 
     1.0000   1.0000   1.0000   1.0000   1.0000   1.0000   1.0000   1.0000
     1.0000   1.0000   1.0000   1.0000   1.0000   1.0000   1.0000   1.0000
     1.0000   1.0000   1.0000   1.0000   1.0000   1.0000   1.0000   1.0000
     1.0000   1.0000

          k =-0.2095-0.4888 0.4888 ( 10061 PWs)   bands (ev):

  -107.7084-107.7084 -69.6976 -69.6976 -51.4267 -51.4267 -51.4266 -51.4266
    -4.2613  -4.2571  -1.0252  -0.9822  -0.8337  -0.6216   0.5546   0.5562
     0.8436   0.8906   1.0454   1.0968   1.9061   2.0364   4.7548   4.7852
     5.5206   5.5252

     occupation numbers 
     1.0000   1.0000   1.0000   1.0000   1.0000   1.0000   1.0000   1.0000
     1.0000   1.0000   1.0000   1.0000   1.0000   1.0000   1.0000   1.0000
     1.0000   1.0000   1.0000   1.0000   1.0000   1.0000   1.0000   1.0000
     1.0000   1.0000

          k =-0.1397-0.4190 0.4190 ( 10066 PWs)   bands (ev):

  -107.7084-107.7084 -69.6976 -69.6976 -51.4268 -51.4267 -51.4266 -51.4266
    -4.2503  -4.2455  -1.0122  -0.9977  -0.8230  -0.5962   0.5516   0.5779
     0.8925   0.9098   1.0684   1.1438   1.7338   1.9340   4.5669   4.6197
     5.6554   5.6942

     occupation numbers 
     1.0000   1.0000   1.0000   1.0000   1.0000   1.0000   1.0000   1.0000
     1.0000   1.0000   1.0000   1.0000   1.0000   1.0000   1.0000   1.0000
     1.0000   1.0000   1.0000   1.0000   1.0000   1.0000   1.0000   1.0000
     1.0000   1.0000

          k =-0.0698-0.3492 0.3492 ( 10066 PWs)   bands (ev):

  -107.7084-107.7084 -69.6976 -69.6976 -51.4267 -51.4266 -51.4266 -51.4265
    -4.3253  -4.3216  -1.0202  -1.0064  -0.8758  -0.6890   0.5216   0.5678
     0.8310   0.8461   0.8824   0.9972   2.3283   2.4867   4.6198   4.6946
     5.9293   5.9967

     occupation numbers 
     1.0000   1.0000   1.0000   1.0000   1.0000   1.0000   1.0000   1.0000
     1.0000   1.0000   1.0000   1.0000   1.0000   1.0000   1.0000   1.0000
     1.0000   1.0000   1.0000   1.0000   1.0000   1.0000   1.0000   1.0000
     1.0000   1.0000

          k = 0.0000-0.2793 0.2793 ( 10071 PWs)   bands (ev):

  -107.7084-107.7084 -69.6976 -69.6976 -51.4267 -51.4266 -51.4265 -51.4265
    -4.4544  -4.4526  -1.0477  -1.0121  -0.9405  -0.8222   0.4599   0.4997
     0.7538   0.7808   0.8280   0.9411   3.0770   3.1708   5.0126   5.0840
     6.2588   6.3383

     occupation numbers 
     1.0000   1.0000   1.0000   1.0000   1.0000   1.0000   1.0000   1.0000
     1.0000   1.0000   1.0000   1.0000   1.0000   1.0000   1.0000   1.0000
     1.0000   1.0000   1.0000   1.0000   1.0000   1.0000   1.0000   1.0000
     1.0000   1.0000

          k = 0.4190 0.0000 0.0000 ( 10077 PWs)   bands (ev):

  -107.7084-107.7084 -69.6976 -69.6976 -51.4267 -51.4267 -51.4265 -51.4265
    -4.3957  -4.3957  -1.0147  -1.0147  -0.8702  -0.8702   0.4611   0.4611
     0.7679   0.7679   0.9208   0.9208   3.1245   3.1245   5.2453   5.2453
     5.4461   5.4461

     occupation numbers 
     1.0000   1.0000   1.0000   1.0000   1.0000   1.0000   1.0000   1.0000
     1.0000   1.0000   1.0000   1.0000   1.0000   1.0000   1.0000   1.0000
     1.0000   1.0000   1.0000   1.0000   1.0000   1.0000   1.0000   1.0000
     1.0000   1.0000

          k = 0.4888 0.0698-0.0698 ( 10075 PWs)   bands (ev):

  -107.7084-107.7084 -69.6976 -69.6976 -51.4267 -51.4267 -51.4266 -51.4266
    -4.2873  -4.2852  -1.0150  -0.9721  -0.8548  -0.7361   0.4993   0.5192
     0.7491   0.8483   0.9675   0.9966   2.5513   2.5946   4.8919   4.9435
     5.1549   5.2267

     occupation numbers 
     1.0000   1.0000   1.0000   1.0000   1.0000   1.0000   1.0000   1.0000
     1.0000   1.0000   1.0000   1.0000   1.0000   1.0000   1.0000   1.0000
     1.0000   1.0000   1.0000   1.0000   1.0000   1.0000   1.0000   1.0000
     1.0000   1.0000

          k =-0.1397-0.5587 0.5587 ( 10067 PWs)   bands (ev):

  -107.7084-107.7084 -69.6976 -69.6976 -51.4268 -51.4267 -51.4266 -51.4266
    -4.2058  -4.2009  -1.0073  -0.9350  -0.8497  -0.6013   0.5427   0.6031
     0.7722   0.9074   1.0779   1.1212   1.9713   2.0944   4.4654   4.4966
     5.1334   5.1478

     occupation numbers 
     1.0000   1.0000   1.0000   1.0000   1.0000   1.0000   1.0000   1.0000
     1.0000   1.0000   1.0000   1.0000   1.0000   1.0000   1.0000   1.0000
     1.0000   1.0000   1.0000   1.0000   1.0000   1.0000   1.0000   1.0000
     1.0000   1.0000

          k =-0.0698-0.4888 0.4888 ( 10068 PWs)   bands (ev):

  -107.7084-107.7084 -69.6976 -69.6976 -51.4268 -51.4267 -51.4266 -51.4266
    -4.1842  -4.1776  -0.9988  -0.9282  -0.8580  -0.5400   0.5794   0.6126
     0.8721   0.9322   1.1473   1.2339   1.6292   1.8903   4.1396   4.2011
     5.2807   5.3094

     occupation numbers 
     1.0000   1.0000   1.0000   1.0000   1.0000   1.0000   1.0000   1.0000
     1.0000   1.0000   1.0000   1.0000   1.0000   1.0000   1.0000   1.0000
     1.0000   1.0000   1.0000   1.0000   1.0000   1.0000   1.0000   1.0000
     1.0000   1.0000

          k =-0.0000-0.4190 0.4190 ( 10073 PWs)   bands (ev):

  -107.7084-107.7084 -69.6976 -69.6976 -51.4268 -51.4266 -51.4266 -51.4266
    -4.2304  -4.2245  -0.9971  -0.9655  -0.8676  -0.5831   0.5769   0.5972
     0.9003   0.9121   0.9746   1.0937   1.8955   2.1608   4.1404   4.2319
     5.5724   5.6279

     occupation numbers 
     1.0000   1.0000   1.0000   1.0000   1.0000   1.0000   1.0000   1.0000
     1.0000   1.0000   1.0000   1.0000   1.0000   1.0000   1.0000   1.0000
     1.0000   1.0000   1.0000   1.0000   1.0000   1.0000   1.0000   1.0000
     1.0000   1.0000

          k = 0.5587 0.0000 0.0000 ( 10082 PWs)   bands (ev):

  -107.7084-107.7084 -69.6976 -69.6976 -51.4267 -51.4267 -51.4266 -51.4266
    -4.2107  -4.2107  -0.9871  -0.9871  -0.7328  -0.7328   0.5157   0.5157
     0.8293   0.8293   1.0592   1.0592   2.2357   2.2357   4.8045   4.8045
     4.9885   4.9885

     occupation numbers 
     1.0000   1.0000   1.0000   1.0000   1.0000   1.0000   1.0000   1.0000
     1.0000   1.0000   1.0000   1.0000   1.0000   1.0000   1.0000   1.0000
     1.0000   1.0000   1.0000   1.0000   1.0000   1.0000   1.0000   1.0000
     1.0000   1.0000

          k =-0.0698-0.6285 0.6285 ( 10066 PWs)   bands (ev):

  -107.7084-107.7084 -69.6976 -69.6976 -51.4268 -51.4267 -51.4266 -51.4266
    -4.1580  -4.1547  -0.9925  -0.9536  -0.7607  -0.6070   0.5243   0.5831
     0.7975   0.9075   1.1608   1.1990   1.8457   1.9066   4.5473   4.5957
     4.8494   4.9008

     occupation numbers 
     1.0000   1.0000   1.0000   1.0000   1.0000   1.0000   1.0000   1.0000
     1.0000   1.0000   1.0000   1.0000   1.0000   1.0000   1.0000   1.0000
     1.0000   1.0000   1.0000   1.0000   1.0000   1.0000   1.0000   1.0000
     1.0000   1.0000

          k = 0.0000-0.5587 0.5587 ( 10057 PWs)   bands (ev):

  -107.7084-107.7084 -69.6976 -69.6976 -51.4268 -51.4267 -51.4266 -51.4266
    -4.1483  -4.1422  -0.9937  -0.9171  -0.8253  -0.5361   0.5509   0.6504
     0.8003   0.9393   1.2211   1.3143   1.6049   1.7739   4.2149   4.2548
     4.9963   4.9967

     occupation numbers 
     1.0000   1.0000   1.0000   1.0000   1.0000   1.0000   1.0000   1.0000
     1.0000   1.0000   1.0000   1.0000   1.0000   1.0000   1.0000   1.0000
     1.0000   1.0000   1.0000   1.0000   1.0000   1.0000   1.0000   1.0000
     1.0000   1.0000

          k =-0.6983 0.0000 0.0000 ( 10086 PWs)   bands (ev):

  -107.7084-107.7084 -69.6976 -69.6976 -51.4267 -51.4267 -51.4266 -51.4266
    -4.1379  -4.1379  -0.9766  -0.9766  -0.6618  -0.6618   0.5357   0.5357
     0.8671   0.8671   1.2437   1.2437   1.7524   1.7524   4.6398   4.6398
     4.8268   4.8268

     occupation numbers 
     1.0000   1.0000   1.0000   1.0000   1.0000   1.0000   1.0000   1.0000
     1.0000   1.0000   1.0000   1.0000   1.0000   1.0000   1.0000   1.0000
     1.0000   1.0000   1.0000   1.0000   1.0000   1.0000   1.0000   1.0000
     1.0000   1.0000

          k = 0.2793 0.1397 0.0000 ( 10051 PWs)   bands (ev):

  -107.7084-107.7084 -69.6976 -69.6976 -51.4266 -51.4266 -51.4265 -51.4265
    -4.5699  -4.5692  -1.0636  -1.0145  -0.9932  -0.9244   0.4089   0.4231
     0.7313   0.7859   0.8038   0.8947   3.7835   3.8152   5.5822   5.6503
     6.2229   6.3195

     occupation numbers 
     1.0000   1.0000   1.0000   1.0000   1.0000   1.0000   1.0000   1.0000
     1.0000   1.0000   1.0000   1.0000   1.0000   1.0000   1.0000   1.0000
     1.0000   1.0000   1.0000   1.0000   1.0000   1.0000   1.0000   1.0000
     1.0000   1.0000

          k = 0.3492 0.2095-0.0698 ( 10065 PWs)   bands (ev):

  -107.7084-107.7084 -69.6976 -69.6976 -51.4267 -51.4266 -51.4265 -51.4265
    -4.4268  -4.4249  -1.0482  -1.0016  -0.9272  -0.8049   0.4725   0.4985
     0.7380   0.8226   0.8399   0.9453   2.9398   3.0148   5.1170   5.1929
     5.9567   6.0480

     occupation numbers 
     1.0000   1.0000   1.0000   1.0000   1.0000   1.0000   1.0000   1.0000
     1.0000   1.0000   1.0000   1.0000   1.0000   1.0000   1.0000   1.0000
     1.0000   1.0000   1.0000   1.0000   1.0000   1.0000   1.0000   1.0000
     1.0000   1.0000

          k =-0.2793-0.4190 0.5587 ( 10076 PWs)   bands (ev):

  -107.7084-107.7084 -69.6976 -69.6976 -51.4267 -51.4267 -51.4266 -51.4265
    -4.3070  -4.3035  -1.0310  -1.0022  -0.8452  -0.6693   0.5279   0.5550
     0.8311   0.8722   0.9619   1.0178   2.1255   2.2474   4.8746   4.9365
     5.7241   5.7864

     occupation numbers 
     1.0000   1.0000   1.0000   1.0000   1.0000   1.0000   1.0000   1.0000
     1.0000   1.0000   1.0000   1.0000   1.0000   1.0000   1.0000   1.0000
     1.0000   1.0000   1.0000   1.0000   1.0000   1.0000   1.0000   1.0000
     1.0000   1.0000

          k =-0.2095-0.3492 0.4888 ( 10064 PWs)   bands (ev):

  -107.7084-107.7084 -69.6976 -69.6976 -51.4268 -51.4267 -51.4266 -51.4266
    -4.2603  -4.2560  -1.0172  -1.0105  -0.8053  -0.6049   0.5418   0.5683
     0.8895   0.9099   1.1105   1.1703   1.6696   1.8360   4.8084   4.8544
     5.6393   5.6717

     occupation numbers 
     1.0000   1.0000   1.0000   1.0000   1.0000   1.0000   1.0000   1.0000
     1.0000   1.0000   1.0000   1.0000   1.0000   1.0000   1.0000   1.0000
     1.0000   1.0000   1.0000   1.0000   1.0000   1.0000   1.0000   1.0000
     1.0000   1.0000

          k = 0.4190 0.1397-0.0000 ( 10079 PWs)   bands (ev):

  -107.7084-107.7084 -69.6976 -69.6976 -51.4267 -51.4266 -51.4266 -51.4265
    -4.3721  -4.3701  -1.0310  -0.9788  -0.9189  -0.7870   0.4860   0.4953
     0.7263   0.8320   0.8883   0.9596   2.8824   2.9450   4.9858   5.1012
     5.4602   5.5830

     occupation numbers 
     1.0000   1.0000   1.0000   1.0000   1.0000   1.0000   1.0000   1.0000
     1.0000   1.0000   1.0000   1.0000   1.0000   1.0000   1.0000   1.0000
     1.0000   1.0000   1.0000   1.0000   1.0000   1.0000   1.0000   1.0000
     1.0000   1.0000

          k =-0.2095-0.4888 0.6285 ( 10082 PWs)   bands (ev):

  -107.7084-107.7084 -69.6976 -69.6976 -51.4267 -51.4267 -51.4266 -51.4266
    -4.2631  -4.2588  -1.0131  -0.9574  -0.8785  -0.6532   0.5433   0.5707
     0.7548   0.8829   0.9965   1.0282   2.2333   2.3621   4.5825   4.6904
     5.2581   5.3486

     occupation numbers 
     1.0000   1.0000   1.0000   1.0000   1.0000   1.0000   1.0000   1.0000
     1.0000   1.0000   1.0000   1.0000   1.0000   1.0000   1.0000   1.0000
     1.0000   1.0000   1.0000   1.0000   1.0000   1.0000   1.0000   1.0000
     1.0000   1.0000

          k =-0.1397-0.4190 0.5587 ( 10061 PWs)   bands (ev):

  -107.7084-107.7084 -69.6976 -69.6976 -51.4268 -51.4267 -51.4266 -51.4266
    -4.2058  -4.1996  -0.9976  -0.9573  -0.8484  -0.5608   0.5739   0.6054
     0.8520   0.9180   1.1091   1.1924   1.7208   1.9340   4.3353   4.4136
     5.2304   5.2731

     occupation numbers 
     1.0000   1.0000   1.0000   1.0000   1.0000   1.0000   1.0000   1.0000
     1.0000   1.0000   1.0000   1.0000   1.0000   1.0000   1.0000   1.0000
     1.0000   1.0000   1.0000   1.0000   1.0000   1.0000   1.0000   1.0000
     1.0000   1.0000

          k =-0.0698-0.3492 0.4888 ( 10072 PWs)   bands (ev):

  -107.7084-107.7084 -69.6976 -69.6976 -51.4268 -51.4267 -51.4266 -51.4266
    -4.2235  -4.2176  -0.9910  -0.9735  -0.8576  -0.5770   0.5737   0.6027
     0.8623   0.9107   1.0411   1.1223   1.8360   2.0729   4.2631   4.3571
     5.3858   5.4458

     occupation numbers 
     1.0000   1.0000   1.0000   1.0000   1.0000   1.0000   1.0000   1.0000
     1.0000   1.0000   1.0000   1.0000   1.0000   1.0000   1.0000   1.0000
     1.0000   1.0000   1.0000   1.0000   1.0000   1.0000   1.0000   1.0000
     1.0000   1.0000

          k = 0.0000-0.2793 0.4190 ( 10056 PWs)   bands (ev):

  -107.7084-107.7084 -69.6976 -69.6976 -51.4267 -51.4266 -51.4266 -51.4266
    -4.3088  -4.3048  -1.0128  -0.9866  -0.8938  -0.6830   0.5338   0.5686
     0.7743   0.8622   0.9084   1.0013   2.3847   2.5509   4.5017   4.6045
     5.6727   5.7565

     occupation numbers 
     1.0000   1.0000   1.0000   1.0000   1.0000   1.0000   1.0000   1.0000
     1.0000   1.0000   1.0000   1.0000   1.0000   1.0000   1.0000   1.0000
     1.0000   1.0000   1.0000   1.0000   1.0000   1.0000   1.0000   1.0000
     1.0000   1.0000

          k =-0.1397-0.5587 0.6983 ( 10086 PWs)   bands (ev):

  -107.7084-107.7084 -69.6976 -69.6976 -51.4267 -51.4267 -51.4266 -51.4266
    -4.2057  -4.2018  -0.9999  -0.9514  -0.8260  -0.6337   0.5289   0.5817
     0.7561   0.8979   1.0708   1.0811   2.1018   2.1893   4.5842   4.7436
     4.8612   5.0100

     occupation numbers 
     1.0000   1.0000   1.0000   1.0000   1.0000   1.0000   1.0000   1.0000
     1.0000   1.0000   1.0000   1.0000   1.0000   1.0000   1.0000   1.0000
     1.0000   1.0000   1.0000   1.0000   1.0000   1.0000   1.0000   1.0000
     1.0000   1.0000

          k =-0.0698-0.4888 0.6285 ( 10068 PWs)   bands (ev):

  -107.7084-107.7084 -69.6976 -69.6976 -51.4268 -51.4267 -51.4266 -51.4266
    -4.1598  -4.1534  -0.9874  -0.9214  -0.8462  -0.5403   0.5615   0.6609
     0.7805   0.9328   1.1602   1.2630   1.7022   1.8636   4.2763   4.3696
     4.8556   4.9030

     occupation numbers 
     1.0000   1.0000   1.0000   1.0000   1.0000   1.0000   1.0000   1.0000
     1.0000   1.0000   1.0000   1.0000   1.0000   1.0000   1.0000   1.0000
     1.0000   1.0000   1.0000   1.0000   1.0000   1.0000   1.0000   1.0000
     1.0000   1.0000

          k = 0.0000-0.4190 0.5587 ( 10068 PWs)   bands (ev):

  -107.7084-107.7084 -69.6976 -69.6976 -51.4268 -51.4267 -51.4266 -51.4266
    -4.1671  -4.1597  -0.9823  -0.9160  -0.8757  -0.5210   0.5837   0.6480
     0.8613   0.9358   1.1597   1.2713   1.5946   1.8685   4.0756   4.1671
     5.0556   5.0931

     occupation numbers 
     1.0000   1.0000   1.0000   1.0000   1.0000   1.0000   1.0000   1.0000
     1.0000   1.0000   1.0000   1.0000   1.0000   1.0000   1.0000   1.0000
     1.0000   1.0000   1.0000   1.0000   1.0000   1.0000   1.0000   1.0000
     1.0000   1.0000

          k =-0.6983 0.1397 0.0000 ( 10052 PWs)   bands (ev):

  -107.7084-107.7084 -69.6976 -69.6976 -51.4268 -51.4267 -51.4266 -51.4266
    -4.1408  -4.1359  -0.9872  -0.9413  -0.7794  -0.5601   0.5380   0.6277
     0.7833   0.9296   1.2193   1.3084   1.6753   1.7523   4.4607   4.6157
     4.6397   4.7775

     occupation numbers 
     1.0000   1.0000   1.0000   1.0000   1.0000   1.0000   1.0000   1.0000
     1.0000   1.0000   1.0000   1.0000   1.0000   1.0000   1.0000   1.0000
     1.0000   1.0000   1.0000   1.0000   1.0000   1.0000   1.0000   1.0000
     1.0000   1.0000

          k =-0.1397-0.4190 0.6983 ( 10070 PWs)   bands (ev):

  -107.7084-107.7084 -69.6976 -69.6976 -51.4268 -51.4267 -51.4266 -51.4266
    -4.1890  -4.1824  -0.9783  -0.9414  -0.8728  -0.5554   0.5757   0.6494
     0.7910   0.9182   1.0904   1.1648   1.8276   2.0357   4.2398   4.3803
     4.9489   5.0316

     occupation numbers 
     1.0000   1.0000   1.0000   1.0000   1.0000   1.0000   1.0000   1.0000
     1.0000   1.0000   1.0000   1.0000   1.0000   1.0000   1.0000   1.0000
     1.0000   1.0000   1.0000   1.0000   1.0000   1.0000   1.0000   1.0000
     1.0000   1.0000

          k =-0.0698-0.3492 0.6285 ( 10072 PWs)   bands (ev):

  -107.7084-107.7084 -69.6976 -69.6976 -51.4268 -51.4267 -51.4266 -51.4266
    -4.1607  -4.1529  -0.9619  -0.9316  -0.8772  -0.5128   0.5850   0.6825
     0.8315   0.9314   1.1614   1.3058   1.5937   1.8321   4.1563   4.2842
     4.8162   4.8559

     occupation numbers 
     1.0000   1.0000   1.0000   1.0000   1.0000   1.0000   1.0000   1.0000
     1.0000   1.0000   1.0000   1.0000   1.0000   1.0000   1.0000   1.0000
     1.0000   1.0000   1.0000   1.0000   1.0000   1.0000   1.0000   1.0000
     1.0000   1.0000

          k =-0.6983 0.2793 0.0000 ( 10082 PWs)   bands (ev):

  -107.7084-107.7084 -69.6976 -69.6976 -51.4268 -51.4267 -51.4266 -51.4266
    -4.1429  -4.1351  -0.9624  -0.9107  -0.8777  -0.5030   0.5803   0.7485
     0.7569   0.9378   1.1953   1.3879   1.5642   1.7242   4.2495   4.4573
     4.5244   4.6120

     occupation numbers 
     1.0000   1.0000   1.0000   1.0000   1.0000   1.0000   1.0000   1.0000
     1.0000   1.0000   1.0000   1.0000   1.0000   1.0000   1.0000   1.0000
     1.0000   1.0000   1.0000   1.0000   1.0000   1.0000   1.0000   1.0000
     1.0000   1.0000

     highest occupied level (ev):     7.1711

!    total energy              =    -346.74033972 Ry
     estimated scf accuracy    <          2.8E-14 Ry

     The total energy is the sum of the following terms:
     one-electron contribution =    -231.09637223 Ry
     hartree contribution      =     117.64447096 Ry
     xc contribution           =     -55.80627576 Ry
     ewald contribution        =    -177.48216269 Ry

     convergence has been achieved in  12 iterations

     Forces acting on atoms (cartesian axes, Ry/au):

     atom    1 type  1   force =     0.00000000    0.00000000    0.00000000
     atom    2 type  2   force =     0.00000000    0.00000000    0.00000000
     The non-local contrib.  to forces
     atom    1 type  1   force =     0.00000000    0.00000000    0.00000000
     atom    2 type  2   force =    -0.00000000   -0.00000000    0.00000000
     The ionic contribution  to forces
     atom    1 type  1   force =    -0.00000000    0.00000000    0.00000000
     atom    2 type  2   force =    -0.00000000   -0.00000000    0.00000000
     The local contribution  to forces
     atom    1 type  1   force =     0.00000000    0.00000000    0.00000000
     atom    2 type  2   force =    -0.00000000    0.00000000   -0.00000000
     The core correction contribution to forces
     atom    1 type  1   force =     0.00000000   -0.00000000   -0.00000000
     atom    2 type  2   force =    -0.00000000   -0.00000000   -0.00000000
     The Hubbard contrib.    to forces
     atom    1 type  1   force =     0.00000000    0.00000000    0.00000000
     atom    2 type  2   force =     0.00000000    0.00000000    0.00000000
     The SCF correction term to forces
     atom    1 type  1   force =     0.00000000    0.00000000   -0.00000000
     atom    2 type  2   force =     0.00000000    0.00000000   -0.00000000

     Total force =     0.000000     Total SCF correction =     0.000000


     Computing stress (Cartesian axis) and pressure

          total   stress  (Ry/bohr**3)                   (kbar)     P=       17.23
   0.00011715  -0.00000000  -0.00000000           17.23       -0.00       -0.00
  -0.00000000   0.00011715  -0.00000000           -0.00       17.23       -0.00
  -0.00000000   0.00000000   0.00011715           -0.00        0.00       17.23

     kinetic stress (kbar)  26098.63     -0.00     -0.00
                               -0.00  26098.63      0.00
                               -0.00      0.00  26098.63

     local   stress (kbar) -25547.12      0.00      0.00
                                0.00 -25547.12      0.00
                                0.00      0.00 -25547.12

     nonloc. stress (kbar)   9839.56      0.00      0.00
                                0.00   9839.56     -0.00
                               -0.00     -0.00   9839.56

     hartree stress (kbar)  12257.41     -0.00      0.00
                               -0.00  12257.41     -0.00
                                0.00     -0.00  12257.41

     exc-cor stress (kbar)   3511.49      0.00     -0.00
                                0.00   3511.49     -0.00
                               -0.00     -0.00   3511.49

     corecor stress (kbar)  -7650.83     -0.00      0.00
                               -0.00  -7650.83      0.00
                                0.00      0.00  -7650.83

     ewald   stress (kbar) -18491.92     -0.00     -0.00
                               -0.00 -18491.92      0.00
                               -0.00      0.00 -18491.92

     hubbard stress (kbar)      0.00      0.00      0.00
                                0.00      0.00      0.00
                                0.00      0.00      0.00

     DFT-D   stress (kbar)      0.00      0.00      0.00
                                0.00      0.00      0.00
                                0.00      0.00      0.00

     XDM     stress (kbar)      0.00      0.00      0.00
                                0.00      0.00      0.00
                                0.00      0.00      0.00

     dft-nl  stress (kbar)      0.00      0.00      0.00
                                0.00      0.00      0.00
                                0.00      0.00      0.00

     TS-vdW  stress (kbar)      0.00      0.00      0.00
                                0.00      0.00      0.00
                                0.00      0.00      0.00

     MDB     stress (kbar)      0.00      0.00      0.00
                                0.00      0.00      0.00
                                0.00      0.00      0.00

     3D-RISM stress (kbar)      0.00      0.00      0.00
                                0.00      0.00      0.00
                                0.00      0.00      0.00

     Energy error            =      1.3E-03 Ry
     Gradient error          =      0.0E+00 Ry/Bohr
     Cell gradient error     =      1.7E+01 kbar

     number of scf cycles    =   3
     number of bfgs steps    =   2

     enthalpy           old  =    -346.7389999522 Ry
     enthalpy           new  =    -346.7403397158 Ry

     CASE: enthalpy          _new < enthalpy          _old

     new trust radius        =       0.0422744462 bohr
     new conv_thr            =            1.0E-12 Ry

     new unit-cell volume =    484.52054 a.u.^3 (    71.79854 Ang^3 )
     density =      7.59034 g/cm^3

CELL_PARAMETERS (angstrom)
   0.000000000   3.298844667   3.298844667
   3.298844667   0.000000000   3.298844667
   3.298844667   3.298844667   0.000000000

ATOMIC_POSITIONS (crystal)
Hg              -0.0000000000       -0.0000000000       -0.0000000000
Te               0.2500000000        0.2500000000        0.2500000000



     Writing config-only to output data dir /home/User/opencode_workspace/DFT/calculations/hgte/relax_soc/out/pwscf.save/ :
     XML data file
     NEW-OLD atomic charge density approx. for the potential
     New effective cutoffs (rho, wfc):  688.76  114.79

     total cpu time spent up to now is     1370.4 secs

     per-process dynamical memory:   148.3 Mb

     Self-consistent Calculation

     iteration #  1     ecut=   120.00 Ry     beta= 0.30
     Davidson diagonalization with overlap

---- Real-time Memory Report at c_bands before calling an iterative solver
           436 MiB given to the printing process from OS
           144 MiB allocation reported by mallinfo(arena+hblkhd)
         10877 MiB available memory on the node where the printing process lives
------------------
     ethr =  1.00E-06,  avg # of iterations =  7.1

     Threshold (ethr) on eigenvalues was too large:
     Diagonalizing with lowered threshold

     Davidson diagonalization with overlap

---- Real-time Memory Report at c_bands before calling an iterative solver
           436 MiB given to the printing process from OS
           147 MiB allocation reported by mallinfo(arena+hblkhd)
         10775 MiB available memory on the node where the printing process lives
------------------
     ethr =  2.07E-08,  avg # of iterations =  4.1

     total cpu time spent up to now is     1397.2 secs

     total energy              =    -346.74139141 Ry
     estimated scf accuracy    <       0.00000492 Ry

     iteration #  2     ecut=   120.00 Ry     beta= 0.30
     Davidson diagonalization with overlap

---- Real-time Memory Report at c_bands before calling an iterative solver
           436 MiB given to the printing process from OS
           158 MiB allocation reported by mallinfo(arena+hblkhd)
         10570 MiB available memory on the node where the printing process lives
------------------
     ethr =  1.89E-08,  avg # of iterations =  1.0

     total cpu time spent up to now is     1404.8 secs

     total energy              =    -346.74139140 Ry
     estimated scf accuracy    <       0.00000196 Ry

     iteration #  3     ecut=   120.00 Ry     beta= 0.30
     Davidson diagonalization with overlap

---- Real-time Memory Report at c_bands before calling an iterative solver
           436 MiB given to the printing process from OS
           159 MiB allocation reported by mallinfo(arena+hblkhd)
         10559 MiB available memory on the node where the printing process lives
------------------
     ethr =  7.54E-09,  avg # of iterations =  2.0

     total cpu time spent up to now is     1413.6 secs

     total energy              =    -346.74139165 Ry
     estimated scf accuracy    <       0.00000020 Ry

     iteration #  4     ecut=   120.00 Ry     beta= 0.30
     Davidson diagonalization with overlap

---- Real-time Memory Report at c_bands before calling an iterative solver
           436 MiB given to the printing process from OS
           161 MiB allocation reported by mallinfo(arena+hblkhd)
         10558 MiB available memory on the node where the printing process lives
------------------
     ethr =  7.60E-10,  avg # of iterations =  2.5

     total cpu time spent up to now is     1423.6 secs

     total energy              =    -346.74139171 Ry
     estimated scf accuracy    <       0.00000002 Ry

     iteration #  5     ecut=   120.00 Ry     beta= 0.30
     Davidson diagonalization with overlap

---- Real-time Memory Report at c_bands before calling an iterative solver
           436 MiB given to the printing process from OS
           162 MiB allocation reported by mallinfo(arena+hblkhd)
         10511 MiB available memory on the node where the printing process lives
------------------
     ethr =  7.04E-11,  avg # of iterations =  3.7

     total cpu time spent up to now is     1433.3 secs

     total energy              =    -346.74139172 Ry
     estimated scf accuracy    <          5.8E-09 Ry

     iteration #  6     ecut=   120.00 Ry     beta= 0.30
     Davidson diagonalization with overlap

---- Real-time Memory Report at c_bands before calling an iterative solver
           436 MiB given to the printing process from OS
           164 MiB allocation reported by mallinfo(arena+hblkhd)
         10726 MiB available memory on the node where the printing process lives
------------------
     ethr =  2.24E-11,  avg # of iterations =  4.1

     total cpu time spent up to now is     1443.4 secs

     total energy              =    -346.74139172 Ry
     estimated scf accuracy    <          2.0E-09 Ry

     iteration #  7     ecut=   120.00 Ry     beta= 0.30
     Davidson diagonalization with overlap

---- Real-time Memory Report at c_bands before calling an iterative solver
           436 MiB given to the printing process from OS
           166 MiB allocation reported by mallinfo(arena+hblkhd)
         10720 MiB available memory on the node where the printing process lives
------------------
     ethr =  7.58E-12,  avg # of iterations =  4.1

     total cpu time spent up to now is     1454.2 secs

     total energy              =    -346.74139173 Ry
     estimated scf accuracy    <          2.2E-09 Ry

     iteration #  8     ecut=   120.00 Ry     beta= 0.30
     Davidson diagonalization with overlap

---- Real-time Memory Report at c_bands before calling an iterative solver
           436 MiB given to the printing process from OS
           167 MiB allocation reported by mallinfo(arena+hblkhd)
         10552 MiB available memory on the node where the printing process lives
------------------
     ethr =  7.58E-12,  avg # of iterations =  2.0

     total cpu time spent up to now is     1462.5 secs

     total energy              =    -346.74139173 Ry
     estimated scf accuracy    <          2.7E-10 Ry

     iteration #  9     ecut=   120.00 Ry     beta= 0.30
     Davidson diagonalization with overlap

---- Real-time Memory Report at c_bands before calling an iterative solver
           436 MiB given to the printing process from OS
           169 MiB allocation reported by mallinfo(arena+hblkhd)
         10697 MiB available memory on the node where the printing process lives
------------------
     ethr =  1.05E-12,  avg # of iterations =  6.0

     total cpu time spent up to now is     1474.7 secs

     total energy              =    -346.74139173 Ry
     estimated scf accuracy    <          7.3E-10 Ry

     iteration # 10     ecut=   120.00 Ry     beta= 0.30
     Davidson diagonalization with overlap

---- Real-time Memory Report at c_bands before calling an iterative solver
           436 MiB given to the printing process from OS
           171 MiB allocation reported by mallinfo(arena+hblkhd)
         10501 MiB available memory on the node where the printing process lives
------------------
     ethr =  1.05E-12,  avg # of iterations =  2.4

     total cpu time spent up to now is     1485.1 secs

     total energy              =    -346.74139173 Ry
     estimated scf accuracy    <          8.0E-11 Ry

     iteration # 11     ecut=   120.00 Ry     beta= 0.30
     Davidson diagonalization with overlap

---- Real-time Memory Report at c_bands before calling an iterative solver
           436 MiB given to the printing process from OS
           171 MiB allocation reported by mallinfo(arena+hblkhd)
         10503 MiB available memory on the node where the printing process lives
------------------
     ethr =  3.06E-13,  avg # of iterations =  3.8

     total cpu time spent up to now is     1494.4 secs

     total energy              =    -346.74139173 Ry
     estimated scf accuracy    <          1.2E-11 Ry

     iteration # 12     ecut=   120.00 Ry     beta= 0.30
     Davidson diagonalization with overlap

---- Real-time Memory Report at c_bands before calling an iterative solver
           436 MiB given to the printing process from OS
           171 MiB allocation reported by mallinfo(arena+hblkhd)
         10684 MiB available memory on the node where the printing process lives
------------------
     ethr =  1.00E-13,  avg # of iterations =  2.4

     total cpu time spent up to now is     1503.1 secs

     End of self-consistent calculation

          k = 0.0000 0.0000 0.0000 ( 10081 PWs)   bands (ev):

  -108.0043-108.0043 -69.9934 -69.9934 -51.7220 -51.7220 -51.7220 -51.7220
    -5.0585  -5.0585  -1.3412  -1.3412  -1.3412  -1.3412   0.0749   0.0749
     0.5057   0.5057   0.5057   0.5057   5.6525   5.6525   5.9880   5.9880
     6.7603   6.7603

     occupation numbers 
     1.0000   1.0000   1.0000   1.0000   1.0000   1.0000   1.0000   1.0000
     1.0000   1.0000   1.0000   1.0000   1.0000   1.0000   1.0000   1.0000
     1.0000   1.0000   1.0000   1.0000   1.0000   1.0000   1.0000   1.0000
     1.0000   1.0000

          k = 0.0692 0.0692-0.0692 (  9991 PWs)   bands (ev):

  -108.0043-108.0043 -69.9934 -69.9934 -51.7220 -51.7220 -51.7220 -51.7220
    -5.0151  -5.0151  -1.3514  -1.3257  -1.3234  -1.3234   0.0892   0.0892
     0.4918   0.4995   0.4995   0.5410   4.9215   4.9215   6.0708   6.0708
     6.6313   6.6866

     occupation numbers 
     1.0000   1.0000   1.0000   1.0000   1.0000   1.0000   1.0000   1.0000
     1.0000   1.0000   1.0000   1.0000   1.0000   1.0000   1.0000   1.0000
     1.0000   1.0000   1.0000   1.0000   1.0000   1.0000   1.0000   1.0000
     1.0000   1.0000

          k = 0.1383 0.1383-0.1383 ( 10033 PWs)   bands (ev):

  -108.0043-108.0043 -69.9934 -69.9934 -51.7221 -51.7221 -51.7220 -51.7220
    -4.8982  -4.8982  -1.3530  -1.3114  -1.2671  -1.2671   0.1331   0.1331
     0.4895   0.4895   0.5052   0.5862   3.8489   3.8489   5.8663   5.8663
     6.3737   6.4591

     occupation numbers 
     1.0000   1.0000   1.0000   1.0000   1.0000   1.0000   1.0000   1.0000
     1.0000   1.0000   1.0000   1.0000   1.0000   1.0000   1.0000   1.0000
     1.0000   1.0000   1.0000   1.0000   1.0000   1.0000   1.0000   1.0000
     1.0000   1.0000

          k = 0.2075 0.2075-0.2075 ( 10056 PWs)   bands (ev):

  -108.0043-108.0043 -69.9934 -69.9934 -51.7222 -51.7222 -51.7220 -51.7220
    -4.7470  -4.7470  -1.3461  -1.3044  -1.1704  -1.1704   0.1998   0.1998
     0.5106   0.5106   0.5437   0.6264   2.7881   2.7881   5.6068   5.6068
     6.1082   6.1908

     occupation numbers 
     1.0000   1.0000   1.0000   1.0000   1.0000   1.0000   1.0000   1.0000
     1.0000   1.0000   1.0000   1.0000   1.0000   1.0000   1.0000   1.0000
     1.0000   1.0000   1.0000   1.0000   1.0000   1.0000   1.0000   1.0000
     1.0000   1.0000

          k = 0.2766 0.2766-0.2766 ( 10047 PWs)   bands (ev):

  -108.0043-108.0043 -69.9934 -69.9934 -51.7222 -51.7222 -51.7221 -51.7221
    -4.6192  -4.6192  -1.3333  -1.3076  -1.0585  -1.0585   0.2487   0.2487
     0.5935   0.6455   0.6482   0.6482   1.8897   1.8897   5.4123   5.4123
     5.9270   5.9772

     occupation numbers 
     1.0000   1.0000   1.0000   1.0000   1.0000   1.0000   1.0000   1.0000
     1.0000   1.0000   1.0000   1.0000   1.0000   1.0000   1.0000   1.0000
     1.0000   1.0000   1.0000   1.0000   1.0000   1.0000   1.0000   1.0000
     1.0000   1.0000

          k =-0.3458-0.3458 0.3458 ( 10002 PWs)   bands (ev):

  -108.0043-108.0043 -69.9934 -69.9934 -51.7222 -51.7222 -51.7221 -51.7221
    -4.5690  -4.5690  -1.3188  -1.3188  -1.0042  -1.0042   0.2598   0.2598
     0.6333   0.6333   0.8499   0.8499   1.4096   1.4096   5.3411   5.3411
     5.8801   5.8801

     occupation numbers 
     1.0000   1.0000   1.0000   1.0000   1.0000   1.0000   1.0000   1.0000
     1.0000   1.0000   1.0000   1.0000   1.0000   1.0000   1.0000   1.0000
     1.0000   1.0000   1.0000   1.0000   1.0000   1.0000   1.0000   1.0000
     1.0000   1.0000

          k = 0.1383 0.0000 0.0000 ( 10005 PWs)   bands (ev):

  -108.0043-108.0043 -69.9934 -69.9934 -51.7220 -51.7220 -51.7220 -51.7220
    -5.0006  -5.0006  -1.3398  -1.3398  -1.3154  -1.3154   0.0934   0.0934
     0.4868   0.4868   0.5309   0.5309   4.8325   4.8325   5.9635   5.9635
     6.4319   6.4319

     occupation numbers 
     1.0000   1.0000   1.0000   1.0000   1.0000   1.0000   1.0000   1.0000
     1.0000   1.0000   1.0000   1.0000   1.0000   1.0000   1.0000   1.0000
     1.0000   1.0000   1.0000   1.0000   1.0000   1.0000   1.0000   1.0000
     1.0000   1.0000

          k = 0.2075 0.0692-0.0692 ( 10030 PWs)   bands (ev):

  -108.0043-108.0043 -69.9934 -69.9934 -51.7221 -51.7221 -51.7220 -51.7220
    -4.9080  -4.9078  -1.3447  -1.3066  -1.2963  -1.2660   0.1243   0.1287
     0.4730   0.4944   0.5211   0.5769   4.0504   4.0563   5.7147   5.7554
     6.1138   6.1886

     occupation numbers 
     1.0000   1.0000   1.0000   1.0000   1.0000   1.0000   1.0000   1.0000
     1.0000   1.0000   1.0000   1.0000   1.0000   1.0000   1.0000   1.0000
     1.0000   1.0000   1.0000   1.0000   1.0000   1.0000   1.0000   1.0000
     1.0000   1.0000

          k = 0.2766 0.1383-0.1383 ( 10040 PWs)   bands (ev):

  -108.0043-108.0043 -69.9934 -69.9934 -51.7221 -51.7221 -51.7220 -51.7220
    -4.7679  -4.7672  -1.3401  -1.2935  -1.2278  -1.1716   0.1826   0.1924
     0.4705   0.5267   0.5310   0.6244   3.0644   3.0867   5.4193   5.4724
     5.8170   5.9116

     occupation numbers 
     1.0000   1.0000   1.0000   1.0000   1.0000   1.0000   1.0000   1.0000
     1.0000   1.0000   1.0000   1.0000   1.0000   1.0000   1.0000   1.0000
     1.0000   1.0000   1.0000   1.0000   1.0000   1.0000   1.0000   1.0000
     1.0000   1.0000

          k = 0.3458 0.2075-0.2075 ( 10057 PWs)   bands (ev):

  -108.0043-108.0043 -69.9934 -69.9934 -51.7222 -51.7222 -51.7221 -51.7221
    -4.6316  -4.6300  -1.3285  -1.2930  -1.1326  -1.0466   0.2424   0.2562
     0.5397   0.5730   0.6255   0.6642   2.1372   2.1837   5.1669   5.2190
     5.6122   5.6803

     occupation numbers 
     1.0000   1.0000   1.0000   1.0000   1.0000   1.0000   1.0000   1.0000
     1.0000   1.0000   1.0000   1.0000   1.0000   1.0000   1.0000   1.0000
     1.0000   1.0000   1.0000   1.0000   1.0000   1.0000   1.0000   1.0000
     1.0000   1.0000

          k =-0.2766-0.4150 0.4150 ( 10068 PWs)   bands (ev):

  -108.0043-108.0043 -69.9934 -69.9934 -51.7222 -51.7222 -51.7221 -51.7221
    -4.5551  -4.5527  -1.3140  -1.3019  -1.0637  -0.9556   0.2620   0.2826
     0.6181   0.6277   0.7941   0.8354   1.4751   1.5536   5.0060   5.0548
     5.5685   5.5861

     occupation numbers 
     1.0000   1.0000   1.0000   1.0000   1.0000   1.0000   1.0000   1.0000
     1.0000   1.0000   1.0000   1.0000   1.0000   1.0000   1.0000   1.0000
     1.0000   1.0000   1.0000   1.0000   1.0000   1.0000   1.0000   1.0000
     1.0000   1.0000

          k =-0.2075-0.3458 0.3458 ( 10065 PWs)   bands (ev):

  -108.0043-108.0043 -69.9934 -69.9934 -51.7222 -51.7222 -51.7221 -51.7221
    -4.5718  -4.5695  -1.3163  -1.3014  -1.0798  -0.9754   0.2568   0.2824
     0.6044   0.6298   0.7130   0.7660   1.6404   1.7206   4.9712   5.0242
     5.6600   5.6898

     occupation numbers 
     1.0000   1.0000   1.0000   1.0000   1.0000   1.0000   1.0000   1.0000
     1.0000   1.0000   1.0000   1.0000   1.0000   1.0000   1.0000   1.0000
     1.0000   1.0000   1.0000   1.0000   1.0000   1.0000   1.0000   1.0000
     1.0000   1.0000

          k =-0.1383-0.2766 0.2766 ( 10056 PWs)   bands (ev):

  -108.0043-108.0043 -69.9934 -69.9934 -51.7222 -51.7222 -51.7221 -51.7221
    -4.6743  -4.6728  -1.3312  -1.2958  -1.1650  -1.0866   0.2219   0.2473
     0.5208   0.5447   0.5660   0.6557   2.4197   2.4763   5.0912   5.1517
     5.8734   5.9335

     occupation numbers 
     1.0000   1.0000   1.0000   1.0000   1.0000   1.0000   1.0000   1.0000
     1.0000   1.0000   1.0000   1.0000   1.0000   1.0000   1.0000   1.0000
     1.0000   1.0000   1.0000   1.0000   1.0000   1.0000   1.0000   1.0000
     1.0000   1.0000

          k =-0.0692-0.2075 0.2075 ( 10042 PWs)   bands (ev):

  -108.0043-108.0043 -69.9934 -69.9934 -51.7221 -51.7221 -51.7220 -51.7220
    -4.8184  -4.8178  -1.3428  -1.3003  -1.2534  -1.2049   0.1588   0.1751
     0.4774   0.5013   0.5188   0.6132   3.3756   3.4090   5.3747   5.4371
     6.1553   6.2237

     occupation numbers 
     1.0000   1.0000   1.0000   1.0000   1.0000   1.0000   1.0000   1.0000
     1.0000   1.0000   1.0000   1.0000   1.0000   1.0000   1.0000   1.0000
     1.0000   1.0000   1.0000   1.0000   1.0000   1.0000   1.0000   1.0000
     1.0000   1.0000

          k = 0.0000-0.1383 0.1383 ( 10043 PWs)   bands (ev):

  -108.0043-108.0043 -69.9934 -69.9934 -51.7221 -51.7221 -51.7220 -51.7220
    -4.9471  -4.9470  -1.3493  -1.3133  -1.3078  -1.2846   0.1103   0.1161
     0.4836   0.4946   0.5037   0.5687   4.3014   4.3138   5.7846   5.8353
     6.4175   6.4741

     occupation numbers 
     1.0000   1.0000   1.0000   1.0000   1.0000   1.0000   1.0000   1.0000
     1.0000   1.0000   1.0000   1.0000   1.0000   1.0000   1.0000   1.0000
     1.0000   1.0000   1.0000   1.0000   1.0000   1.0000   1.0000   1.0000
     1.0000   1.0000

          k = 0.2766 0.0000 0.0000 ( 10057 PWs)   bands (ev):

  -108.0043-108.0043 -69.9934 -69.9934 -51.7221 -51.7221 -51.7221 -51.7221
    -4.8440  -4.8440  -1.3182  -1.3182  -1.2547  -1.2547   0.1454   0.1454
     0.4770   0.4770   0.5710   0.5710   3.7792   3.7792   5.4697   5.4697
     5.7668   5.7668

     occupation numbers 
     1.0000   1.0000   1.0000   1.0000   1.0000   1.0000   1.0000   1.0000
     1.0000   1.0000   1.0000   1.0000   1.0000   1.0000   1.0000   1.0000
     1.0000   1.0000   1.0000   1.0000   1.0000   1.0000   1.0000   1.0000
     1.0000   1.0000

          k = 0.3458 0.0692-0.0692 ( 10061 PWs)   bands (ev):

  -108.0043-108.0043 -69.9934 -69.9934 -51.7222 -51.7221 -51.7221 -51.7221
    -4.7280  -4.7272  -1.3192  -1.2774  -1.2334  -1.1649   0.1898   0.1944
     0.4594   0.5142   0.5745   0.6286   3.1047   3.1255   5.1213   5.1856
     5.3966   5.4873

     occupation numbers 
     1.0000   1.0000   1.0000   1.0000   1.0000   1.0000   1.0000   1.0000
     1.0000   1.0000   1.0000   1.0000   1.0000   1.0000   1.0000   1.0000
     1.0000   1.0000   1.0000   1.0000   1.0000   1.0000   1.0000   1.0000
     1.0000   1.0000

          k = 0.4150 0.1383-0.1383 ( 10068 PWs)   bands (ev):

  -108.0043-108.0043 -69.9934 -69.9934 -51.7222 -51.7222 -51.7221 -51.7221
    -4.6017  -4.5993  -1.3109  -1.2558  -1.1794  -1.0374   0.2572   0.2590
     0.4733   0.5696   0.6364   0.6834   2.3156   2.3789   4.7557   4.8106
     5.1944   5.2597

     occupation numbers 
     1.0000   1.0000   1.0000   1.0000   1.0000   1.0000   1.0000   1.0000
     1.0000   1.0000   1.0000   1.0000   1.0000   1.0000   1.0000   1.0000
     1.0000   1.0000   1.0000   1.0000   1.0000   1.0000   1.0000   1.0000
     1.0000   1.0000

          k =-0.2075-0.4841 0.4841 ( 10061 PWs)   bands (ev):

  -108.0043-108.0043 -69.9934 -69.9934 -51.7223 -51.7222 -51.7221 -51.7221
    -4.5154  -4.5111  -1.2980  -1.2585  -1.1198  -0.9222   0.2978   0.3013
     0.5715   0.6105   0.7597   0.8138   1.6368   1.7637   4.4368   4.4884
     5.1877   5.1989

     occupation numbers 
     1.0000   1.0000   1.0000   1.0000   1.0000   1.0000   1.0000   1.0000
     1.0000   1.0000   1.0000   1.0000   1.0000   1.0000   1.0000   1.0000
     1.0000   1.0000   1.0000   1.0000   1.0000   1.0000   1.0000   1.0000
     1.0000   1.0000

          k =-0.1383-0.4150 0.4150 ( 10066 PWs)   bands (ev):

  -108.0043-108.0043 -69.9934 -69.9934 -51.7223 -51.7222 -51.7221 -51.7221
    -4.5051  -4.5003  -1.2862  -1.2725  -1.1109  -0.8989   0.2947   0.3199
     0.6128   0.6289   0.7821   0.8598   1.4794   1.6678   4.2595   4.3313
     5.3204   5.3516

     occupation numbers 
     1.0000   1.0000   1.0000   1.0000   1.0000   1.0000   1.0000   1.0000
     1.0000   1.0000   1.0000   1.0000   1.0000   1.0000   1.0000   1.0000
     1.0000   1.0000   1.0000   1.0000   1.0000   1.0000   1.0000   1.0000
     1.0000   1.0000

          k =-0.0692-0.3458 0.3458 ( 10066 PWs)   bands (ev):

  -108.0043-108.0043 -69.9934 -69.9934 -51.7222 -51.7222 -51.7221 -51.7221
    -4.5751  -4.5713  -1.2933  -1.2810  -1.1586  -0.9828   0.2669   0.3104
     0.5642   0.5754   0.6029   0.7164   2.0312   2.1858   4.3150   4.4072
     5.5790   5.6379

     occupation numbers 
     1.0000   1.0000   1.0000   1.0000   1.0000   1.0000   1.0000   1.0000
     1.0000   1.0000   1.0000   1.0000   1.0000   1.0000   1.0000   1.0000
     1.0000   1.0000   1.0000   1.0000   1.0000   1.0000   1.0000   1.0000
     1.0000   1.0000

          k = 0.0000-0.2766 0.2766 ( 10071 PWs)   bands (ev):

  -108.0043-108.0043 -69.9934 -69.9934 -51.7222 -51.7221 -51.7221 -51.7221
    -4.6956  -4.6937  -1.3188  -1.2864  -1.2175  -1.1053   0.2095   0.2481
     0.4878   0.5118   0.5506   0.6583   2.7427   2.8380   4.6931   4.7822
     5.8909   5.9610

     occupation numbers 
     1.0000   1.0000   1.0000   1.0000   1.0000   1.0000   1.0000   1.0000
     1.0000   1.0000   1.0000   1.0000   1.0000   1.0000   1.0000   1.0000
     1.0000   1.0000   1.0000   1.0000   1.0000   1.0000   1.0000   1.0000
     1.0000   1.0000

          k = 0.4150 0.0000 0.0000 ( 10077 PWs)   bands (ev):

  -108.0043-108.0043 -69.9934 -69.9934 -51.7222 -51.7222 -51.7221 -51.7221
    -4.6406  -4.6406  -1.2875  -1.2875  -1.1511  -1.1511   0.2147   0.2147
     0.4949   0.4949   0.6404   0.6404   2.7810   2.7810   4.9145   4.9145
     5.1300   5.1300

     occupation numbers 
     1.0000   1.0000   1.0000   1.0000   1.0000   1.0000   1.0000   1.0000
     1.0000   1.0000   1.0000   1.0000   1.0000   1.0000   1.0000   1.0000
     1.0000   1.0000   1.0000   1.0000   1.0000   1.0000   1.0000   1.0000
     1.0000   1.0000

          k = 0.4841 0.0692-0.0692 ( 10075 PWs)   bands (ev):

  -108.0043-108.0043 -69.9934 -69.9934 -51.7222 -51.7222 -51.7221 -51.7221
    -4.5395  -4.5374  -1.2879  -1.2489  -1.1371  -1.0269   0.2529   0.2715
     0.4785   0.5691   0.6877   0.7119   2.2334   2.2783   4.5746   4.6414
     4.8441   4.9196

     occupation numbers 
     1.0000   1.0000   1.0000   1.0000   1.0000   1.0000   1.0000   1.0000
     1.0000   1.0000   1.0000   1.0000   1.0000   1.0000   1.0000   1.0000
     1.0000   1.0000   1.0000   1.0000   1.0000   1.0000   1.0000   1.0000
     1.0000   1.0000

          k =-0.1383-0.5533 0.5533 ( 10067 PWs)   bands (ev):

  -108.0043-108.0043 -69.9934 -69.9934 -51.7223 -51.7222 -51.7221 -51.7221
    -4.4635  -4.4587  -1.2810  -1.2156  -1.1331  -0.9034   0.2931   0.3478
     0.5036   0.6247   0.7891   0.8345   1.6867   1.8083   4.1678   4.2201
     4.8195   4.8408

     occupation numbers 
     1.0000   1.0000   1.0000   1.0000   1.0000   1.0000   1.0000   1.0000
     1.0000   1.0000   1.0000   1.0000   1.0000   1.0000   1.0000   1.0000
     1.0000   1.0000   1.0000   1.0000   1.0000   1.0000   1.0000   1.0000
     1.0000   1.0000

          k =-0.0692-0.4841 0.4841 ( 10068 PWs)   bands (ev):

  -108.0043-108.0043 -69.9934 -69.9934 -51.7223 -51.7222 -51.7221 -51.7221
    -4.4434  -4.4369  -1.2735  -1.2087  -1.1427  -0.8471   0.3250   0.3529
     0.5945   0.6482   0.8517   0.9421   1.3752   1.6193   3.8578   3.9385
     4.9647   4.9861

     occupation numbers 
     1.0000   1.0000   1.0000   1.0000   1.0000   1.0000   1.0000   1.0000
     1.0000   1.0000   1.0000   1.0000   1.0000   1.0000   1.0000   1.0000
     1.0000   1.0000   1.0000   1.0000   1.0000   1.0000   1.0000   1.0000
     1.0000   1.0000

          k =-0.0000-0.4150 0.4150 ( 10073 PWs)   bands (ev):

  -108.0043-108.0043 -69.9934 -69.9934 -51.7223 -51.7222 -51.7221 -51.7221
    -4.4865  -4.4806  -1.2723  -1.2425  -1.1521  -0.8857   0.3188   0.3389
     0.6187   0.6314   0.7005   0.8161   1.6182   1.8700   3.8599   3.9685
     5.2404   5.2881

     occupation numbers 
     1.0000   1.0000   1.0000   1.0000   1.0000   1.0000   1.0000   1.0000
     1.0000   1.0000   1.0000   1.0000   1.0000   1.0000   1.0000   1.0000
     1.0000   1.0000   1.0000   1.0000   1.0000   1.0000   1.0000   1.0000
     1.0000   1.0000

          k = 0.5533 0.0000 0.0000 ( 10082 PWs)   bands (ev):

  -108.0043-108.0043 -69.9934 -69.9934 -51.7222 -51.7222 -51.7221 -51.7221
    -4.4680  -4.4680  -1.2621  -1.2621  -1.0249  -1.0249   0.2710   0.2710
     0.5515   0.5515   0.7723   0.7723   1.9341   1.9341   4.4969   4.4969
     4.6938   4.6938

     occupation numbers 
     1.0000   1.0000   1.0000   1.0000   1.0000   1.0000   1.0000   1.0000
     1.0000   1.0000   1.0000   1.0000   1.0000   1.0000   1.0000   1.0000
     1.0000   1.0000   1.0000   1.0000   1.0000   1.0000   1.0000   1.0000
     1.0000   1.0000

          k =-0.0692-0.6224 0.6224 ( 10066 PWs)   bands (ev):

  -108.0043-108.0043 -69.9934 -69.9934 -51.7223 -51.7222 -51.7221 -51.7221
    -4.4189  -4.4157  -1.2670  -1.2317  -1.0517  -0.9098   0.2792   0.3352
     0.5223   0.6241   0.8648   0.9021   1.5673   1.6291   4.2489   4.3122
     4.5523   4.6089

     occupation numbers 
     1.0000   1.0000   1.0000   1.0000   1.0000   1.0000   1.0000   1.0000
     1.0000   1.0000   1.0000   1.0000   1.0000   1.0000   1.0000   1.0000
     1.0000   1.0000   1.0000   1.0000   1.0000   1.0000   1.0000   1.0000
     1.0000   1.0000

          k = 0.0000-0.5533 0.5533 ( 10057 PWs)   bands (ev):

  -108.0043-108.0043 -69.9934 -69.9934 -51.7223 -51.7222 -51.7221 -51.7221
    -4.4099  -4.4040  -1.2683  -1.1990  -1.1114  -0.8442   0.3020   0.3923
     0.5282   0.6541   0.9147   1.0063   1.3505   1.5131   3.9325   3.9922
     4.6893   4.6960

     occupation numbers 
     1.0000   1.0000   1.0000   1.0000   1.0000   1.0000   1.0000   1.0000
     1.0000   1.0000   1.0000   1.0000   1.0000   1.0000   1.0000   1.0000
     1.0000   1.0000   1.0000   1.0000   1.0000   1.0000   1.0000   1.0000
     1.0000   1.0000

          k =-0.6916 0.0000 0.0000 ( 10086 PWs)   bands (ev):

  -108.0043-108.0043 -69.9934 -69.9934 -51.7223 -51.7223 -51.7221 -51.7221
    -4.4002  -4.4002  -1.2523  -1.2523  -0.9610  -0.9610   0.2917   0.2917
     0.5863   0.5863   0.9380   0.9380   1.4861   1.4861   4.3410   4.3410
     4.5396   4.5396

     occupation numbers 
     1.0000   1.0000   1.0000   1.0000   1.0000   1.0000   1.0000   1.0000
     1.0000   1.0000   1.0000   1.0000   1.0000   1.0000   1.0000   1.0000
     1.0000   1.0000   1.0000   1.0000   1.0000   1.0000   1.0000   1.0000
     1.0000   1.0000

          k = 0.2766 0.1383 0.0000 ( 10051 PWs)   bands (ev):

  -108.0043-108.0043 -69.9934 -69.9934 -51.7221 -51.7221 -51.7221 -51.7221
    -4.8035  -4.8028  -1.3335  -1.2886  -1.2658  -1.2013   0.1612   0.1755
     0.4624   0.5113   0.5303   0.6137   3.4183   3.4533   5.2334   5.3162
     5.8567   5.9501

     occupation numbers 
     1.0000   1.0000   1.0000   1.0000   1.0000   1.0000   1.0000   1.0000
     1.0000   1.0000   1.0000   1.0000   1.0000   1.0000   1.0000   1.0000
     1.0000   1.0000   1.0000   1.0000   1.0000   1.0000   1.0000   1.0000
     1.0000   1.0000

          k = 0.3458 0.2075-0.0692 ( 10065 PWs)   bands (ev):

  -108.0043-108.0043 -69.9934 -69.9934 -51.7222 -51.7222 -51.7221 -51.7221
    -4.6698  -4.6678  -1.3193  -1.2766  -1.2047  -1.0897   0.2220   0.2473
     0.4724   0.5490   0.5649   0.6623   2.6134   2.6898   4.7901   4.8813
     5.6033   5.6904

     occupation numbers 
     1.0000   1.0000   1.0000   1.0000   1.0000   1.0000   1.0000   1.0000
     1.0000   1.0000   1.0000   1.0000   1.0000   1.0000   1.0000   1.0000
     1.0000   1.0000   1.0000   1.0000   1.0000   1.0000   1.0000   1.0000
     1.0000   1.0000

          k =-0.2766-0.4150 0.5533 ( 10076 PWs)   bands (ev):

  -108.0043-108.0043 -69.9934 -69.9934 -51.7222 -51.7222 -51.7221 -51.7221
    -4.5579  -4.5544  -1.3034  -1.2770  -1.1303  -0.9656   0.2727   0.2988
     0.5618   0.5945   0.6828   0.7381   1.8438   1.9627   4.5540   4.6322
     5.3845   5.4417

     occupation numbers 
     1.0000   1.0000   1.0000   1.0000   1.0000   1.0000   1.0000   1.0000
     1.0000   1.0000   1.0000   1.0000   1.0000   1.0000   1.0000   1.0000
     1.0000   1.0000   1.0000   1.0000   1.0000   1.0000   1.0000   1.0000
     1.0000   1.0000

          k =-0.2075-0.3458 0.4841 ( 10064 PWs)   bands (ev):

  -108.0043-108.0043 -69.9934 -69.9934 -51.7223 -51.7222 -51.7221 -51.7221
    -4.5144  -4.5101  -1.2909  -1.2843  -1.0945  -0.9074   0.2852   0.3106
     0.6106   0.6285   0.8177   0.8815   1.4256   1.5809   4.4874   4.5526
     5.3075   5.3307

     occupation numbers 
     1.0000   1.0000   1.0000   1.0000   1.0000   1.0000   1.0000   1.0000
     1.0000   1.0000   1.0000   1.0000   1.0000   1.0000   1.0000   1.0000
     1.0000   1.0000   1.0000   1.0000   1.0000   1.0000   1.0000   1.0000
     1.0000   1.0000

          k = 0.4150 0.1383-0.0000 ( 10079 PWs)   bands (ev):

  -108.0043-108.0043 -69.9934 -69.9934 -51.7222 -51.7222 -51.7221 -51.7221
    -4.6187  -4.6166  -1.3030  -1.2556  -1.1961  -1.0733   0.2377   0.2462
     0.4587   0.5541   0.6128   0.6764   2.5513   2.6149   4.6676   4.7952
     5.1301   5.2541

     occupation numbers 
     1.0000   1.0000   1.0000   1.0000   1.0000   1.0000   1.0000   1.0000
     1.0000   1.0000   1.0000   1.0000   1.0000   1.0000   1.0000   1.0000
     1.0000   1.0000   1.0000   1.0000   1.0000   1.0000   1.0000   1.0000
     1.0000   1.0000

          k =-0.2075-0.4841 0.6224 ( 10082 PWs)   bands (ev):

  -108.0043-108.0043 -69.9934 -69.9934 -51.7223 -51.7222 -51.7221 -51.7221
    -4.5170  -4.5127  -1.2865  -1.2360  -1.1598  -0.9502   0.2914   0.3163
     0.4887   0.6028   0.7150   0.7457   1.9356   2.0618   4.2823   4.4023
     4.9389   5.0295

     occupation numbers 
     1.0000   1.0000   1.0000   1.0000   1.0000   1.0000   1.0000   1.0000
     1.0000   1.0000   1.0000   1.0000   1.0000   1.0000   1.0000   1.0000
     1.0000   1.0000   1.0000   1.0000   1.0000   1.0000   1.0000   1.0000
     1.0000   1.0000

          k =-0.1383-0.4150 0.5533 ( 10061 PWs)   bands (ev):

  -108.0043-108.0043 -69.9934 -69.9934 -51.7223 -51.7222 -51.7221 -51.7221
    -4.4635  -4.4575  -1.2726  -1.2353  -1.1339  -0.8661   0.3180   0.3467
     0.5774   0.6359   0.8183   0.9032   1.4603   1.6623   4.0432   4.1368
     4.9165   4.9537

     occupation numbers 
     1.0000   1.0000   1.0000   1.0000   1.0000   1.0000   1.0000   1.0000
     1.0000   1.0000   1.0000   1.0000   1.0000   1.0000   1.0000   1.0000
     1.0000   1.0000   1.0000   1.0000   1.0000   1.0000   1.0000   1.0000
     1.0000   1.0000

          k =-0.0692-0.3458 0.4841 ( 10072 PWs)   bands (ev):

  -108.0043-108.0043 -69.9934 -69.9934 -51.7223 -51.7222 -51.7221 -51.7221
    -4.4801  -4.4742  -1.2668  -1.2497  -1.1426  -0.8804   0.3165   0.3439
     0.5871   0.6299   0.7574   0.8416   1.5649   1.7895   3.9759   4.0850
     5.0637   5.1165

     occupation numbers 
     1.0000   1.0000   1.0000   1.0000   1.0000   1.0000   1.0000   1.0000
     1.0000   1.0000   1.0000   1.0000   1.0000   1.0000   1.0000   1.0000
     1.0000   1.0000   1.0000   1.0000   1.0000   1.0000   1.0000   1.0000
     1.0000   1.0000

          k = 0.0000-0.2766 0.4150 ( 10056 PWs)   bands (ev):

  -108.0043-108.0043 -69.9934 -69.9934 -51.7222 -51.7222 -51.7221 -51.7221
    -4.5596  -4.5556  -1.2865  -1.2626  -1.1748  -0.9770   0.2796   0.3127
     0.5091   0.5865   0.6315   0.7196   2.0801   2.2419   4.2063   4.3237
     5.3343   5.4119

     occupation numbers 
     1.0000   1.0000   1.0000   1.0000   1.0000   1.0000   1.0000   1.0000
     1.0000   1.0000   1.0000   1.0000   1.0000   1.0000   1.0000   1.0000
     1.0000   1.0000   1.0000   1.0000   1.0000   1.0000   1.0000   1.0000
     1.0000   1.0000

          k =-0.1383-0.5533 0.6916 ( 10086 PWs)   bands (ev):

  -108.0043-108.0043 -69.9934 -69.9934 -51.7223 -51.7222 -51.7221 -51.7221
    -4.4634  -4.4596  -1.2740  -1.2301  -1.1112  -0.9331   0.2813   0.3324
     0.4849   0.6155   0.7821   0.7960   1.8069   1.8934   4.2856   4.4550
     4.5599   4.7119

     occupation numbers 
     1.0000   1.0000   1.0000   1.0000   1.0000   1.0000   1.0000   1.0000
     1.0000   1.0000   1.0000   1.0000   1.0000   1.0000   1.0000   1.0000
     1.0000   1.0000   1.0000   1.0000   1.0000   1.0000   1.0000   1.0000
     1.0000   1.0000

          k =-0.0692-0.4841 0.6224 ( 10068 PWs)   bands (ev):

  -108.0043-108.0043 -69.9934 -69.9934 -51.7223 -51.7222 -51.7221 -51.7221
    -4.4207  -4.4144  -1.2627  -1.2030  -1.1304  -0.8477   0.3103   0.4022
     0.5105   0.6486   0.8648   0.9631   1.4359   1.5919   3.9941   4.0972
     4.5577   4.6058

     occupation numbers 
     1.0000   1.0000   1.0000   1.0000   1.0000   1.0000   1.0000   1.0000
     1.0000   1.0000   1.0000   1.0000   1.0000   1.0000   1.0000   1.0000
     1.0000   1.0000   1.0000   1.0000   1.0000   1.0000   1.0000   1.0000
     1.0000   1.0000

          k = 0.0000-0.4150 0.5533 ( 10068 PWs)   bands (ev):

  -108.0043-108.0043 -69.9934 -69.9934 -51.7223 -51.7222 -51.7222 -51.7221
    -4.4274  -4.4203  -1.2584  -1.1973  -1.1589  -0.8295   0.3284   0.3866
     0.5844   0.6521   0.8644   0.9753   1.3413   1.5957   3.8014   3.9061
     4.7511   4.7808

     occupation numbers 
     1.0000   1.0000   1.0000   1.0000   1.0000   1.0000   1.0000   1.0000
     1.0000   1.0000   1.0000   1.0000   1.0000   1.0000   1.0000   1.0000
     1.0000   1.0000   1.0000   1.0000   1.0000   1.0000   1.0000   1.0000
     1.0000   1.0000

          k =-0.6916 0.1383 0.0000 ( 10052 PWs)   bands (ev):

  -108.0043-108.0043 -69.9934 -69.9934 -51.7223 -51.7222 -51.7221 -51.7221
    -4.4029  -4.3981  -1.2622  -1.2207  -1.0693  -0.8668   0.2911   0.3773
     0.5090   0.6449   0.9155   0.9969   1.4123   1.4923   4.1674   4.3261
     4.3573   4.4918

     occupation numbers 
     1.0000   1.0000   1.0000   1.0000   1.0000   1.0000   1.0000   1.0000
     1.0000   1.0000   1.0000   1.0000   1.0000   1.0000   1.0000   1.0000
     1.0000   1.0000   1.0000   1.0000   1.0000   1.0000   1.0000   1.0000
     1.0000   1.0000

          k =-0.1383-0.4150 0.6916 ( 10070 PWs)   bands (ev):

  -108.0043-108.0043 -69.9934 -69.9934 -51.7223 -51.7222 -51.7221 -51.7221
    -4.4479  -4.4414  -1.2548  -1.2208  -1.1557  -0.8608   0.3208   0.3889
     0.5225   0.6363   0.8020   0.8784   1.5518   1.7497   3.9590   4.1087
     4.6446   4.7274

     occupation numbers 
     1.0000   1.0000   1.0000   1.0000   1.0000   1.0000   1.0000   1.0000
     1.0000   1.0000   1.0000   1.0000   1.0000   1.0000   1.0000   1.0000
     1.0000   1.0000   1.0000   1.0000   1.0000   1.0000   1.0000   1.0000
     1.0000   1.0000

          k =-0.0692-0.3458 0.6224 ( 10072 PWs)   bands (ev):

  -108.0043-108.0043 -69.9934 -69.9934 -51.7223 -51.7222 -51.7222 -51.7221
    -4.4215  -4.4139  -1.2403  -1.2107  -1.1605  -0.8220   0.3292   0.4184
     0.5583   0.6485   0.8671   1.0038   1.3397   1.5627   3.8802   4.0156
     4.5200   4.5595

     occupation numbers 
     1.0000   1.0000   1.0000   1.0000   1.0000   1.0000   1.0000   1.0000
     1.0000   1.0000   1.0000   1.0000   1.0000   1.0000   1.0000   1.0000
     1.0000   1.0000   1.0000   1.0000   1.0000   1.0000   1.0000   1.0000
     1.0000   1.0000

          k =-0.6916 0.2766 0.0000 ( 10082 PWs)   bands (ev):

  -108.0043-108.0043 -69.9934 -69.9934 -51.7223 -51.7222 -51.7222 -51.7221
    -4.4049  -4.3972  -1.2401  -1.1934  -1.1593  -0.8133   0.3261   0.4763
     0.4945   0.6540   0.8965   1.0680   1.3120   1.4701   3.9722   4.1731
     4.2475   4.3296

     occupation numbers 
     1.0000   1.0000   1.0000   1.0000   1.0000   1.0000   1.0000   1.0000
     1.0000   1.0000   1.0000   1.0000   1.0000   1.0000   1.0000   1.0000
     1.0000   1.0000   1.0000   1.0000   1.0000   1.0000   1.0000   1.0000
     1.0000   1.0000

     highest occupied level (ev):     6.7603

!    total energy              =    -346.74139173 Ry
     estimated scf accuracy    <          8.4E-14 Ry

     The total energy is the sum of the following terms:
     one-electron contribution =    -233.98907030 Ry
     hartree contribution      =     118.79800398 Ry
     xc contribution           =     -55.78074737 Ry
     ewald contribution        =    -175.76957804 Ry

     convergence has been achieved in  12 iterations

     Forces acting on atoms (cartesian axes, Ry/au):

     atom    1 type  1   force =     0.00000000    0.00000000    0.00000000
     atom    2 type  2   force =     0.00000000    0.00000000   -0.00000000
     The non-local contrib.  to forces
     atom    1 type  1   force =     0.00000000    0.00000000   -0.00000000
     atom    2 type  2   force =     0.00000000   -0.00000000   -0.00000000
     The ionic contribution  to forces
     atom    1 type  1   force =     0.00000000   -0.00000000   -0.00000000
     atom    2 type  2   force =    -0.00000000    0.00000000    0.00000000
     The local contribution  to forces
     atom    1 type  1   force =     0.00000000    0.00000000    0.00000000
     atom    2 type  2   force =    -0.00000000    0.00000000   -0.00000000
     The core correction contribution to forces
     atom    1 type  1   force =     0.00000000    0.00000000   -0.00000000
     atom    2 type  2   force =    -0.00000000   -0.00000000    0.00000000
     The Hubbard contrib.    to forces
     atom    1 type  1   force =     0.00000000    0.00000000    0.00000000
     atom    2 type  2   force =     0.00000000    0.00000000    0.00000000
     The SCF correction term to forces
     atom    1 type  1   force =    -0.00000000   -0.00000000   -0.00000000
     atom    2 type  2   force =     0.00000000    0.00000000   -0.00000000

     Total force =     0.000000     Total SCF correction =     0.000000


     Computing stress (Cartesian axis) and pressure

          total   stress  (Ry/bohr**3)                   (kbar)     P=        5.39
   0.00003663  -0.00000000  -0.00000000            5.39       -0.00       -0.00
  -0.00000000   0.00003663  -0.00000000           -0.00        5.39       -0.00
  -0.00000000  -0.00000000   0.00003663           -0.00       -0.00        5.39

     kinetic stress (kbar)  25338.73     -0.00     -0.00
                               -0.00  25338.73      0.00
                               -0.00      0.00  25338.73

     local   stress (kbar) -25104.73      0.00     -0.00
                                0.00 -25104.73      0.00
                               -0.00      0.00 -25104.73

     nonloc. stress (kbar)   9555.49     -0.00     -0.00
                               -0.00   9555.49      0.00
                               -0.00      0.00   9555.49

     hartree stress (kbar)  12022.74     -0.00      0.00
                               -0.00  12022.74      0.00
                                0.00      0.00  12022.74

     exc-cor stress (kbar)   3412.56      0.00     -0.00
                                0.00   3412.56     -0.00
                               -0.00     -0.00   3412.56

     corecor stress (kbar)  -7430.96      0.00      0.00
                                0.00  -7430.96      0.00
                                0.00      0.00  -7430.96

     ewald   stress (kbar) -17788.44     -0.00     -0.00
                               -0.00 -17788.44     -0.00
                               -0.00     -0.00 -17788.44

     hubbard stress (kbar)      0.00      0.00      0.00
                                0.00      0.00      0.00
                                0.00      0.00      0.00

     DFT-D   stress (kbar)      0.00      0.00      0.00
                                0.00      0.00      0.00
                                0.00      0.00      0.00

     XDM     stress (kbar)      0.00      0.00      0.00
                                0.00      0.00      0.00
                                0.00      0.00      0.00

     dft-nl  stress (kbar)      0.00      0.00      0.00
                                0.00      0.00      0.00
                                0.00      0.00      0.00

     TS-vdW  stress (kbar)      0.00      0.00      0.00
                                0.00      0.00      0.00
                                0.00      0.00      0.00

     MDB     stress (kbar)      0.00      0.00      0.00
                                0.00      0.00      0.00
                                0.00      0.00      0.00

     3D-RISM stress (kbar)      0.00      0.00      0.00
                                0.00      0.00      0.00
                                0.00      0.00      0.00

     Energy error            =      1.1E-03 Ry
     Gradient error          =      3.6E-31 Ry/Bohr
     Cell gradient error     =      5.4E+00 kbar

     number of scf cycles    =   4
     number of bfgs steps    =   3

     enthalpy           old  =    -346.7403397158 Ry
     enthalpy           new  =    -346.7413917268 Ry

     CASE: enthalpy          _new < enthalpy          _old

     new trust radius        =       0.0198802240 bohr
     new conv_thr            =            1.0E-12 Ry

     new unit-cell volume =    491.11423 a.u.^3 (    72.77562 Ang^3 )
     density =      7.48844 g/cm^3

CELL_PARAMETERS (angstrom)
   0.000000000   3.313741607   3.313741607
   3.313741607   0.000000000   3.313741607
   3.313741607   3.313741607  -0.000000000

ATOMIC_POSITIONS (crystal)
Hg              -0.0000000000       -0.0000000000       -0.0000000000
Te               0.2500000000        0.2500000000        0.2500000000



     Writing config-only to output data dir /home/User/opencode_workspace/DFT/calculations/hgte/relax_soc/out/pwscf.save/ :
     XML data file
     NEW-OLD atomic charge density approx. for the potential
     New effective cutoffs (rho, wfc):  682.58  113.76

     total cpu time spent up to now is     1511.6 secs

     per-process dynamical memory:   148.3 Mb

     Self-consistent Calculation

     iteration #  1     ecut=   120.00 Ry     beta= 0.30
     Davidson diagonalization with overlap

---- Real-time Memory Report at c_bands before calling an iterative solver
           436 MiB given to the printing process from OS
           144 MiB allocation reported by mallinfo(arena+hblkhd)
         10819 MiB available memory on the node where the printing process lives
------------------
     ethr =  1.00E-06,  avg # of iterations =  5.3

     Threshold (ethr) on eigenvalues was too large:
     Diagonalizing with lowered threshold

     Davidson diagonalization with overlap

---- Real-time Memory Report at c_bands before calling an iterative solver
           436 MiB given to the printing process from OS
           147 MiB allocation reported by mallinfo(arena+hblkhd)
         10615 MiB available memory on the node where the printing process lives
------------------
     ethr =  4.36E-09,  avg # of iterations =  5.8

     total cpu time spent up to now is     1539.2 secs

     total energy              =    -346.74152077 Ry
     estimated scf accuracy    <       0.00000099 Ry

     iteration #  2     ecut=   120.00 Ry     beta= 0.30
     Davidson diagonalization with overlap

---- Real-time Memory Report at c_bands before calling an iterative solver
           436 MiB given to the printing process from OS
           158 MiB allocation reported by mallinfo(arena+hblkhd)
         10580 MiB available memory on the node where the printing process lives
------------------
     ethr =  3.80E-09,  avg # of iterations =  1.1

     total cpu time spent up to now is     1547.0 secs

     total energy              =    -346.74152077 Ry
     estimated scf accuracy    <       0.00000040 Ry

     iteration #  3     ecut=   120.00 Ry     beta= 0.30
     Davidson diagonalization with overlap

---- Real-time Memory Report at c_bands before calling an iterative solver
           436 MiB given to the printing process from OS
           159 MiB allocation reported by mallinfo(arena+hblkhd)
         10566 MiB available memory on the node where the printing process lives
------------------
     ethr =  1.56E-09,  avg # of iterations =  2.0

     total cpu time spent up to now is     1555.7 secs

     total energy              =    -346.74152083 Ry
     estimated scf accuracy    <       0.00000003 Ry

     iteration #  4     ecut=   120.00 Ry     beta= 0.30
     Davidson diagonalization with overlap

---- Real-time Memory Report at c_bands before calling an iterative solver
           436 MiB given to the printing process from OS
           161 MiB allocation reported by mallinfo(arena+hblkhd)
         10600 MiB available memory on the node where the printing process lives
------------------
     ethr =  1.23E-10,  avg # of iterations =  3.9

     total cpu time spent up to now is     1565.4 secs

     total energy              =    -346.74152084 Ry
     estimated scf accuracy    <          3.8E-09 Ry

     iteration #  5     ecut=   120.00 Ry     beta= 0.30
     Davidson diagonalization with overlap

---- Real-time Memory Report at c_bands before calling an iterative solver
           436 MiB given to the printing process from OS
           162 MiB allocation reported by mallinfo(arena+hblkhd)
         10731 MiB available memory on the node where the printing process lives
------------------
     ethr =  1.45E-11,  avg # of iterations =  3.6

     total cpu time spent up to now is     1574.8 secs

     total energy              =    -346.74152084 Ry
     estimated scf accuracy    <          1.4E-09 Ry

     iteration #  6     ecut=   120.00 Ry     beta= 0.30
     Davidson diagonalization with overlap

---- Real-time Memory Report at c_bands before calling an iterative solver
           436 MiB given to the printing process from OS
           164 MiB allocation reported by mallinfo(arena+hblkhd)
         10530 MiB available memory on the node where the printing process lives
------------------
     ethr =  5.34E-12,  avg # of iterations =  3.8

     total cpu time spent up to now is     1585.1 secs

     total energy              =    -346.74152084 Ry
     estimated scf accuracy    <          6.5E-10 Ry

     iteration #  7     ecut=   120.00 Ry     beta= 0.30
     Davidson diagonalization with overlap

---- Real-time Memory Report at c_bands before calling an iterative solver
           436 MiB given to the printing process from OS
           166 MiB allocation reported by mallinfo(arena+hblkhd)
         10532 MiB available memory on the node where the printing process lives
------------------
     ethr =  2.49E-12,  avg # of iterations =  2.0

     total cpu time spent up to now is     1593.0 secs

     total energy              =    -346.74152084 Ry
     estimated scf accuracy    <          2.2E-10 Ry

     iteration #  8     ecut=   120.00 Ry     beta= 0.30
     Davidson diagonalization with overlap

---- Real-time Memory Report at c_bands before calling an iterative solver
           436 MiB given to the printing process from OS
           167 MiB allocation reported by mallinfo(arena+hblkhd)
         10520 MiB available memory on the node where the printing process lives
------------------
     ethr =  8.53E-13,  avg # of iterations =  4.2

     total cpu time spent up to now is     1605.1 secs

     total energy              =    -346.74152084 Ry
     estimated scf accuracy    <          1.6E-10 Ry

     iteration #  9     ecut=   120.00 Ry     beta= 0.30
     Davidson diagonalization with overlap

---- Real-time Memory Report at c_bands before calling an iterative solver
           436 MiB given to the printing process from OS
           169 MiB allocation reported by mallinfo(arena+hblkhd)
         10495 MiB available memory on the node where the printing process lives
------------------
     ethr =  6.26E-13,  avg # of iterations =  1.0

     total cpu time spent up to now is     1612.6 secs

     total energy              =    -346.74152084 Ry
     estimated scf accuracy    <          1.2E-10 Ry

     iteration # 10     ecut=   120.00 Ry     beta= 0.30
     Davidson diagonalization with overlap

---- Real-time Memory Report at c_bands before calling an iterative solver
           436 MiB given to the printing process from OS
           171 MiB allocation reported by mallinfo(arena+hblkhd)
         10513 MiB available memory on the node where the printing process lives
------------------
     ethr =  4.43E-13,  avg # of iterations =  2.2

     total cpu time spent up to now is     1621.9 secs

     End of self-consistent calculation

          k = 0.0000 0.0000 0.0000 ( 10081 PWs)   bands (ev):

  -108.1394-108.1394 -70.1284 -70.1284 -51.8570 -51.8570 -51.8570 -51.8570
    -5.1579  -5.1579  -1.4646  -1.4646  -1.4646  -1.4646  -0.0374  -0.0374
     0.3799   0.3799   0.3799   0.3799   5.4368   5.4368   5.8026   5.8026
     6.5743   6.5743

     occupation numbers 
     1.0000   1.0000   1.0000   1.0000   1.0000   1.0000   1.0000   1.0000
     1.0000   1.0000   1.0000   1.0000   1.0000   1.0000   1.0000   1.0000
     1.0000   1.0000   1.0000   1.0000   1.0000   1.0000   1.0000   1.0000
     1.0000   1.0000

          k = 0.0688 0.0688-0.0688 (  9991 PWs)   bands (ev):

  -108.1394-108.1394 -70.1284 -70.1284 -51.8570 -51.8570 -51.8570 -51.8570
    -5.1157  -5.1157  -1.4744  -1.4497  -1.4471  -1.4471  -0.0233  -0.0233
     0.3665   0.3742   0.3742   0.4142   4.7302   4.7302   5.8849   5.8849
     6.4491   6.5029

     occupation numbers 
     1.0000   1.0000   1.0000   1.0000   1.0000   1.0000   1.0000   1.0000
     1.0000   1.0000   1.0000   1.0000   1.0000   1.0000   1.0000   1.0000
     1.0000   1.0000   1.0000   1.0000   1.0000   1.0000   1.0000   1.0000
     1.0000   1.0000

          k = 0.1377 0.1377-0.1377 ( 10033 PWs)   bands (ev):

  -108.1394-108.1394 -70.1284 -70.1284 -51.8571 -51.8571 -51.8570 -51.8570
    -5.0023  -5.0023  -1.4760  -1.4359  -1.3922  -1.3922   0.0200   0.0200
     0.3653   0.3653   0.3797   0.4581   3.6808   3.6808   5.6903   5.6903
     6.1986   6.2818

     occupation numbers 
     1.0000   1.0000   1.0000   1.0000   1.0000   1.0000   1.0000   1.0000
     1.0000   1.0000   1.0000   1.0000   1.0000   1.0000   1.0000   1.0000
     1.0000   1.0000   1.0000   1.0000   1.0000   1.0000   1.0000   1.0000
     1.0000   1.0000

          k = 0.2065 0.2065-0.2065 ( 10056 PWs)   bands (ev):

  -108.1394-108.1394 -70.1284 -70.1284 -51.8571 -51.8571 -51.8570 -51.8570
    -4.8558  -4.8558  -1.4694  -1.4293  -1.2986  -1.2986   0.0851   0.0851
     0.3881   0.3881   0.4171   0.4972   2.6428   2.6428   5.4386   5.4386
     5.9401   6.0205

     occupation numbers 
     1.0000   1.0000   1.0000   1.0000   1.0000   1.0000   1.0000   1.0000
     1.0000   1.0000   1.0000   1.0000   1.0000   1.0000   1.0000   1.0000
     1.0000   1.0000   1.0000   1.0000   1.0000   1.0000   1.0000   1.0000
     1.0000   1.0000

          k = 0.2754 0.2754-0.2754 ( 10047 PWs)   bands (ev):

  -108.1394-108.1394 -70.1284 -70.1284 -51.8572 -51.8572 -51.8570 -51.8570
    -4.7321  -4.7321  -1.4571  -1.4324  -1.1913  -1.1913   0.1320   0.1320
     0.4653   0.5157   0.5245   0.5245   1.7658   1.7658   5.2494   5.2494
     5.7634   5.8124

     occupation numbers 
     1.0000   1.0000   1.0000   1.0000   1.0000   1.0000   1.0000   1.0000
     1.0000   1.0000   1.0000   1.0000   1.0000   1.0000   1.0000   1.0000
     1.0000   1.0000   1.0000   1.0000   1.0000   1.0000   1.0000   1.0000
     1.0000   1.0000

          k =-0.3442-0.3442 0.3442 ( 10002 PWs)   bands (ev):

  -108.1394-108.1394 -70.1284 -70.1284 -51.8572 -51.8572 -51.8570 -51.8570
    -4.6835  -4.6835  -1.4431  -1.4431  -1.1396  -1.1396   0.1425   0.1425
     0.5038   0.5038   0.7152   0.7152   1.3046   1.3046   5.1802   5.1802
     5.7177   5.7177

     occupation numbers 
     1.0000   1.0000   1.0000   1.0000   1.0000   1.0000   1.0000   1.0000
     1.0000   1.0000   1.0000   1.0000   1.0000   1.0000   1.0000   1.0000
     1.0000   1.0000   1.0000   1.0000   1.0000   1.0000   1.0000   1.0000
     1.0000   1.0000

          k = 0.1377 0.0000 0.0000 ( 10005 PWs)   bands (ev):

  -108.1394-108.1394 -70.1284 -70.1284 -51.8570 -51.8570 -51.8570 -51.8570
    -5.1016  -5.1016  -1.4631  -1.4631  -1.4395  -1.4395  -0.0190  -0.0190
     0.3618   0.3618   0.4046   0.4046   4.6405   4.6405   5.7823   5.7823
     6.2563   6.2563

     occupation numbers 
     1.0000   1.0000   1.0000   1.0000   1.0000   1.0000   1.0000   1.0000
     1.0000   1.0000   1.0000   1.0000   1.0000   1.0000   1.0000   1.0000
     1.0000   1.0000   1.0000   1.0000   1.0000   1.0000   1.0000   1.0000
     1.0000   1.0000

          k = 0.2065 0.0688-0.0688 ( 10030 PWs)   bands (ev):

  -108.1394-108.1394 -70.1284 -70.1284 -51.8571 -51.8571 -51.8570 -51.8570
    -5.0119  -5.0117  -1.4679  -1.4313  -1.4206  -1.3912   0.0114   0.0159
     0.3490   0.3692   0.3957   0.4492   3.8741   3.8816   5.5407   5.5852
     5.9458   6.0187

     occupation numbers 
     1.0000   1.0000   1.0000   1.0000   1.0000   1.0000   1.0000   1.0000
     1.0000   1.0000   1.0000   1.0000   1.0000   1.0000   1.0000   1.0000
     1.0000   1.0000   1.0000   1.0000   1.0000   1.0000   1.0000   1.0000
     1.0000   1.0000

          k = 0.2754 0.1377-0.1377 ( 10040 PWs)   bands (ev):

  -108.1394-108.1394 -70.1284 -70.1284 -51.8571 -51.8571 -51.8570 -51.8570
    -4.8760  -4.8753  -1.4636  -1.4188  -1.3540  -1.2995   0.0685   0.0785
     0.3481   0.4018   0.4057   0.4955   2.9101   2.9336   5.2528   5.3116
     5.6548   5.7480

     occupation numbers 
     1.0000   1.0000   1.0000   1.0000   1.0000   1.0000   1.0000   1.0000
     1.0000   1.0000   1.0000   1.0000   1.0000   1.0000   1.0000   1.0000
     1.0000   1.0000   1.0000   1.0000   1.0000   1.0000   1.0000   1.0000
     1.0000   1.0000

          k = 0.3442 0.2065-0.2065 ( 10057 PWs)   bands (ev):

  -108.1394-108.1394 -70.1284 -70.1284 -51.8572 -51.8572 -51.8571 -51.8571
    -4.7441  -4.7424  -1.4525  -1.4183  -1.2626  -1.1792   0.1262   0.1400
     0.4176   0.4462   0.5010   0.5348   2.0048   2.0516   5.0059   5.0649
     5.4536   5.5220

     occupation numbers 
     1.0000   1.0000   1.0000   1.0000   1.0000   1.0000   1.0000   1.0000
     1.0000   1.0000   1.0000   1.0000   1.0000   1.0000   1.0000   1.0000
     1.0000   1.0000   1.0000   1.0000   1.0000   1.0000   1.0000   1.0000
     1.0000   1.0000

          k =-0.2754-0.4131 0.4131 ( 10068 PWs)   bands (ev):

  -108.1394-108.1394 -70.1284 -70.1284 -51.8572 -51.8572 -51.8571 -51.8571
    -4.6700  -4.6676  -1.4385  -1.4269  -1.1970  -1.0924   0.1448   0.1649
     0.4895   0.4991   0.6623   0.7040   1.3645   1.4412   4.8487   4.9049
     5.4099   5.4297

     occupation numbers 
     1.0000   1.0000   1.0000   1.0000   1.0000   1.0000   1.0000   1.0000
     1.0000   1.0000   1.0000   1.0000   1.0000   1.0000   1.0000   1.0000
     1.0000   1.0000   1.0000   1.0000   1.0000   1.0000   1.0000   1.0000
     1.0000   1.0000

          k =-0.2065-0.3442 0.3442 ( 10065 PWs)   bands (ev):

  -108.1394-108.1394 -70.1284 -70.1284 -51.8572 -51.8572 -51.8571 -51.8571
    -4.6862  -4.6839  -1.4407  -1.4264  -1.2124  -1.1111   0.1399   0.1647
     0.4765   0.5014   0.5859   0.6380   1.5226   1.6015   4.8156   4.8758
     5.5011   5.5276

     occupation numbers 
     1.0000   1.0000   1.0000   1.0000   1.0000   1.0000   1.0000   1.0000
     1.0000   1.0000   1.0000   1.0000   1.0000   1.0000   1.0000   1.0000
     1.0000   1.0000   1.0000   1.0000   1.0000   1.0000   1.0000   1.0000
     1.0000   1.0000

          k =-0.1377-0.2754 0.2754 ( 10056 PWs)   bands (ev):

  -108.1394-108.1394 -70.1284 -70.1284 -51.8572 -51.8572 -51.8570 -51.8570
    -4.7854  -4.7839  -1.4551  -1.4210  -1.2938  -1.2174   0.1064   0.1314
     0.3990   0.4218   0.4389   0.5264   2.2802   2.3371   4.9341   5.0016
     5.7087   5.7647

     occupation numbers 
     1.0000   1.0000   1.0000   1.0000   1.0000   1.0000   1.0000   1.0000
     1.0000   1.0000   1.0000   1.0000   1.0000   1.0000   1.0000   1.0000
     1.0000   1.0000   1.0000   1.0000   1.0000   1.0000   1.0000   1.0000
     1.0000   1.0000

          k =-0.0688-0.2065 0.2065 ( 10042 PWs)   bands (ev):

  -108.1394-108.1394 -70.1284 -70.1284 -51.8571 -51.8571 -51.8570 -51.8570
    -4.9250  -4.9243  -1.4662  -1.4253  -1.3789  -1.3317   0.0452   0.0614
     0.3544   0.3773   0.3930   0.4846   3.2141   3.2489   5.2116   5.2814
     5.9834   6.0473

     occupation numbers 
     1.0000   1.0000   1.0000   1.0000   1.0000   1.0000   1.0000   1.0000
     1.0000   1.0000   1.0000   1.0000   1.0000   1.0000   1.0000   1.0000
     1.0000   1.0000   1.0000   1.0000   1.0000   1.0000   1.0000   1.0000
     1.0000   1.0000

          k = 0.0000-0.1377 0.1377 ( 10043 PWs)   bands (ev):

  -108.1394-108.1394 -70.1284 -70.1284 -51.8571 -51.8571 -51.8570 -51.8570
    -5.0498  -5.0496  -1.4724  -1.4378  -1.4318  -1.4092  -0.0024   0.0034
     0.3592   0.3693   0.3786   0.4411   4.1208   4.1350   5.6091   5.6664
     6.2401   6.2926

     occupation numbers 
     1.0000   1.0000   1.0000   1.0000   1.0000   1.0000   1.0000   1.0000
     1.0000   1.0000   1.0000   1.0000   1.0000   1.0000   1.0000   1.0000
     1.0000   1.0000   1.0000   1.0000   1.0000   1.0000   1.0000   1.0000
     1.0000   1.0000

          k = 0.2754 0.0000 0.0000 ( 10057 PWs)   bands (ev):

  -108.1394-108.1394 -70.1284 -70.1284 -51.8571 -51.8571 -51.8570 -51.8570
    -4.9498  -4.9498  -1.4421  -1.4421  -1.3803  -1.3803   0.0325   0.0325
     0.3527   0.3527   0.4440   0.4440   3.6053   3.6053   5.3050   5.3050
     5.6087   5.6087

     occupation numbers 
     1.0000   1.0000   1.0000   1.0000   1.0000   1.0000   1.0000   1.0000
     1.0000   1.0000   1.0000   1.0000   1.0000   1.0000   1.0000   1.0000
     1.0000   1.0000   1.0000   1.0000   1.0000   1.0000   1.0000   1.0000
     1.0000   1.0000

          k = 0.3442 0.0688-0.0688 ( 10061 PWs)   bands (ev):

  -108.1394-108.1394 -70.1284 -70.1284 -51.8571 -51.8571 -51.8571 -51.8571
    -4.8374  -4.8365  -1.4432  -1.4031  -1.3592  -1.2930   0.0762   0.0811
     0.3364   0.3885   0.4485   0.5000   2.9441   2.9664   4.9632   5.0328
     5.2449   5.3349

     occupation numbers 
     1.0000   1.0000   1.0000   1.0000   1.0000   1.0000   1.0000   1.0000
     1.0000   1.0000   1.0000   1.0000   1.0000   1.0000   1.0000   1.0000
     1.0000   1.0000   1.0000   1.0000   1.0000   1.0000   1.0000   1.0000
     1.0000   1.0000

          k = 0.4131 0.1377-0.1377 ( 10068 PWs)   bands (ev):

  -108.1394-108.1394 -70.1284 -70.1284 -51.8572 -51.8572 -51.8571 -51.8571
    -4.7152  -4.7127  -1.4353  -1.3826  -1.3072  -1.1700   0.1425   0.1435
     0.3517   0.4423   0.5107   0.5536   2.1739   2.2382   4.6047   4.6695
     5.0438   5.1116

     occupation numbers 
     1.0000   1.0000   1.0000   1.0000   1.0000   1.0000   1.0000   1.0000
     1.0000   1.0000   1.0000   1.0000   1.0000   1.0000   1.0000   1.0000
     1.0000   1.0000   1.0000   1.0000   1.0000   1.0000   1.0000   1.0000
     1.0000   1.0000

          k =-0.2065-0.4819 0.4819 ( 10061 PWs)   bands (ev):

  -108.1394-108.1394 -70.1284 -70.1284 -51.8572 -51.8572 -51.8571 -51.8571
    -4.6316  -4.6274  -1.4229  -1.3850  -1.2508  -1.0597   0.1802   0.1845
     0.4467   0.4824   0.6289   0.6839   1.5153   1.6407   4.2925   4.3540
     5.0365   5.0509

     occupation numbers 
     1.0000   1.0000   1.0000   1.0000   1.0000   1.0000   1.0000   1.0000
     1.0000   1.0000   1.0000   1.0000   1.0000   1.0000   1.0000   1.0000
     1.0000   1.0000   1.0000   1.0000   1.0000   1.0000   1.0000   1.0000
     1.0000   1.0000

          k =-0.1377-0.4131 0.4131 ( 10066 PWs)   bands (ev):

  -108.1394-108.1394 -70.1285 -70.1284 -51.8572 -51.8572 -51.8571 -51.8571
    -4.6217  -4.6169  -1.4116  -1.3983  -1.2426  -1.0373   0.1770   0.2017
     0.4849   0.5004   0.6507   0.7291   1.3646   1.5480   4.1201   4.2007
     5.1685   5.1961

     occupation numbers 
     1.0000   1.0000   1.0000   1.0000   1.0000   1.0000   1.0000   1.0000
     1.0000   1.0000   1.0000   1.0000   1.0000   1.0000   1.0000   1.0000
     1.0000   1.0000   1.0000   1.0000   1.0000   1.0000   1.0000   1.0000
     1.0000   1.0000

          k =-0.0688-0.3442 0.3442 ( 10066 PWs)   bands (ev):

  -108.1394-108.1394 -70.1284 -70.1284 -51.8572 -51.8572 -51.8571 -51.8571
    -4.6894  -4.6857  -1.4183  -1.4067  -1.2880  -1.1173   0.1503   0.1925
     0.4415   0.4511   0.4754   0.5881   1.8971   2.0499   4.1765   4.2768
     5.4201   5.4750

     occupation numbers 
     1.0000   1.0000   1.0000   1.0000   1.0000   1.0000   1.0000   1.0000
     1.0000   1.0000   1.0000   1.0000   1.0000   1.0000   1.0000   1.0000
     1.0000   1.0000   1.0000   1.0000   1.0000   1.0000   1.0000   1.0000
     1.0000   1.0000

          k = 0.0000-0.2754 0.2754 ( 10071 PWs)   bands (ev):

  -108.1394-108.1394 -70.1284 -70.1284 -51.8572 -51.8571 -51.8571 -51.8571
    -4.8060  -4.8041  -1.4430  -1.4119  -1.3444  -1.2351   0.0948   0.1327
     0.3660   0.3887   0.4237   0.5290   2.5915   2.6874   4.5478   4.6451
     5.7242   5.7898

     occupation numbers 
     1.0000   1.0000   1.0000   1.0000   1.0000   1.0000   1.0000   1.0000
     1.0000   1.0000   1.0000   1.0000   1.0000   1.0000   1.0000   1.0000
     1.0000   1.0000   1.0000   1.0000   1.0000   1.0000   1.0000   1.0000
     1.0000   1.0000

          k = 0.4131 0.0000 0.0000 ( 10077 PWs)   bands (ev):

  -108.1394-108.1394 -70.1284 -70.1284 -51.8572 -51.8572 -51.8571 -51.8571
    -4.7528  -4.7528  -1.4126  -1.4126  -1.2797  -1.2797   0.1018   0.1018
     0.3701   0.3701   0.5122   0.5122   2.6258   2.6258   4.7643   4.7643
     4.9865   4.9865

     occupation numbers 
     1.0000   1.0000   1.0000   1.0000   1.0000   1.0000   1.0000   1.0000
     1.0000   1.0000   1.0000   1.0000   1.0000   1.0000   1.0000   1.0000
     1.0000   1.0000   1.0000   1.0000   1.0000   1.0000   1.0000   1.0000
     1.0000   1.0000

          k = 0.4819 0.0688-0.0688 ( 10075 PWs)   bands (ev):

  -108.1394-108.1394 -70.1284 -70.1284 -51.8572 -51.8572 -51.8571 -51.8571
    -4.6549  -4.6528  -1.4130  -1.3756  -1.2663  -1.1600   0.1399   0.1580
     0.3547   0.4415   0.5597   0.5817   2.0899   2.1355   4.4305   4.5038
     4.7032   4.7802

     occupation numbers 
     1.0000   1.0000   1.0000   1.0000   1.0000   1.0000   1.0000   1.0000
     1.0000   1.0000   1.0000   1.0000   1.0000   1.0000   1.0000   1.0000
     1.0000   1.0000   1.0000   1.0000   1.0000   1.0000   1.0000   1.0000
     1.0000   1.0000

          k =-0.1377-0.5508 0.5508 ( 10067 PWs)   bands (ev):

  -108.1394-108.1394 -70.1285 -70.1284 -51.8572 -51.8572 -51.8571 -51.8571
    -4.5814  -4.5767  -1.4064  -1.3440  -1.2629  -1.0415   0.1786   0.2306
     0.3806   0.4955   0.6570   0.7031   1.5584   1.6794   4.0326   4.0946
     4.6770   4.7016

     occupation numbers 
     1.0000   1.0000   1.0000   1.0000   1.0000   1.0000   1.0000   1.0000
     1.0000   1.0000   1.0000   1.0000   1.0000   1.0000   1.0000   1.0000
     1.0000   1.0000   1.0000   1.0000   1.0000   1.0000   1.0000   1.0000
     1.0000   1.0000

          k =-0.0688-0.4819 0.4819 ( 10068 PWs)   bands (ev):

  -108.1394-108.1394 -70.1285 -70.1284 -51.8572 -51.8572 -51.8571 -51.8571
    -4.5619  -4.5555  -1.3993  -1.3371  -1.2729  -0.9874   0.2083   0.2339
     0.4674   0.5184   0.7164   0.8078   1.2608   1.4977   3.7297   3.8193
     4.8213   4.8393

     occupation numbers 
     1.0000   1.0000   1.0000   1.0000   1.0000   1.0000   1.0000   1.0000
     1.0000   1.0000   1.0000   1.0000   1.0000   1.0000   1.0000   1.0000
     1.0000   1.0000   1.0000   1.0000   1.0000   1.0000   1.0000   1.0000
     1.0000   1.0000

          k =-0.0000-0.4131 0.4131 ( 10073 PWs)   bands (ev):

  -108.1394-108.1394 -70.1285 -70.1284 -51.8572 -51.8572 -51.8571 -51.8571
    -4.6037  -4.5978  -1.3982  -1.3694  -1.2822  -1.0242   0.2006   0.2205
     0.4899   0.5029   0.5745   0.6884   1.4935   1.7394   3.7324   3.8489
     5.0899   5.1339

     occupation numbers 
     1.0000   1.0000   1.0000   1.0000   1.0000   1.0000   1.0000   1.0000
     1.0000   1.0000   1.0000   1.0000   1.0000   1.0000   1.0000   1.0000
     1.0000   1.0000   1.0000   1.0000   1.0000   1.0000   1.0000   1.0000
     1.0000   1.0000

          k = 0.5508 0.0000 0.0000 ( 10082 PWs)   bands (ev):

  -108.1394-108.1394 -70.1284 -70.1284 -51.8572 -51.8572 -51.8571 -51.8571
    -4.5857  -4.5857  -1.3880  -1.3880  -1.1586  -1.1586   0.1588   0.1588
     0.4245   0.4245   0.6410   0.6410   1.7981   1.7981   4.3571   4.3571
     4.5599   4.5599

     occupation numbers 
     1.0000   1.0000   1.0000   1.0000   1.0000   1.0000   1.0000   1.0000
     1.0000   1.0000   1.0000   1.0000   1.0000   1.0000   1.0000   1.0000
     1.0000   1.0000   1.0000   1.0000   1.0000   1.0000   1.0000   1.0000
     1.0000   1.0000

          k =-0.0688-0.6196 0.6196 ( 10066 PWs)   bands (ev):

  -108.1394-108.1394 -70.1285 -70.1284 -51.8572 -51.8572 -51.8571 -51.8571
    -4.5383  -4.5351  -1.3928  -1.3591  -1.1848  -1.0482   0.1667   0.2214
     0.3965   0.4946   0.7294   0.7662   1.4419   1.5040   4.1133   4.1832
     4.4175   4.4764

     occupation numbers 
     1.0000   1.0000   1.0000   1.0000   1.0000   1.0000   1.0000   1.0000
     1.0000   1.0000   1.0000   1.0000   1.0000   1.0000   1.0000   1.0000
     1.0000   1.0000   1.0000   1.0000   1.0000   1.0000   1.0000   1.0000
     1.0000   1.0000

          k =-0.0000-0.5508 0.5508 ( 10057 PWs)   bands (ev):

  -108.1394-108.1394 -70.1285 -70.1284 -51.8572 -51.8572 -51.8571 -51.8571
    -4.5296  -4.5238  -1.3941  -1.3280  -1.2423  -0.9850   0.1877   0.2739
     0.4037   0.5238   0.7750   0.8653   1.2356   1.3956   3.8040   3.8728
     4.5497   4.5598

     occupation numbers 
     1.0000   1.0000   1.0000   1.0000   1.0000   1.0000   1.0000   1.0000
     1.0000   1.0000   1.0000   1.0000   1.0000   1.0000   1.0000   1.0000
     1.0000   1.0000   1.0000   1.0000   1.0000   1.0000   1.0000   1.0000
     1.0000   1.0000

          k =-0.6885 0.0000 0.0000 ( 10086 PWs)   bands (ev):

  -108.1394-108.1394 -70.1285 -70.1285 -51.8572 -51.8572 -51.8571 -51.8571
    -4.5201  -4.5201  -1.3787  -1.3787  -1.0978  -1.0978   0.1796   0.1796
     0.4581   0.4581   0.7984   0.7984   1.3658   1.3658   4.2053   4.2053
     4.4091   4.4091

     occupation numbers 
     1.0000   1.0000   1.0000   1.0000   1.0000   1.0000   1.0000   1.0000
     1.0000   1.0000   1.0000   1.0000   1.0000   1.0000   1.0000   1.0000
     1.0000   1.0000   1.0000   1.0000   1.0000   1.0000   1.0000   1.0000
     1.0000   1.0000

          k = 0.2754 0.1377 0.0000 ( 10051 PWs)   bands (ev):

  -108.1394-108.1394 -70.1284 -70.1284 -51.8571 -51.8571 -51.8570 -51.8570
    -4.9106  -4.9098  -1.4570  -1.4141  -1.3907  -1.3281   0.0478   0.0621
     0.3394   0.3857   0.4053   0.4852   3.2530   3.2895   5.0747   5.1643
     5.6906   5.7829

     occupation numbers 
     1.0000   1.0000   1.0000   1.0000   1.0000   1.0000   1.0000   1.0000
     1.0000   1.0000   1.0000   1.0000   1.0000   1.0000   1.0000   1.0000
     1.0000   1.0000   1.0000   1.0000   1.0000   1.0000   1.0000   1.0000
     1.0000   1.0000

          k = 0.3442 0.2065-0.0688 ( 10065 PWs)   bands (ev):

  -108.1394-108.1394 -70.1284 -70.1284 -51.8572 -51.8571 -51.8571 -51.8571
    -4.7810  -4.7791  -1.4434  -1.4025  -1.3319  -1.2201   0.1071   0.1322
     0.3508   0.4234   0.4395   0.5329   2.4658   2.5427   4.6414   4.7400
     5.4428   5.5285

     occupation numbers 
     1.0000   1.0000   1.0000   1.0000   1.0000   1.0000   1.0000   1.0000
     1.0000   1.0000   1.0000   1.0000   1.0000   1.0000   1.0000   1.0000
     1.0000   1.0000   1.0000   1.0000   1.0000   1.0000   1.0000   1.0000
     1.0000   1.0000

          k =-0.2754-0.4131 0.5508 ( 10076 PWs)   bands (ev):

  -108.1394-108.1394 -70.1284 -70.1284 -51.8572 -51.8572 -51.8571 -51.8571
    -4.6728  -4.6693  -1.4281  -1.4028  -1.2607  -1.1011   0.1558   0.1814
     0.4381   0.4673   0.5550   0.6102   1.7166   1.8342   4.4083   4.4945
     5.2303   5.2856

     occupation numbers 
     1.0000   1.0000   1.0000   1.0000   1.0000   1.0000   1.0000   1.0000
     1.0000   1.0000   1.0000   1.0000   1.0000   1.0000   1.0000   1.0000
     1.0000   1.0000   1.0000   1.0000   1.0000   1.0000   1.0000   1.0000
     1.0000   1.0000

          k =-0.2065-0.3442 0.4819 ( 10064 PWs)   bands (ev):

  -108.1394-108.1394 -70.1284 -70.1284 -51.8572 -51.8572 -51.8571 -51.8571
    -4.6307  -4.6264  -1.4162  -1.4097  -1.2268  -1.0457   0.1677   0.1925
     0.4829   0.4997   0.6838   0.7487   1.3151   1.4660   4.3417   4.4159
     5.1567   5.1762

     occupation numbers 
     1.0000   1.0000   1.0000   1.0000   1.0000   1.0000   1.0000   1.0000
     1.0000   1.0000   1.0000   1.0000   1.0000   1.0000   1.0000   1.0000
     1.0000   1.0000   1.0000   1.0000   1.0000   1.0000   1.0000   1.0000
     1.0000   1.0000

          k = 0.4131 0.1377-0.0000 ( 10079 PWs)   bands (ev):

  -108.1394-108.1394 -70.1284 -70.1284 -51.8572 -51.8572 -51.8571 -51.8571
    -4.7316  -4.7295  -1.4275  -1.3822  -1.3232  -1.2044   0.1238   0.1322
     0.3363   0.4271   0.4868   0.5469   2.4017   2.4658   4.5228   4.6561
     4.9804   5.1051

     occupation numbers 
     1.0000   1.0000   1.0000   1.0000   1.0000   1.0000   1.0000   1.0000
     1.0000   1.0000   1.0000   1.0000   1.0000   1.0000   1.0000   1.0000
     1.0000   1.0000   1.0000   1.0000   1.0000   1.0000   1.0000   1.0000
     1.0000   1.0000

          k =-0.2065-0.4819 0.6196 ( 10082 PWs)   bands (ev):

  -108.1394-108.1394 -70.1285 -70.1284 -51.8572 -51.8572 -51.8571 -51.8571
    -4.6331  -4.6289  -1.4118  -1.3635  -1.2886  -1.0862   0.1759   0.1996
     0.3668   0.4747   0.5859   0.6166   1.8012   1.9263   4.1455   4.2719
     4.7939   4.8849

     occupation numbers 
     1.0000   1.0000   1.0000   1.0000   1.0000   1.0000   1.0000   1.0000
     1.0000   1.0000   1.0000   1.0000   1.0000   1.0000   1.0000   1.0000
     1.0000   1.0000   1.0000   1.0000   1.0000   1.0000   1.0000   1.0000
     1.0000   1.0000

          k =-0.1377-0.4131 0.5508 ( 10061 PWs)   bands (ev):

  -108.1394-108.1394 -70.1285 -70.1284 -51.8572 -51.8572 -51.8571 -51.8571
    -4.5814  -4.5755  -1.3984  -1.3625  -1.2646  -1.0057   0.2007   0.2281
     0.4516   0.5068   0.6851   0.7703   1.3430   1.5401   3.9103   4.0116
     4.7737   4.8092

     occupation numbers 
     1.0000   1.0000   1.0000   1.0000   1.0000   1.0000   1.0000   1.0000
     1.0000   1.0000   1.0000   1.0000   1.0000   1.0000   1.0000   1.0000
     1.0000   1.0000   1.0000   1.0000   1.0000   1.0000   1.0000   1.0000
     1.0000   1.0000

          k =-0.0688-0.3442 0.4819 ( 10072 PWs)   bands (ev):

  -108.1394-108.1394 -70.1285 -70.1284 -51.8572 -51.8572 -51.8571 -51.8571
    -4.5975  -4.5916  -1.3931  -1.3762  -1.2730  -1.0192   0.1987   0.2254
     0.4609   0.5014   0.6274   0.7125   1.4429   1.6621   3.8452   3.9617
     4.9173   4.9672

     occupation numbers 
     1.0000   1.0000   1.0000   1.0000   1.0000   1.0000   1.0000   1.0000
     1.0000   1.0000   1.0000   1.0000   1.0000   1.0000   1.0000   1.0000
     1.0000   1.0000   1.0000   1.0000   1.0000   1.0000   1.0000   1.0000
     1.0000   1.0000

          k = 0.0000-0.2754 0.4131 ( 10056 PWs)   bands (ev):

  -108.1394-108.1394 -70.1284 -70.1284 -51.8572 -51.8571 -51.8571 -51.8571
    -4.6744  -4.6704  -1.4119  -1.3889  -1.3035  -1.1116   0.1631   0.1954
     0.3875   0.4600   0.5050   0.5908   1.9426   2.1024   4.0718   4.1963
     5.1806   5.2558

     occupation numbers 
     1.0000   1.0000   1.0000   1.0000   1.0000   1.0000   1.0000   1.0000
     1.0000   1.0000   1.0000   1.0000   1.0000   1.0000   1.0000   1.0000
     1.0000   1.0000   1.0000   1.0000   1.0000   1.0000   1.0000   1.0000
     1.0000   1.0000

          k =-0.1377-0.5508 0.6885 ( 10086 PWs)   bands (ev):

  -108.1394-108.1394 -70.1285 -70.1284 -51.8572 -51.8572 -51.8571 -51.8571
    -4.5813  -4.5775  -1.3996  -1.3576  -1.2418  -1.0701   0.1677   0.2179
     0.3609   0.4864   0.6501   0.6654   1.6740   1.7600   4.1496   4.3237
     4.4234   4.5766

     occupation numbers 
     1.0000   1.0000   1.0000   1.0000   1.0000   1.0000   1.0000   1.0000
     1.0000   1.0000   1.0000   1.0000   1.0000   1.0000   1.0000   1.0000
     1.0000   1.0000   1.0000   1.0000   1.0000   1.0000   1.0000   1.0000
     1.0000   1.0000

          k =-0.0688-0.4819 0.6196 ( 10068 PWs)   bands (ev):

  -108.1394-108.1394 -70.1285 -70.1284 -51.8572 -51.8572 -51.8571 -51.8571
    -4.5400  -4.5338  -1.3888  -1.3319  -1.2606  -0.9882   0.1950   0.2835
     0.3869   0.5187   0.7296   0.8255   1.3160   1.4698   3.8651   3.9740
     4.4223   4.4712

     occupation numbers 
     1.0000   1.0000   1.0000   1.0000   1.0000   1.0000   1.0000   1.0000
     1.0000   1.0000   1.0000   1.0000   1.0000   1.0000   1.0000   1.0000
     1.0000   1.0000   1.0000   1.0000   1.0000   1.0000   1.0000   1.0000
     1.0000   1.0000

          k =-0.0000-0.4131 0.5508 ( 10068 PWs)   bands (ev):

  -108.1394-108.1394 -70.1285 -70.1284 -51.8572 -51.8572 -51.8571 -51.8571
    -4.5465  -4.5394  -1.3848  -1.3261  -1.2884  -0.9705   0.2113   0.2668
     0.4576   0.5224   0.7290   0.8391   1.2273   1.4736   3.6764   3.7878
     4.6127   4.6392

     occupation numbers 
     1.0000   1.0000   1.0000   1.0000   1.0000   1.0000   1.0000   1.0000
     1.0000   1.0000   1.0000   1.0000   1.0000   1.0000   1.0000   1.0000
     1.0000   1.0000   1.0000   1.0000   1.0000   1.0000   1.0000   1.0000
     1.0000   1.0000

          k =-0.6885 0.1377 0.0000 ( 10052 PWs)   bands (ev):

  -108.1394-108.1394 -70.1284 -70.1284 -51.8572 -51.8572 -51.8571 -51.8571
    -4.5228  -4.5181  -1.3882  -1.3485  -1.2019  -1.0069   0.1777   0.2622
     0.3835   0.5148   0.7767   0.8547   1.2936   1.3749   4.0337   4.1945
     4.2295   4.3620

     occupation numbers 
     1.0000   1.0000   1.0000   1.0000   1.0000   1.0000   1.0000   1.0000
     1.0000   1.0000   1.0000   1.0000   1.0000   1.0000   1.0000   1.0000
     1.0000   1.0000   1.0000   1.0000   1.0000   1.0000   1.0000   1.0000
     1.0000   1.0000

          k =-0.1377-0.4131 0.6885 ( 10070 PWs)   bands (ev):

  -108.1394-108.1394 -70.1285 -70.1284 -51.8572 -51.8572 -51.8571 -51.8571
    -4.5663  -4.5599  -1.3814  -1.3486  -1.2852  -1.0004   0.2039   0.2694
     0.3995   0.5074   0.6699   0.7468   1.4277   1.6213   3.8309   3.9857
     4.5063   4.5896

     occupation numbers 
     1.0000   1.0000   1.0000   1.0000   1.0000   1.0000   1.0000   1.0000
     1.0000   1.0000   1.0000   1.0000   1.0000   1.0000   1.0000   1.0000
     1.0000   1.0000   1.0000   1.0000   1.0000   1.0000   1.0000   1.0000
     1.0000   1.0000

          k =-0.0688-0.3442 0.6196 ( 10072 PWs)   bands (ev):

  -108.1394-108.1394 -70.1285 -70.1284 -51.8572 -51.8572 -51.8571 -51.8571
    -4.5407  -4.5333  -1.3677  -1.3386  -1.2901  -0.9633   0.2119   0.2974
     0.4332   0.5192   0.7321   0.8649   1.2254   1.4421   3.7540   3.8942
     4.3853   4.4253

     occupation numbers 
     1.0000   1.0000   1.0000   1.0000   1.0000   1.0000   1.0000   1.0000
     1.0000   1.0000   1.0000   1.0000   1.0000   1.0000   1.0000   1.0000
     1.0000   1.0000   1.0000   1.0000   1.0000   1.0000   1.0000   1.0000
     1.0000   1.0000

          k =-0.6885 0.2754 0.0000 ( 10082 PWs)   bands (ev):

  -108.1394-108.1394 -70.1285 -70.1284 -51.8573 -51.8572 -51.8571 -51.8571
    -4.5247  -4.5172  -1.3673  -1.3227  -1.2882  -0.9551   0.2095   0.3518
     0.3739   0.5243   0.7597   0.9222   1.1982   1.3556   3.8448   4.0454
     4.1215   4.2015

     occupation numbers 
     1.0000   1.0000   1.0000   1.0000   1.0000   1.0000   1.0000   1.0000
     1.0000   1.0000   1.0000   1.0000   1.0000   1.0000   1.0000   1.0000
     1.0000   1.0000   1.0000   1.0000   1.0000   1.0000   1.0000   1.0000
     1.0000   1.0000

     highest occupied level (ev):     6.5743

!    total energy              =    -346.74152084 Ry
     estimated scf accuracy    <          5.4E-13 Ry

     The total energy is the sum of the following terms:
     one-electron contribution =    -235.32558736 Ry
     hartree contribution      =     119.33277468 Ry
     xc contribution           =     -55.76930300 Ry
     ewald contribution        =    -174.97940517 Ry

     convergence has been achieved in  10 iterations

     Forces acting on atoms (cartesian axes, Ry/au):

     atom    1 type  1   force =     0.00000000   -0.00000000   -0.00000000
     atom    2 type  2   force =     0.00000000   -0.00000000   -0.00000000
     The non-local contrib.  to forces
     atom    1 type  1   force =     0.00000000    0.00000000   -0.00000000
     atom    2 type  2   force =     0.00000000    0.00000000   -0.00000000
     The ionic contribution  to forces
     atom    1 type  1   force =     0.00000000    0.00000000   -0.00000000
     atom    2 type  2   force =    -0.00000000   -0.00000000    0.00000000
     The local contribution  to forces
     atom    1 type  1   force =    -0.00000000    0.00000000   -0.00000000
     atom    2 type  2   force =    -0.00000000   -0.00000000   -0.00000000
     The core correction contribution to forces
     atom    1 type  1   force =     0.00000000   -0.00000000   -0.00000000
     atom    2 type  2   force =     0.00000000    0.00000000   -0.00000000
     The Hubbard contrib.    to forces
     atom    1 type  1   force =     0.00000000    0.00000000    0.00000000
     atom    2 type  2   force =     0.00000000    0.00000000    0.00000000
     The SCF correction term to forces
     atom    1 type  1   force =    -0.00000000    0.00000000    0.00000000
     atom    2 type  2   force =     0.00000000    0.00000000    0.00000000

     Total force =     0.000000     Total SCF correction =     0.000000


     Computing stress (Cartesian axis) and pressure

          total   stress  (Ry/bohr**3)                   (kbar)     P=        0.44
   0.00000298  -0.00000000  -0.00000000            0.44       -0.00       -0.00
  -0.00000000   0.00000298   0.00000000           -0.00        0.44        0.00
  -0.00000000   0.00000000   0.00000298           -0.00        0.00        0.44

     kinetic stress (kbar)  24993.49     -0.00     -0.00
                               -0.00  24993.49      0.00
                               -0.00      0.00  24993.49

     local   stress (kbar) -24899.94      0.00     -0.00
                                0.00 -24899.94      0.00
                               -0.00      0.00 -24899.94

     nonloc. stress (kbar)   9426.35     -0.00     -0.00
                               -0.00   9426.35     -0.00
                               -0.00     -0.00   9426.35

     hartree stress (kbar)  11914.71     -0.00      0.00
                               -0.00  11914.71     -0.00
                                0.00     -0.00  11914.71

     exc-cor stress (kbar)   3367.52      0.00      0.00
                                0.00   3367.52      0.00
                                0.00      0.00   3367.52

     corecor stress (kbar)  -7330.98      0.00     -0.00
                                0.00  -7330.98      0.00
                               -0.00      0.00  -7330.98

     ewald   stress (kbar) -17470.72      0.00      0.00
                                0.00 -17470.72     -0.00
                                0.00     -0.00 -17470.72

     hubbard stress (kbar)      0.00      0.00      0.00
                                0.00      0.00      0.00
                                0.00      0.00      0.00

     DFT-D   stress (kbar)      0.00      0.00      0.00
                                0.00      0.00      0.00
                                0.00      0.00      0.00

     XDM     stress (kbar)      0.00      0.00      0.00
                                0.00      0.00      0.00
                                0.00      0.00      0.00

     dft-nl  stress (kbar)      0.00      0.00      0.00
                                0.00      0.00      0.00
                                0.00      0.00      0.00

     TS-vdW  stress (kbar)      0.00      0.00      0.00
                                0.00      0.00      0.00
                                0.00      0.00      0.00

     MDB     stress (kbar)      0.00      0.00      0.00
                                0.00      0.00      0.00
                                0.00      0.00      0.00

     3D-RISM stress (kbar)      0.00      0.00      0.00
                                0.00      0.00      0.00
                                0.00      0.00      0.00

     Energy error            =      1.3E-04 Ry
     Gradient error          =      5.4E-31 Ry/Bohr
     Cell gradient error     =      4.4E-01 kbar

     number of scf cycles    =   5
     number of bfgs steps    =   4

     enthalpy           old  =    -346.7413917268 Ry
     enthalpy           new  =    -346.7415208447 Ry

     CASE: enthalpy          _new < enthalpy          _old

     new trust radius        =       0.0017845126 bohr
     new conv_thr            =            1.0E-12 Ry

     new unit-cell volume =    491.70767 a.u.^3 (    72.86356 Ang^3 )
     density =      7.47940 g/cm^3

CELL_PARAMETERS (angstrom)
   0.000000000   3.315075794   3.315075794
   3.315075794   0.000000000   3.315075794
   3.315075794   3.315075794  -0.000000000

ATOMIC_POSITIONS (crystal)
Hg              -0.0000000000       -0.0000000000       -0.0000000000
Te               0.2500000000        0.2500000000        0.2500000000



     Writing config-only to output data dir /home/User/opencode_workspace/DFT/calculations/hgte/relax_soc/out/pwscf.save/ :
     XML data file
     NEW-OLD atomic charge density approx. for the potential
     New effective cutoffs (rho, wfc):  682.03  113.67

     total cpu time spent up to now is     1630.7 secs

     per-process dynamical memory:   148.3 Mb

     Self-consistent Calculation

     iteration #  1     ecut=   120.00 Ry     beta= 0.30
     Davidson diagonalization with overlap

---- Real-time Memory Report at c_bands before calling an iterative solver
           436 MiB given to the printing process from OS
           144 MiB allocation reported by mallinfo(arena+hblkhd)
         10703 MiB available memory on the node where the printing process lives
------------------
     ethr =  1.00E-06,  avg # of iterations =  2.0

     Threshold (ethr) on eigenvalues was too large:
     Diagonalizing with lowered threshold

     Davidson diagonalization with overlap

---- Real-time Memory Report at c_bands before calling an iterative solver
           436 MiB given to the printing process from OS
           147 MiB allocation reported by mallinfo(arena+hblkhd)
         10833 MiB available memory on the node where the printing process lives
------------------
     ethr =  9.97E-10,  avg # of iterations =  5.8

     total cpu time spent up to now is     1652.8 secs

     total energy              =    -346.74152175 Ry
     estimated scf accuracy    <          8.0E-09 Ry

     iteration #  2     ecut=   120.00 Ry     beta= 0.30
     Davidson diagonalization with overlap

---- Real-time Memory Report at c_bands before calling an iterative solver
           436 MiB given to the printing process from OS
           158 MiB allocation reported by mallinfo(arena+hblkhd)
         10550 MiB available memory on the node where the printing process lives
------------------
     ethr =  3.07E-11,  avg # of iterations =  4.4

     total cpu time spent up to now is     1663.2 secs

     total energy              =    -346.74152175 Ry
     estimated scf accuracy    <          3.3E-09 Ry

     iteration #  3     ecut=   120.00 Ry     beta= 0.30
     Davidson diagonalization with overlap

---- Real-time Memory Report at c_bands before calling an iterative solver
           436 MiB given to the printing process from OS
           159 MiB allocation reported by mallinfo(arena+hblkhd)
         10572 MiB available memory on the node where the printing process lives
------------------
     ethr =  1.28E-11,  avg # of iterations =  2.0

     total cpu time spent up to now is     1671.5 secs

     total energy              =    -346.74152176 Ry
     estimated scf accuracy    <          4.2E-10 Ry

     iteration #  4     ecut=   120.00 Ry     beta= 0.30
     Davidson diagonalization with overlap

---- Real-time Memory Report at c_bands before calling an iterative solver
           436 MiB given to the printing process from OS
           161 MiB allocation reported by mallinfo(arena+hblkhd)
         10746 MiB available memory on the node where the printing process lives
------------------
     ethr =  1.62E-12,  avg # of iterations =  3.3

     total cpu time spent up to now is     1680.6 secs

     total energy              =    -346.74152176 Ry
     estimated scf accuracy    <          1.0E-10 Ry

     iteration #  5     ecut=   120.00 Ry     beta= 0.30
     Davidson diagonalization with overlap

---- Real-time Memory Report at c_bands before calling an iterative solver
           436 MiB given to the printing process from OS
           162 MiB allocation reported by mallinfo(arena+hblkhd)
         10538 MiB available memory on the node where the printing process lives
------------------
     ethr =  3.83E-13,  avg # of iterations =  4.1

     total cpu time spent up to now is     1690.6 secs

     total energy              =    -346.74152176 Ry
     estimated scf accuracy    <          2.9E-11 Ry

     iteration #  6     ecut=   120.00 Ry     beta= 0.30
     Davidson diagonalization with overlap

---- Real-time Memory Report at c_bands before calling an iterative solver
           436 MiB given to the printing process from OS
           164 MiB allocation reported by mallinfo(arena+hblkhd)
         10590 MiB available memory on the node where the printing process lives
------------------
     ethr =  1.11E-13,  avg # of iterations =  2.3

     total cpu time spent up to now is     1699.4 secs

     total energy              =    -346.74152176 Ry
     estimated scf accuracy    <          3.9E-12 Ry

     iteration #  7     ecut=   120.00 Ry     beta= 0.30
     Davidson diagonalization with overlap

---- Real-time Memory Report at c_bands before calling an iterative solver
           436 MiB given to the printing process from OS
           166 MiB allocation reported by mallinfo(arena+hblkhd)
         10728 MiB available memory on the node where the printing process lives
------------------
     ethr =  1.00E-13,  avg # of iterations =  2.0

     total cpu time spent up to now is     1707.7 secs

     End of self-consistent calculation

          k = 0.0000 0.0000 0.0000 ( 10081 PWs)   bands (ev):

  -108.1514-108.1514 -70.1404 -70.1404 -51.8690 -51.8690 -51.8690 -51.8690
    -5.1667  -5.1667  -1.4755  -1.4755  -1.4755  -1.4755  -0.0473  -0.0473
     0.3687   0.3687   0.3687   0.3687   5.4177   5.4177   5.7862   5.7862
     6.5578   6.5578

     occupation numbers 
     1.0000   1.0000   1.0000   1.0000   1.0000   1.0000   1.0000   1.0000
     1.0000   1.0000   1.0000   1.0000   1.0000   1.0000   1.0000   1.0000
     1.0000   1.0000   1.0000   1.0000   1.0000   1.0000   1.0000   1.0000
     1.0000   1.0000

          k = 0.0688 0.0688-0.0688 (  9991 PWs)   bands (ev):

  -108.1514-108.1514 -70.1404 -70.1404 -51.8690 -51.8690 -51.8690 -51.8690
    -5.1247  -5.1247  -1.4854  -1.4607  -1.4581  -1.4581  -0.0332  -0.0332
     0.3554   0.3630   0.3630   0.4029   4.7132   4.7132   5.8685   5.8685
     6.4329   6.4866

     occupation numbers 
     1.0000   1.0000   1.0000   1.0000   1.0000   1.0000   1.0000   1.0000
     1.0000   1.0000   1.0000   1.0000   1.0000   1.0000   1.0000   1.0000
     1.0000   1.0000   1.0000   1.0000   1.0000   1.0000   1.0000   1.0000
     1.0000   1.0000

          k = 0.1376 0.1376-0.1376 ( 10033 PWs)   bands (ev):

  -108.1514-108.1514 -70.1404 -70.1404 -51.8691 -51.8691 -51.8690 -51.8690
    -5.0116  -5.0116  -1.4870  -1.4470  -1.4033  -1.4033   0.0100   0.0100
     0.3543   0.3543   0.3686   0.4468   3.6659   3.6659   5.6746   5.6746
     6.1831   6.2661

     occupation numbers 
     1.0000   1.0000   1.0000   1.0000   1.0000   1.0000   1.0000   1.0000
     1.0000   1.0000   1.0000   1.0000   1.0000   1.0000   1.0000   1.0000
     1.0000   1.0000   1.0000   1.0000   1.0000   1.0000   1.0000   1.0000
     1.0000   1.0000

          k = 0.2065 0.2065-0.2065 ( 10056 PWs)   bands (ev):

  -108.1514-108.1514 -70.1404 -70.1404 -51.8691 -51.8691 -51.8690 -51.8690
    -4.8655  -4.8655  -1.4804  -1.4404  -1.3100  -1.3100   0.0749   0.0749
     0.3772   0.3772   0.4059   0.4857   2.6299   2.6299   5.4237   5.4237
     5.9252   6.0054

     occupation numbers 
     1.0000   1.0000   1.0000   1.0000   1.0000   1.0000   1.0000   1.0000
     1.0000   1.0000   1.0000   1.0000   1.0000   1.0000   1.0000   1.0000
     1.0000   1.0000   1.0000   1.0000   1.0000   1.0000   1.0000   1.0000
     1.0000   1.0000

          k = 0.2753 0.2753-0.2753 ( 10047 PWs)   bands (ev):

  -108.1514-108.1514 -70.1404 -70.1404 -51.8692 -51.8692 -51.8690 -51.8690
    -4.7421  -4.7421  -1.4681  -1.4434  -1.2031  -1.2031   0.1216   0.1216
     0.4539   0.5041   0.5135   0.5135   1.7549   1.7549   5.2350   5.2350
     5.7489   5.7978

     occupation numbers 
     1.0000   1.0000   1.0000   1.0000   1.0000   1.0000   1.0000   1.0000
     1.0000   1.0000   1.0000   1.0000   1.0000   1.0000   1.0000   1.0000
     1.0000   1.0000   1.0000   1.0000   1.0000   1.0000   1.0000   1.0000
     1.0000   1.0000

          k =-0.3441-0.3441 0.3441 ( 10002 PWs)   bands (ev):

  -108.1514-108.1514 -70.1404 -70.1404 -51.8692 -51.8692 -51.8690 -51.8690
    -4.6937  -4.6937  -1.4542  -1.4542  -1.1516  -1.1516   0.1321   0.1321
     0.4923   0.4923   0.7033   0.7033   1.2953   1.2953   5.1659   5.1659
     5.7033   5.7033

     occupation numbers 
     1.0000   1.0000   1.0000   1.0000   1.0000   1.0000   1.0000   1.0000
     1.0000   1.0000   1.0000   1.0000   1.0000   1.0000   1.0000   1.0000
     1.0000   1.0000   1.0000   1.0000   1.0000   1.0000   1.0000   1.0000
     1.0000   1.0000

          k = 0.1376 0.0000 0.0000 ( 10005 PWs)   bands (ev):

  -108.1514-108.1514 -70.1404 -70.1404 -51.8690 -51.8690 -51.8690 -51.8690
    -5.1106  -5.1106  -1.4741  -1.4741  -1.4505  -1.4505  -0.0290  -0.0290
     0.3507   0.3507   0.3934   0.3934   4.6235   4.6235   5.7663   5.7663
     6.2407   6.2407

     occupation numbers 
     1.0000   1.0000   1.0000   1.0000   1.0000   1.0000   1.0000   1.0000
     1.0000   1.0000   1.0000   1.0000   1.0000   1.0000   1.0000   1.0000
     1.0000   1.0000   1.0000   1.0000   1.0000   1.0000   1.0000   1.0000
     1.0000   1.0000

          k = 0.2065 0.0688-0.0688 ( 10030 PWs)   bands (ev):

  -108.1514-108.1514 -70.1404 -70.1404 -51.8690 -51.8690 -51.8690 -51.8690
    -5.0211  -5.0209  -1.4789  -1.4424  -1.4316  -1.4023   0.0014   0.0059
     0.3380   0.3581   0.3845   0.4379   3.8585   3.8661   5.5253   5.5701
     5.9310   6.0037

     occupation numbers 
     1.0000   1.0000   1.0000   1.0000   1.0000   1.0000   1.0000   1.0000
     1.0000   1.0000   1.0000   1.0000   1.0000   1.0000   1.0000   1.0000
     1.0000   1.0000   1.0000   1.0000   1.0000   1.0000   1.0000   1.0000
     1.0000   1.0000

          k = 0.2753 0.1376-0.1376 ( 10040 PWs)   bands (ev):

  -108.1514-108.1514 -70.1404 -70.1404 -51.8691 -51.8691 -51.8690 -51.8690
    -4.8857  -4.8849  -1.4745  -1.4299  -1.3652  -1.3108   0.0584   0.0684
     0.3372   0.3907   0.3946   0.4840   2.8964   2.9201   5.2380   5.2974
     5.6404   5.7335

     occupation numbers 
     1.0000   1.0000   1.0000   1.0000   1.0000   1.0000   1.0000   1.0000
     1.0000   1.0000   1.0000   1.0000   1.0000   1.0000   1.0000   1.0000
     1.0000   1.0000   1.0000   1.0000   1.0000   1.0000   1.0000   1.0000
     1.0000   1.0000

          k = 0.3441 0.2065-0.2065 ( 10057 PWs)   bands (ev):

  -108.1514-108.1514 -70.1404 -70.1404 -51.8692 -51.8691 -51.8690 -51.8690
    -4.7541  -4.7524  -1.4635  -1.4294  -1.2741  -1.1910   0.1158   0.1297
     0.4067   0.4350   0.4899   0.5233   1.9931   2.0399   4.9916   5.0512
     5.4395   5.5080

     occupation numbers 
     1.0000   1.0000   1.0000   1.0000   1.0000   1.0000   1.0000   1.0000
     1.0000   1.0000   1.0000   1.0000   1.0000   1.0000   1.0000   1.0000
     1.0000   1.0000   1.0000   1.0000   1.0000   1.0000   1.0000   1.0000
     1.0000   1.0000

          k =-0.2753-0.4129 0.4129 ( 10068 PWs)   bands (ev):

  -108.1514-108.1514 -70.1404 -70.1404 -51.8692 -51.8692 -51.8690 -51.8690
    -4.6803  -4.6778  -1.4496  -1.4380  -1.2088  -1.1045   0.1344   0.1545
     0.4781   0.4877   0.6506   0.6923   1.3547   1.4313   4.8348   4.8916
     5.3958   5.4159

     occupation numbers 
     1.0000   1.0000   1.0000   1.0000   1.0000   1.0000   1.0000   1.0000
     1.0000   1.0000   1.0000   1.0000   1.0000   1.0000   1.0000   1.0000
     1.0000   1.0000   1.0000   1.0000   1.0000   1.0000   1.0000   1.0000
     1.0000   1.0000

          k =-0.2065-0.3441 0.3441 ( 10065 PWs)   bands (ev):

  -108.1514-108.1514 -70.1404 -70.1404 -51.8692 -51.8692 -51.8690 -51.8690
    -4.6964  -4.6941  -1.4517  -1.4375  -1.2241  -1.1232   0.1295   0.1542
     0.4651   0.4900   0.5746   0.6266   1.5122   1.5910   4.8018   4.8626
     5.4871   5.5132

     occupation numbers 
     1.0000   1.0000   1.0000   1.0000   1.0000   1.0000   1.0000   1.0000
     1.0000   1.0000   1.0000   1.0000   1.0000   1.0000   1.0000   1.0000
     1.0000   1.0000   1.0000   1.0000   1.0000   1.0000   1.0000   1.0000
     1.0000   1.0000

          k =-0.1376-0.2753 0.2753 ( 10056 PWs)   bands (ev):

  -108.1514-108.1514 -70.1404 -70.1404 -51.8692 -51.8691 -51.8690 -51.8690
    -4.7953  -4.7938  -1.4661  -1.4321  -1.3052  -1.2290   0.0962   0.1211
     0.3882   0.4108   0.4276   0.5149   2.2678   2.3248   4.9202   4.9883
     5.6941   5.7497

     occupation numbers 
     1.0000   1.0000   1.0000   1.0000   1.0000   1.0000   1.0000   1.0000
     1.0000   1.0000   1.0000   1.0000   1.0000   1.0000   1.0000   1.0000
     1.0000   1.0000   1.0000   1.0000   1.0000   1.0000   1.0000   1.0000
     1.0000   1.0000

          k =-0.0688-0.2065 0.2065 ( 10042 PWs)   bands (ev):

  -108.1514-108.1514 -70.1404 -70.1404 -51.8691 -51.8691 -51.8690 -51.8690
    -4.9345  -4.9338  -1.4771  -1.4364  -1.3901  -1.3429   0.0351   0.0513
     0.3435   0.3663   0.3818   0.4731   3.1998   3.2348   5.1972   5.2676
     5.9682   6.0316

     occupation numbers 
     1.0000   1.0000   1.0000   1.0000   1.0000   1.0000   1.0000   1.0000
     1.0000   1.0000   1.0000   1.0000   1.0000   1.0000   1.0000   1.0000
     1.0000   1.0000   1.0000   1.0000   1.0000   1.0000   1.0000   1.0000
     1.0000   1.0000

          k = 0.0000-0.1376 0.1376 ( 10043 PWs)   bands (ev):

  -108.1514-108.1514 -70.1404 -70.1404 -51.8690 -51.8690 -51.8690 -51.8690
    -5.0589  -5.0587  -1.4833  -1.4489  -1.4428  -1.4203  -0.0124  -0.0066
     0.3482   0.3582   0.3675   0.4298   4.1048   4.1192   5.5936   5.6514
     6.2244   6.2766

     occupation numbers 
     1.0000   1.0000   1.0000   1.0000   1.0000   1.0000   1.0000   1.0000
     1.0000   1.0000   1.0000   1.0000   1.0000   1.0000   1.0000   1.0000
     1.0000   1.0000   1.0000   1.0000   1.0000   1.0000   1.0000   1.0000
     1.0000   1.0000

          k = 0.2753 0.0000 0.0000 ( 10057 PWs)   bands (ev):

  -108.1514-108.1514 -70.1404 -70.1404 -51.8691 -51.8691 -51.8690 -51.8690
    -4.9592  -4.9592  -1.4531  -1.4531  -1.3914  -1.3914   0.0224   0.0224
     0.3417   0.3417   0.4327   0.4327   3.5899   3.5899   5.2904   5.2904
     5.5947   5.5947

     occupation numbers 
     1.0000   1.0000   1.0000   1.0000   1.0000   1.0000   1.0000   1.0000
     1.0000   1.0000   1.0000   1.0000   1.0000   1.0000   1.0000   1.0000
     1.0000   1.0000   1.0000   1.0000   1.0000   1.0000   1.0000   1.0000
     1.0000   1.0000

          k = 0.3441 0.0688-0.0688 ( 10061 PWs)   bands (ev):

  -108.1514-108.1514 -70.1404 -70.1404 -51.8691 -51.8691 -51.8690 -51.8690
    -4.8471  -4.8463  -1.4542  -1.4142  -1.3704  -1.3044   0.0662   0.0711
     0.3255   0.3774   0.4373   0.4886   2.9298   2.9524   4.9492   5.0192
     5.2315   5.3214

     occupation numbers 
     1.0000   1.0000   1.0000   1.0000   1.0000   1.0000   1.0000   1.0000
     1.0000   1.0000   1.0000   1.0000   1.0000   1.0000   1.0000   1.0000
     1.0000   1.0000   1.0000   1.0000   1.0000   1.0000   1.0000   1.0000
     1.0000   1.0000

          k = 0.4129 0.1376-0.1376 ( 10068 PWs)   bands (ev):

  -108.1514-108.1514 -70.1404 -70.1404 -51.8692 -51.8691 -51.8691 -51.8691
    -4.7253  -4.7228  -1.4463  -1.3939  -1.3185  -1.1818   0.1323   0.1332
     0.3409   0.4310   0.4995   0.5421   2.1614   2.2257   4.5914   4.6570
     5.0305   5.0985

     occupation numbers 
     1.0000   1.0000   1.0000   1.0000   1.0000   1.0000   1.0000   1.0000
     1.0000   1.0000   1.0000   1.0000   1.0000   1.0000   1.0000   1.0000
     1.0000   1.0000   1.0000   1.0000   1.0000   1.0000   1.0000   1.0000
     1.0000   1.0000

          k =-0.2065-0.4817 0.4817 ( 10061 PWs)   bands (ev):

  -108.1514-108.1514 -70.1404 -70.1404 -51.8692 -51.8692 -51.8691 -51.8691
    -4.6420  -4.6377  -1.4340  -1.3962  -1.2624  -1.0719   0.1697   0.1741
     0.4356   0.4710   0.6173   0.6723   1.5045   1.6299   4.2797   4.3420
     5.0231   5.0378

     occupation numbers 
     1.0000   1.0000   1.0000   1.0000   1.0000   1.0000   1.0000   1.0000
     1.0000   1.0000   1.0000   1.0000   1.0000   1.0000   1.0000   1.0000
     1.0000   1.0000   1.0000   1.0000   1.0000   1.0000   1.0000   1.0000
     1.0000   1.0000

          k =-0.1376-0.4129 0.4129 ( 10066 PWs)   bands (ev):

  -108.1514-108.1514 -70.1404 -70.1404 -51.8692 -51.8692 -51.8691 -51.8691
    -4.6321  -4.6272  -1.4228  -1.4095  -1.2543  -1.0496   0.1665   0.1912
     0.4735   0.4890   0.6391   0.7175   1.3544   1.5374   4.1077   4.1891
     5.1551   5.1823

     occupation numbers 
     1.0000   1.0000   1.0000   1.0000   1.0000   1.0000   1.0000   1.0000
     1.0000   1.0000   1.0000   1.0000   1.0000   1.0000   1.0000   1.0000
     1.0000   1.0000   1.0000   1.0000   1.0000   1.0000   1.0000   1.0000
     1.0000   1.0000

          k =-0.0688-0.3441 0.3441 ( 10066 PWs)   bands (ev):

  -108.1514-108.1514 -70.1404 -70.1404 -51.8692 -51.8691 -51.8691 -51.8691
    -4.6996  -4.6958  -1.4294  -1.4179  -1.2995  -1.1292   0.1399   0.1821
     0.4306   0.4401   0.4641   0.5767   1.8853   2.0379   4.1642   4.2653
     5.4061   5.4606

     occupation numbers 
     1.0000   1.0000   1.0000   1.0000   1.0000   1.0000   1.0000   1.0000
     1.0000   1.0000   1.0000   1.0000   1.0000   1.0000   1.0000   1.0000
     1.0000   1.0000   1.0000   1.0000   1.0000   1.0000   1.0000   1.0000
     1.0000   1.0000

          k = 0.0000-0.2753 0.2753 ( 10071 PWs)   bands (ev):

  -108.1514-108.1514 -70.1404 -70.1404 -51.8691 -51.8691 -51.8690 -51.8690
    -4.8159  -4.8139  -1.4540  -1.4231  -1.3556  -1.2466   0.0846   0.1224
     0.3552   0.3778   0.4125   0.5176   2.5782   2.6741   4.5349   4.6330
     5.7094   5.7746

     occupation numbers 
     1.0000   1.0000   1.0000   1.0000   1.0000   1.0000   1.0000   1.0000
     1.0000   1.0000   1.0000   1.0000   1.0000   1.0000   1.0000   1.0000
     1.0000   1.0000   1.0000   1.0000   1.0000   1.0000   1.0000   1.0000
     1.0000   1.0000

          k = 0.4129 0.0000 0.0000 ( 10077 PWs)   bands (ev):

  -108.1514-108.1514 -70.1404 -70.1404 -51.8691 -51.8691 -51.8691 -51.8691
    -4.7627  -4.7627  -1.4237  -1.4237  -1.2911  -1.2911   0.0918   0.0918
     0.3590   0.3590   0.5008   0.5008   2.6121   2.6121   4.7509   4.7509
     4.9738   4.9738

     occupation numbers 
     1.0000   1.0000   1.0000   1.0000   1.0000   1.0000   1.0000   1.0000
     1.0000   1.0000   1.0000   1.0000   1.0000   1.0000   1.0000   1.0000
     1.0000   1.0000   1.0000   1.0000   1.0000   1.0000   1.0000   1.0000
     1.0000   1.0000

          k = 0.4817 0.0688-0.0688 ( 10075 PWs)   bands (ev):

  -108.1514-108.1514 -70.1404 -70.1404 -51.8692 -51.8692 -51.8691 -51.8691
    -4.6652  -4.6631  -1.4241  -1.3869  -1.2778  -1.1718   0.1298   0.1479
     0.3437   0.4302   0.5483   0.5701   2.0772   2.1229   4.4177   4.4916
     4.6907   4.7679

     occupation numbers 
     1.0000   1.0000   1.0000   1.0000   1.0000   1.0000   1.0000   1.0000
     1.0000   1.0000   1.0000   1.0000   1.0000   1.0000   1.0000   1.0000
     1.0000   1.0000   1.0000   1.0000   1.0000   1.0000   1.0000   1.0000
     1.0000   1.0000

          k =-0.1376-0.5506 0.5506 ( 10067 PWs)   bands (ev):

  -108.1514-108.1514 -70.1404 -70.1404 -51.8692 -51.8692 -51.8691 -51.8691
    -4.5919  -4.5872  -1.4175  -1.3554  -1.2744  -1.0538   0.1684   0.2202
     0.3697   0.4840   0.6453   0.6914   1.5471   1.6680   4.0206   4.0835
     4.6644   4.6892

     occupation numbers 
     1.0000   1.0000   1.0000   1.0000   1.0000   1.0000   1.0000   1.0000
     1.0000   1.0000   1.0000   1.0000   1.0000   1.0000   1.0000   1.0000
     1.0000   1.0000   1.0000   1.0000   1.0000   1.0000   1.0000   1.0000
     1.0000   1.0000

          k =-0.0688-0.4817 0.4817 ( 10068 PWs)   bands (ev):

  -108.1514-108.1514 -70.1404 -70.1404 -51.8692 -51.8691 -51.8691 -51.8691
    -4.5725  -4.5661  -1.4104  -1.3485  -1.2845  -0.9999   0.1979   0.2234
     0.4562   0.5068   0.7044   0.7959   1.2507   1.4870   3.7184   3.8088
     4.8086   4.8263

     occupation numbers 
     1.0000   1.0000   1.0000   1.0000   1.0000   1.0000   1.0000   1.0000
     1.0000   1.0000   1.0000   1.0000   1.0000   1.0000   1.0000   1.0000
     1.0000   1.0000   1.0000   1.0000   1.0000   1.0000   1.0000   1.0000
     1.0000   1.0000

          k =-0.0000-0.4129 0.4129 ( 10073 PWs)   bands (ev):

  -108.1514-108.1514 -70.1404 -70.1404 -51.8692 -51.8691 -51.8691 -51.8691
    -4.6141  -4.6083  -1.4094  -1.3806  -1.2938  -1.0365   0.1901   0.2100
     0.4785   0.4915   0.5633   0.6771   1.4825   1.7278   3.7211   3.8383
     5.0765   5.1202

     occupation numbers 
     1.0000   1.0000   1.0000   1.0000   1.0000   1.0000   1.0000   1.0000
     1.0000   1.0000   1.0000   1.0000   1.0000   1.0000   1.0000   1.0000
     1.0000   1.0000   1.0000   1.0000   1.0000   1.0000   1.0000   1.0000
     1.0000   1.0000

          k = 0.5506 0.0000 0.0000 ( 10082 PWs)   bands (ev):

  -108.1514-108.1514 -70.1404 -70.1404 -51.8692 -51.8692 -51.8691 -51.8691
    -4.5961  -4.5961  -1.3992  -1.3992  -1.1705  -1.1705   0.1488   0.1488
     0.4132   0.4132   0.6293   0.6293   1.7861   1.7861   4.3447   4.3447
     4.5480   4.5480

     occupation numbers 
     1.0000   1.0000   1.0000   1.0000   1.0000   1.0000   1.0000   1.0000
     1.0000   1.0000   1.0000   1.0000   1.0000   1.0000   1.0000   1.0000
     1.0000   1.0000   1.0000   1.0000   1.0000   1.0000   1.0000   1.0000
     1.0000   1.0000

          k =-0.0688-0.6194 0.6194 ( 10066 PWs)   bands (ev):

  -108.1514-108.1514 -70.1404 -70.1404 -51.8692 -51.8692 -51.8691 -51.8691
    -4.5489  -4.5457  -1.4040  -1.3704  -1.1966  -1.0605   0.1567   0.2113
     0.3853   0.4831   0.7174   0.7541   1.4308   1.4930   4.1012   4.1718
     4.4055   4.4647

     occupation numbers 
     1.0000   1.0000   1.0000   1.0000   1.0000   1.0000   1.0000   1.0000
     1.0000   1.0000   1.0000   1.0000   1.0000   1.0000   1.0000   1.0000
     1.0000   1.0000   1.0000   1.0000   1.0000   1.0000   1.0000   1.0000
     1.0000   1.0000

          k =-0.0000-0.5506 0.5506 ( 10057 PWs)   bands (ev):

  -108.1514-108.1514 -70.1404 -70.1404 -51.8692 -51.8692 -51.8691 -51.8691
    -4.5402  -4.5344  -1.4053  -1.3394  -1.2540  -0.9975   0.1776   0.2634
     0.3926   0.5122   0.7626   0.8528   1.2254   1.3852   3.7927   3.8622
     4.5373   4.5477

     occupation numbers 
     1.0000   1.0000   1.0000   1.0000   1.0000   1.0000   1.0000   1.0000
     1.0000   1.0000   1.0000   1.0000   1.0000   1.0000   1.0000   1.0000
     1.0000   1.0000   1.0000   1.0000   1.0000   1.0000   1.0000   1.0000
     1.0000   1.0000

          k =-0.6882 0.0000 0.0000 ( 10086 PWs)   bands (ev):

  -108.1514-108.1514 -70.1404 -70.1404 -51.8692 -51.8692 -51.8691 -51.8691
    -4.5308  -4.5308  -1.3899  -1.3899  -1.1099  -1.1099   0.1697   0.1697
     0.4467   0.4467   0.7860   0.7860   1.3552   1.3552   4.1932   4.1932
     4.3975   4.3975

     occupation numbers 
     1.0000   1.0000   1.0000   1.0000   1.0000   1.0000   1.0000   1.0000
     1.0000   1.0000   1.0000   1.0000   1.0000   1.0000   1.0000   1.0000
     1.0000   1.0000   1.0000   1.0000   1.0000   1.0000   1.0000   1.0000
     1.0000   1.0000

          k = 0.2753 0.1376 0.0000 ( 10051 PWs)   bands (ev):

  -108.1514-108.1514 -70.1404 -70.1404 -51.8691 -51.8691 -51.8690 -51.8690
    -4.9201  -4.9193  -1.4680  -1.4252  -1.4018  -1.3394   0.0377   0.0520
     0.3285   0.3746   0.3942   0.4738   3.2384   3.2750   5.0606   5.1508
     5.6759   5.7681

     occupation numbers 
     1.0000   1.0000   1.0000   1.0000   1.0000   1.0000   1.0000   1.0000
     1.0000   1.0000   1.0000   1.0000   1.0000   1.0000   1.0000   1.0000
     1.0000   1.0000   1.0000   1.0000   1.0000   1.0000   1.0000   1.0000
     1.0000   1.0000

          k = 0.3441 0.2065-0.0688 ( 10065 PWs)   bands (ev):

  -108.1514-108.1514 -70.1404 -70.1404 -51.8692 -51.8691 -51.8690 -51.8690
    -4.7909  -4.7889  -1.4544  -1.4137  -1.3432  -1.2317   0.0969   0.1220
     0.3400   0.4122   0.4284   0.5214   2.4527   2.5297   4.6282   4.7275
     5.4286   5.5141

     occupation numbers 
     1.0000   1.0000   1.0000   1.0000   1.0000   1.0000   1.0000   1.0000
     1.0000   1.0000   1.0000   1.0000   1.0000   1.0000   1.0000   1.0000
     1.0000   1.0000   1.0000   1.0000   1.0000   1.0000   1.0000   1.0000
     1.0000   1.0000

          k =-0.2753-0.4129 0.5506 ( 10076 PWs)   bands (ev):

  -108.1514-108.1514 -70.1404 -70.1404 -51.8692 -51.8692 -51.8691 -51.8691
    -4.6830  -4.6795  -1.4392  -1.4140  -1.2723  -1.1132   0.1454   0.1710
     0.4271   0.4560   0.5436   0.5988   1.7053   1.8228   4.3954   4.4823
     5.2166   5.2718

     occupation numbers 
     1.0000   1.0000   1.0000   1.0000   1.0000   1.0000   1.0000   1.0000
     1.0000   1.0000   1.0000   1.0000   1.0000   1.0000   1.0000   1.0000
     1.0000   1.0000   1.0000   1.0000   1.0000   1.0000   1.0000   1.0000
     1.0000   1.0000

          k =-0.2065-0.3441 0.4817 ( 10064 PWs)   bands (ev):

  -108.1514-108.1514 -70.1404 -70.1404 -51.8692 -51.8692 -51.8691 -51.8691
    -4.6410  -4.6368  -1.4274  -1.4209  -1.2386  -1.0580   0.1573   0.1820
     0.4716   0.4883   0.6719   0.7369   1.3054   1.4558   4.3288   4.4038
     5.1433   5.1625

     occupation numbers 
     1.0000   1.0000   1.0000   1.0000   1.0000   1.0000   1.0000   1.0000
     1.0000   1.0000   1.0000   1.0000   1.0000   1.0000   1.0000   1.0000
     1.0000   1.0000   1.0000   1.0000   1.0000   1.0000   1.0000   1.0000
     1.0000   1.0000

          k = 0.4129 0.1376-0.0000 ( 10079 PWs)   bands (ev):

  -108.1514-108.1514 -70.1404 -70.1404 -51.8692 -51.8691 -51.8691 -51.8691
    -4.7416  -4.7395  -1.4386  -1.3935  -1.3345  -1.2160   0.1137   0.1220
     0.3254   0.4158   0.4756   0.5354   2.3884   2.4526   4.5099   4.6438
     4.9671   5.0919

     occupation numbers 
     1.0000   1.0000   1.0000   1.0000   1.0000   1.0000   1.0000   1.0000
     1.0000   1.0000   1.0000   1.0000   1.0000   1.0000   1.0000   1.0000
     1.0000   1.0000   1.0000   1.0000   1.0000   1.0000   1.0000   1.0000
     1.0000   1.0000

          k =-0.2065-0.4817 0.6194 ( 10082 PWs)   bands (ev):

  -108.1514-108.1514 -70.1404 -70.1404 -51.8692 -51.8692 -51.8691 -51.8691
    -4.6435  -4.6392  -1.4229  -1.3749  -1.3000  -1.0982   0.1656   0.1893
     0.3560   0.4634   0.5745   0.6052   1.7893   1.9143   4.1334   4.2603
     4.7810   4.8721

     occupation numbers 
     1.0000   1.0000   1.0000   1.0000   1.0000   1.0000   1.0000   1.0000
     1.0000   1.0000   1.0000   1.0000   1.0000   1.0000   1.0000   1.0000
     1.0000   1.0000   1.0000   1.0000   1.0000   1.0000   1.0000   1.0000
     1.0000   1.0000

          k =-0.1376-0.4129 0.5506 ( 10061 PWs)   bands (ev):

  -108.1514-108.1514 -70.1404 -70.1404 -51.8692 -51.8691 -51.8691 -51.8691
    -4.5919  -4.5860  -1.4096  -1.3738  -1.2762  -1.0181   0.1903   0.2176
     0.4404   0.4954   0.6733   0.7585   1.3326   1.5293   3.8985   4.0005
     4.7610   4.7964

     occupation numbers 
     1.0000   1.0000   1.0000   1.0000   1.0000   1.0000   1.0000   1.0000
     1.0000   1.0000   1.0000   1.0000   1.0000   1.0000   1.0000   1.0000
     1.0000   1.0000   1.0000   1.0000   1.0000   1.0000   1.0000   1.0000
     1.0000   1.0000

          k =-0.0688-0.3441 0.4817 ( 10072 PWs)   bands (ev):

  -108.1514-108.1514 -70.1404 -70.1404 -51.8692 -51.8691 -51.8691 -51.8691
    -4.6079  -4.6021  -1.4043  -1.3875  -1.2846  -1.0316   0.1882   0.2148
     0.4497   0.4900   0.6159   0.7010   1.4322   1.6509   3.8336   3.9508
     4.9043   4.9540

     occupation numbers 
     1.0000   1.0000   1.0000   1.0000   1.0000   1.0000   1.0000   1.0000
     1.0000   1.0000   1.0000   1.0000   1.0000   1.0000   1.0000   1.0000
     1.0000   1.0000   1.0000   1.0000   1.0000   1.0000   1.0000   1.0000
     1.0000   1.0000

          k = 0.0000-0.2753 0.4129 ( 10056 PWs)   bands (ev):

  -108.1514-108.1514 -70.1404 -70.1404 -51.8692 -51.8691 -51.8691 -51.8691
    -4.6847  -4.6806  -1.4230  -1.4001  -1.3149  -1.1235   0.1528   0.1849
     0.3767   0.4488   0.4937   0.5794   1.9304   2.0901   4.0599   4.1850
     5.1670   5.2419

     occupation numbers 
     1.0000   1.0000   1.0000   1.0000   1.0000   1.0000   1.0000   1.0000
     1.0000   1.0000   1.0000   1.0000   1.0000   1.0000   1.0000   1.0000
     1.0000   1.0000   1.0000   1.0000   1.0000   1.0000   1.0000   1.0000
     1.0000   1.0000

          k =-0.1376-0.5506 0.6882 ( 10086 PWs)   bands (ev):

  -108.1514-108.1514 -70.1404 -70.1404 -51.8692 -51.8692 -51.8691 -51.8691
    -4.5918  -4.5880  -1.4107  -1.3690  -1.2534  -1.0823   0.1576   0.2078
     0.3499   0.4750   0.6384   0.6538   1.6622   1.7482   4.1376   4.3120
     4.4114   4.5646

     occupation numbers 
     1.0000   1.0000   1.0000   1.0000   1.0000   1.0000   1.0000   1.0000
     1.0000   1.0000   1.0000   1.0000   1.0000   1.0000   1.0000   1.0000
     1.0000   1.0000   1.0000   1.0000   1.0000   1.0000   1.0000   1.0000
     1.0000   1.0000

          k =-0.0688-0.4817 0.6194 ( 10068 PWs)   bands (ev):

  -108.1514-108.1514 -70.1404 -70.1404 -51.8692 -51.8692 -51.8691 -51.8691
    -4.5506  -4.5444  -1.4000  -1.3433  -1.2721  -1.0006   0.1847   0.2729
     0.3759   0.5072   0.7176   0.8133   1.3054   1.4591   3.8536   3.9631
     4.4103   4.4592

     occupation numbers 
     1.0000   1.0000   1.0000   1.0000   1.0000   1.0000   1.0000   1.0000
     1.0000   1.0000   1.0000   1.0000   1.0000   1.0000   1.0000   1.0000
     1.0000   1.0000   1.0000   1.0000   1.0000   1.0000   1.0000   1.0000
     1.0000   1.0000

          k = 0.0000-0.4129 0.5506 ( 10068 PWs)   bands (ev):

  -108.1514-108.1514 -70.1404 -70.1404 -51.8692 -51.8691 -51.8691 -51.8691
    -4.5571  -4.5500  -1.3961  -1.3376  -1.2999  -0.9830   0.2009   0.2562
     0.4464   0.5108   0.7169   0.8270   1.2172   1.4628   3.6653   3.7774
     4.6004   4.6267

     occupation numbers 
     1.0000   1.0000   1.0000   1.0000   1.0000   1.0000   1.0000   1.0000
     1.0000   1.0000   1.0000   1.0000   1.0000   1.0000   1.0000   1.0000
     1.0000   1.0000   1.0000   1.0000   1.0000   1.0000   1.0000   1.0000
     1.0000   1.0000

          k =-0.6882 0.1376 0.0000 ( 10052 PWs)   bands (ev):

  -108.1514-108.1514 -70.1404 -70.1404 -51.8692 -51.8692 -51.8691 -51.8691
    -4.5334  -4.5288  -1.3994  -1.3599  -1.2136  -1.0194   0.1677   0.2520
     0.3724   0.5033   0.7644   0.8421   1.2831   1.3645   4.0218   4.1828
     4.2181   4.3505

     occupation numbers 
     1.0000   1.0000   1.0000   1.0000   1.0000   1.0000   1.0000   1.0000
     1.0000   1.0000   1.0000   1.0000   1.0000   1.0000   1.0000   1.0000
     1.0000   1.0000   1.0000   1.0000   1.0000   1.0000   1.0000   1.0000
     1.0000   1.0000

          k =-0.1376-0.4129 0.6882 ( 10070 PWs)   bands (ev):

  -108.1514-108.1514 -70.1404 -70.1404 -51.8692 -51.8691 -51.8691 -51.8691
    -4.5769  -4.5704  -1.3927  -1.3600  -1.2967  -1.0128   0.1936   0.2588
     0.3886   0.4960   0.6582   0.7351   1.4168   1.6099   3.8195   3.9748
     4.4941   4.5774

     occupation numbers 
     1.0000   1.0000   1.0000   1.0000   1.0000   1.0000   1.0000   1.0000
     1.0000   1.0000   1.0000   1.0000   1.0000   1.0000   1.0000   1.0000
     1.0000   1.0000   1.0000   1.0000   1.0000   1.0000   1.0000   1.0000
     1.0000   1.0000

          k =-0.0688-0.3441 0.6194 ( 10072 PWs)   bands (ev):

  -108.1514-108.1514 -70.1404 -70.1404 -51.8692 -51.8691 -51.8691 -51.8691
    -4.5513  -4.5439  -1.3790  -1.3499  -1.3016  -0.9759   0.2015   0.2866
     0.4221   0.5077   0.7201   0.8526   1.2153   1.4315   3.7428   3.8835
     4.3734   4.4134

     occupation numbers 
     1.0000   1.0000   1.0000   1.0000   1.0000   1.0000   1.0000   1.0000
     1.0000   1.0000   1.0000   1.0000   1.0000   1.0000   1.0000   1.0000
     1.0000   1.0000   1.0000   1.0000   1.0000   1.0000   1.0000   1.0000
     1.0000   1.0000

          k =-0.6882 0.2753 0.0000 ( 10082 PWs)   bands (ev):

  -108.1514-108.1514 -70.1404 -70.1404 -51.8692 -51.8692 -51.8691 -51.8691
    -4.5354  -4.5278  -1.3786  -1.3342  -1.2997  -0.9677   0.1992   0.3408
     0.3631   0.5127   0.7475   0.9093   1.1881   1.3455   3.8334   4.0342
     4.1103   4.1902

     occupation numbers 
     1.0000   1.0000   1.0000   1.0000   1.0000   1.0000   1.0000   1.0000
     1.0000   1.0000   1.0000   1.0000   1.0000   1.0000   1.0000   1.0000
     1.0000   1.0000   1.0000   1.0000   1.0000   1.0000   1.0000   1.0000
     1.0000   1.0000

     highest occupied level (ev):     6.5578

!    total energy              =    -346.74152176 Ry
     estimated scf accuracy    <          2.7E-13 Ry

     The total energy is the sum of the following terms:
     one-electron contribution =    -235.44475836 Ry
     hartree contribution      =     119.38051210 Ry
     xc contribution           =     -55.76829268 Ry
     ewald contribution        =    -174.90898282 Ry

     convergence has been achieved in   7 iterations

     Forces acting on atoms (cartesian axes, Ry/au):

     atom    1 type  1   force =    -0.00000000   -0.00000000    0.00000000
     atom    2 type  2   force =     0.00000000    0.00000000   -0.00000000
     The non-local contrib.  to forces
     atom    1 type  1   force =     0.00000000    0.00000000   -0.00000000
     atom    2 type  2   force =     0.00000000   -0.00000000    0.00000000
     The ionic contribution  to forces
     atom    1 type  1   force =    -0.00000000    0.00000000    0.00000000
     atom    2 type  2   force =    -0.00000000    0.00000000    0.00000000
     The local contribution  to forces
     atom    1 type  1   force =     0.00000000   -0.00000000    0.00000000
     atom    2 type  2   force =     0.00000000    0.00000000   -0.00000000
     The core correction contribution to forces
     atom    1 type  1   force =    -0.00000000    0.00000000    0.00000000
     atom    2 type  2   force =     0.00000000   -0.00000000   -0.00000000
     The Hubbard contrib.    to forces
     atom    1 type  1   force =     0.00000000    0.00000000    0.00000000
     atom    2 type  2   force =     0.00000000    0.00000000    0.00000000
     The SCF correction term to forces
     atom    1 type  1   force =     0.00000000    0.00000000    0.00000000
     atom    2 type  2   force =    -0.00000000   -0.00000000    0.00000000

     Total force =     0.000000     Total SCF correction =     0.000000


     Computing stress (Cartesian axis) and pressure

          total   stress  (Ry/bohr**3)                   (kbar)     P=        0.01
   0.00000009   0.00000000  -0.00000000            0.01        0.00       -0.00
   0.00000000   0.00000009   0.00000000            0.00        0.01        0.00
   0.00000000  -0.00000000   0.00000009            0.00       -0.00        0.01

     kinetic stress (kbar)  24962.89     -0.00      0.00
                               -0.00  24962.89     -0.00
                                0.00      0.00  24962.89

     local   stress (kbar) -24881.67     -0.00     -0.00
                               -0.00 -24881.67      0.00
                               -0.00      0.00 -24881.67

     nonloc. stress (kbar)   9414.90     -0.00     -0.00
                               -0.00   9414.90     -0.00
                                0.00     -0.00   9414.90

     hartree stress (kbar)  11905.09     -0.00     -0.00
                               -0.00  11905.09     -0.00
                               -0.00     -0.00  11905.09

     exc-cor stress (kbar)   3363.52     -0.00      0.00
                               -0.00   3363.52      0.00
                                0.00      0.00   3363.52

     corecor stress (kbar)  -7322.11     -0.00      0.00
                               -0.00  -7322.11     -0.00
                                0.00     -0.00  -7322.11

     ewald   stress (kbar) -17442.61      0.00      0.00
                                0.00 -17442.61      0.00
                                0.00      0.00 -17442.61

     hubbard stress (kbar)      0.00      0.00      0.00
                                0.00      0.00      0.00
                                0.00      0.00      0.00

     DFT-D   stress (kbar)      0.00      0.00      0.00
                                0.00      0.00      0.00
                                0.00      0.00      0.00

     XDM     stress (kbar)      0.00      0.00      0.00
                                0.00      0.00      0.00
                                0.00      0.00      0.00

     dft-nl  stress (kbar)      0.00      0.00      0.00
                                0.00      0.00      0.00
                                0.00      0.00      0.00

     TS-vdW  stress (kbar)      0.00      0.00      0.00
                                0.00      0.00      0.00
                                0.00      0.00      0.00

     MDB     stress (kbar)      0.00      0.00      0.00
                                0.00      0.00      0.00
                                0.00      0.00      0.00

     3D-RISM stress (kbar)      0.00      0.00      0.00
                                0.00      0.00      0.00
                                0.00      0.00      0.00

     Energy error            =      9.1E-07 Ry
     Gradient error          =      5.4E-31 Ry/Bohr
     Cell gradient error     =      1.3E-02 kbar

     bfgs converged in   6 scf cycles and   5 bfgs steps
     (criteria: energy <  1.0E-04 Ry, force <  1.0E-03 Ry/Bohr, cell <  5.0E-01 kbar)

     End of BFGS Geometry Optimization

     Final enthalpy           =    -346.7415217554 Ry

     File /home/User/opencode_workspace/DFT/calculations/hgte/relax_soc/out/pwscf.bfgs deleted, as requested
Begin final coordinates
     new unit-cell volume =    491.70767 a.u.^3 (    72.86356 Ang^3 )
     density =      7.47940 g/cm^3

CELL_PARAMETERS (angstrom)
   0.000000000   3.315075794   3.315075794
   3.315075794   0.000000000   3.315075794
   3.315075794   3.315075794  -0.000000000

ATOMIC_POSITIONS (crystal)
Hg              -0.0000000000       -0.0000000000       -0.0000000000
Te               0.2500000000        0.2500000000        0.2500000000
End final coordinates



     Writing config-only to output data dir /home/User/opencode_workspace/DFT/calculations/hgte/relax_soc/out/pwscf.save/ :
     XML data file

     Final scf calculation at the relaxed structure.
     The G-vectors are recalculated for the final unit cell
     Results may differ from those at the preceding step.

     Parallelization info
     --------------------
     sticks:   dense  smooth     PW     G-vecs:    dense   smooth      PW
     Min         648     431    122                26757    14591    2156
     Max         649     432    123                26759    14596    2157
     Sum        3889    2587    733               160549    87555   12939

     Using Slab Decomposition



     bravais-lattice index     =            0
     lattice parameter (alat)  =       8.6227  a.u.
     unit-cell volume          =     491.7077 (a.u.)^3
     number of atoms/cell      =            2
     number of atomic types    =            2
     number of electrons       =        26.00
     number of Kohn-Sham states=           26
     kinetic-energy cutoff     =     120.0000  Ry
     charge density cutoff     =     720.0000  Ry
     scf convergence threshold =      1.0E-12
     mixing beta               =       0.3000
     number of iterations used =            8  plain     mixing
     press convergence thresh. =      5.0E-01
     Exchange-correlation= PBE
                           (   1   4   3   4   0   0   0)
     Non magnetic calculation with spin-orbit


     celldm(1)=   8.622745  celldm(2)=   0.000000  celldm(3)=   0.000000
     celldm(4)=   0.000000  celldm(5)=   0.000000  celldm(6)=   0.000000

     crystal axes: (cart. coord. in units of alat)
               a(1) = (   0.000000   0.726519   0.726519 )  
               a(2) = (   0.726519   0.000000   0.726519 )  
               a(3) = (   0.726519   0.726519  -0.000000 )  

     reciprocal axes: (cart. coord. in units 2 pi/alat)
               b(1) = ( -0.688214  0.688214  0.688214 )  
               b(2) = (  0.688214 -0.688214  0.688214 )  
               b(3) = (  0.688214  0.688214 -0.688214 )  


     PseudoPot. # 1 for Hg read from file:
     /home/User/opencode_workspace/DFT/pseudopotentials/Hg.rel-pbe-spn-rrkjus_psl.1.0.0.UPF
     MD5 check sum: 5c678cd38c6ece8c2e94bba06b90db03
     Pseudo is Ultrasoft + core correction, Zval = 20.0
     Generated using &quot;atomic&quot; code by A. Dal Corso  v.6.3
     Using radial grid of 1279 points, 10 beta functions with: 
                l(1) =   0
                l(2) =   0
                l(3) =   1
                l(4) =   1
                l(5) =   1
                l(6) =   1
                l(7) =   2
                l(8) =   2
                l(9) =   2
               l(10) =   2
     Q(r) pseudized with 0 coefficients 


     PseudoPot. # 2 for Te read from file:
     /home/User/opencode_workspace/DFT/pseudopotentials/Te.rel-pbe-n-rrkjus_psl.1.0.0.UPF
     MD5 check sum: 7fd30b6833abd190471e4dcc2367351b
     Pseudo is Ultrasoft + core correction, Zval =  6.0
     Generated using &quot;atomic&quot; code by A. Dal Corso  v.6.3
     Using radial grid of 1245 points, 10 beta functions with: 
                l(1) =   0
                l(2) =   0
                l(3) =   1
                l(4) =   1
                l(5) =   1
                l(6) =   1
                l(7) =   2
                l(8) =   2
                l(9) =   2
               l(10) =   2
     Q(r) pseudized with 0 coefficients 


     atomic species   valence    mass     pseudopotential
     Hg               20.00   200.59200     Hg( 1.00)
     Te                6.00   127.60000     Te( 1.00)

     24 Sym. Ops. (no inversion) found


                                    s                        frac. trans.

      isym =  1     identity                                     

 cryst.   s( 1) = (     1          0          0      )
                  (     0          1          0      )
                  (     0          0          1      )

 cart.    s( 1) = (  1.0000000  0.0000000  0.0000000 )
                  (  0.0000000  1.0000000  0.0000000 )
                  (  0.0000000  0.0000000  1.0000000 )


      isym =  2     180 deg rotation - cart. axis [0,0,1]        

 cryst.   s( 2) = (     0          1         -1      )
                  (     1          0         -1      )
                  (     0          0         -1      )

 cart.    s( 2) = ( -1.0000000  0.0000000  0.0000000 )
                  (  0.0000000 -1.0000000  0.0000000 )
                  (  0.0000000  0.0000000  1.0000000 )


      isym =  3     180 deg rotation - cart. axis [0,1,0]        

 cryst.   s( 3) = (     0         -1          1      )
                  (     0         -1          0      )
                  (     1         -1          0      )

 cart.    s( 3) = ( -1.0000000  0.0000000  0.0000000 )
                  (  0.0000000  1.0000000  0.0000000 )
                  (  0.0000000  0.0000000 -1.0000000 )


      isym =  4     180 deg rotation - cart. axis [1,0,0]        

 cryst.   s( 4) = (    -1          0          0      )
                  (    -1          0          1      )
                  (    -1          1          0      )

 cart.    s( 4) = (  1.0000000  0.0000000  0.0000000 )
                  (  0.0000000 -1.0000000  0.0000000 )
                  (  0.0000000  0.0000000 -1.0000000 )


      isym =  5     120 deg rotation - cart. axis [-1,-1,-1]     

 cryst.   s( 5) = (     0          0          1      )
                  (     1          0          0      )
                  (     0          1          0      )

 cart.    s( 5) = (  0.0000000  1.0000000  0.0000000 )
                  (  0.0000000  0.0000000  1.0000000 )
                  (  1.0000000  0.0000000  0.0000000 )


      isym =  6     120 deg rotation - cart. axis [-1,1,1]       

 cryst.   s( 6) = (     1         -1          0      )
                  (     0         -1          1      )
                  (     0         -1          0      )

 cart.    s( 6) = (  0.0000000 -1.0000000  0.0000000 )
                  (  0.0000000  0.0000000  1.0000000 )
                  ( -1.0000000  0.0000000  0.0000000 )


      isym =  7     120 deg rotation - cart. axis [1,1,-1]       

 cryst.   s( 7) = (    -1          1          0      )
                  (    -1          0          0      )
                  (    -1          0          1      )

 cart.    s( 7) = (  0.0000000  1.0000000  0.0000000 )
                  (  0.0000000  0.0000000 -1.0000000 )
                  ( -1.0000000  0.0000000  0.0000000 )


      isym =  8     120 deg rotation - cart. axis [1,-1,1]       

 cryst.   s( 8) = (     0          0         -1      )
                  (     0          1         -1      )
                  (     1          0         -1      )

 cart.    s( 8) = (  0.0000000 -1.0000000  0.0000000 )
                  (  0.0000000  0.0000000 -1.0000000 )
                  (  1.0000000  0.0000000  0.0000000 )


      isym =  9     120 deg rotation - cart. axis [1,1,1]        

 cryst.   s( 9) = (     0          1          0      )
                  (     0          0          1      )
                  (     1          0          0      )

 cart.    s( 9) = (  0.0000000  0.0000000  1.0000000 )
                  (  1.0000000  0.0000000  0.0000000 )
                  (  0.0000000  1.0000000  0.0000000 )


      isym = 10     120 deg rotation - cart. axis [-1,1,-1]      

 cryst.   s(10) = (    -1          0          1      )
                  (    -1          1          0      )
                  (    -1          0          0      )

 cart.    s(10) = (  0.0000000  0.0000000  1.0000000 )
                  ( -1.0000000  0.0000000  0.0000000 )
                  (  0.0000000 -1.0000000  0.0000000 )


      isym = 11     120 deg rotation - cart. axis [1,-1,-1]      

 cryst.   s(11) = (     1          0         -1      )
                  (     0          0         -1      )
                  (     0          1         -1      )

 cart.    s(11) = (  0.0000000  0.0000000 -1.0000000 )
                  ( -1.0000000  0.0000000  0.0000000 )
                  (  0.0000000  1.0000000  0.0000000 )


      isym = 12     120 deg rotation - cart. axis [-1,-1,1]      

 cryst.   s(12) = (     0         -1          0      )
                  (     1         -1          0      )
                  (     0         -1          1      )

 cart.    s(12) = (  0.0000000  0.0000000 -1.0000000 )
                  (  1.0000000  0.0000000  0.0000000 )
                  (  0.0000000 -1.0000000  0.0000000 )


      isym = 13     inv. 180 deg rotation - cart. axis [1,1,0]   

 cryst.   s(13) = (     1          0         -1      )
                  (     0          1         -1      )
                  (     0          0         -1      )

 cart.    s(13) = (  0.0000000 -1.0000000  0.0000000 )
                  ( -1.0000000  0.0000000  0.0000000 )
                  (  0.0000000  0.0000000  1.0000000 )


      isym = 14     inv. 180 deg rotation - cart. axis [1,-1,0]  

 cryst.   s(14) = (     0          1          0      )
                  (     1          0          0      )
                  (     0          0          1      )

 cart.    s(14) = (  0.0000000  1.0000000  0.0000000 )
                  (  1.0000000  0.0000000  0.0000000 )
                  (  0.0000000  0.0000000  1.0000000 )


      isym = 15     inv.  90 deg rotation - cart. axis [0,0,-1]  

 cryst.   s(15) = (     0         -1          0      )
                  (     0         -1          1      )
                  (     1         -1          0      )

 cart.    s(15) = (  0.0000000 -1.0000000  0.0000000 )
                  (  1.0000000  0.0000000  0.0000000 )
                  (  0.0000000  0.0000000 -1.0000000 )


      isym = 16     inv.  90 deg rotation - cart. axis [0,0,1]   

 cryst.   s(16) = (    -1          0          1      )
                  (    -1          0          0      )
                  (    -1          1          0      )

 cart.    s(16) = (  0.0000000  1.0000000  0.0000000 )
                  ( -1.0000000  0.0000000  0.0000000 )
                  (  0.0000000  0.0000000 -1.0000000 )


      isym = 17     inv. 180 deg rotation - cart. axis [1,0,1]   

 cryst.   s(17) = (     1         -1          0      )
                  (     0         -1          0      )
                  (     0         -1          1      )

 cart.    s(17) = (  0.0000000  0.0000000 -1.0000000 )
                  (  0.0000000  1.0000000  0.0000000 )
                  ( -1.0000000  0.0000000  0.0000000 )


      isym = 18     inv. 180 deg rotation - cart. axis [-1,0,1]  

 cryst.   s(18) = (     0          0          1      )
                  (     0          1          0      )
                  (     1          0          0      )

 cart.    s(18) = (  0.0000000  0.0000000  1.0000000 )
                  (  0.0000000  1.0000000  0.0000000 )
                  (  1.0000000  0.0000000  0.0000000 )


      isym = 19     inv.  90 deg rotation - cart. axis [0,1,0]   

 cryst.   s(19) = (     0          0         -1      )
                  (     1          0         -1      )
                  (     0          1         -1      )

 cart.    s(19) = (  0.0000000  0.0000000 -1.0000000 )
                  (  0.0000000 -1.0000000  0.0000000 )
                  (  1.0000000  0.0000000  0.0000000 )


      isym = 20     inv.  90 deg rotation - cart. axis [0,-1,0]  

 cryst.   s(20) = (    -1          1          0      )
                  (    -1          0          1      )
                  (    -1          0          0      )

 cart.    s(20) = (  0.0000000  0.0000000  1.0000000 )
                  (  0.0000000 -1.0000000  0.0000000 )
                  ( -1.0000000  0.0000000  0.0000000 )


      isym = 21     inv. 180 deg rotation - cart. axis [0,1,1]   

 cryst.   s(21) = (    -1          0          0      )
                  (    -1          1          0      )
                  (    -1          0          1      )

 cart.    s(21) = (  1.0000000  0.0000000  0.0000000 )
                  (  0.0000000  0.0000000 -1.0000000 )
                  (  0.0000000 -1.0000000  0.0000000 )


      isym = 22     inv. 180 deg rotation - cart. axis [0,1,-1]  

 cryst.   s(22) = (     1          0          0      )
                  (     0          0          1      )
                  (     0          1          0      )

 cart.    s(22) = (  1.0000000  0.0000000  0.0000000 )
                  (  0.0000000  0.0000000  1.0000000 )
                  (  0.0000000  1.0000000  0.0000000 )


      isym = 23     inv.  90 deg rotation - cart. axis [-1,0,0]  

 cryst.   s(23) = (     0          1         -1      )
                  (     0          0         -1      )
                  (     1          0         -1      )

 cart.    s(23) = ( -1.0000000  0.0000000  0.0000000 )
                  (  0.0000000  0.0000000 -1.0000000 )
                  (  0.0000000  1.0000000  0.0000000 )


      isym = 24     inv.  90 deg rotation - cart. axis [1,0,0]   

 cryst.   s(24) = (     0         -1          1      )
                  (     1         -1          0      )
                  (     0         -1          0      )

 cart.    s(24) = ( -1.0000000  0.0000000  0.0000000 )
                  (  0.0000000  0.0000000  1.0000000 )
                  (  0.0000000 -1.0000000  0.0000000 )


   Cartesian axes

     site n.     atom                  positions (alat units)
         1        Hg     tau(   1) = (  -0.0000000  -0.0000000  -0.0000000  )
         2        Te     tau(   2) = (   0.3632593   0.3632593   0.3632593  )

   Crystallographic axes

     site n.     atom                  positions (cryst. coord.)
         1        Hg     tau(   1) = ( -0.0000000 -0.0000000 -0.0000000  )
         2        Te     tau(   2) = (  0.2500000  0.2500000  0.2500000  )

     number of k points=    47
                       cart. coord. in units 2pi/alat
        k(    1) = (   0.0000000   0.0000000   0.0000000), wk =   0.0010000
        k(    2) = (   0.0688214   0.0688214  -0.0688214), wk =   0.0080000
        k(    3) = (   0.1376427   0.1376427  -0.1376427), wk =   0.0080000
        k(    4) = (   0.2064641   0.2064641  -0.2064641), wk =   0.0080000
        k(    5) = (   0.2752854   0.2752854  -0.2752854), wk =   0.0080000
        k(    6) = (  -0.3441068  -0.3441068   0.3441068), wk =   0.0040000
        k(    7) = (   0.1376427   0.0000000   0.0000000), wk =   0.0060000
        k(    8) = (   0.2064641   0.0688214  -0.0688214), wk =   0.0240000
        k(    9) = (   0.2752854   0.1376427  -0.1376427), wk =   0.0240000
        k(   10) = (   0.3441068   0.2064641  -0.2064641), wk =   0.0240000
        k(   11) = (  -0.2752854  -0.4129281   0.4129281), wk =   0.0240000
        k(   12) = (  -0.2064641  -0.3441068   0.3441068), wk =   0.0240000
        k(   13) = (  -0.1376427  -0.2752854   0.2752854), wk =   0.0240000
        k(   14) = (  -0.0688214  -0.2064641   0.2064641), wk =   0.0240000
        k(   15) = (   0.0000000  -0.1376427   0.1376427), wk =   0.0120000
        k(   16) = (   0.2752854   0.0000000   0.0000000), wk =   0.0060000
        k(   17) = (   0.3441068   0.0688214  -0.0688214), wk =   0.0240000
        k(   18) = (   0.4129281   0.1376427  -0.1376427), wk =   0.0240000
        k(   19) = (  -0.2064641  -0.4817495   0.4817495), wk =   0.0240000
        k(   20) = (  -0.1376427  -0.4129281   0.4129281), wk =   0.0240000
        k(   21) = (  -0.0688214  -0.3441068   0.3441068), wk =   0.0240000
        k(   22) = (   0.0000000  -0.2752854   0.2752854), wk =   0.0120000
        k(   23) = (   0.4129281   0.0000000   0.0000000), wk =   0.0060000
        k(   24) = (   0.4817495   0.0688214  -0.0688214), wk =   0.0240000
        k(   25) = (  -0.1376427  -0.5505708   0.5505708), wk =   0.0240000
        k(   26) = (  -0.0688214  -0.4817495   0.4817495), wk =   0.0240000
        k(   27) = (  -0.0000000  -0.4129281   0.4129281), wk =   0.0120000
        k(   28) = (   0.5505708   0.0000000   0.0000000), wk =   0.0060000
        k(   29) = (  -0.0688214  -0.6193922   0.6193922), wk =   0.0240000
        k(   30) = (  -0.0000000  -0.5505708   0.5505708), wk =   0.0120000
        k(   31) = (  -0.6882135   0.0000000   0.0000000), wk =   0.0030000
        k(   32) = (   0.2752854   0.1376427   0.0000000), wk =   0.0240000
        k(   33) = (   0.3441068   0.2064641  -0.0688214), wk =   0.0480000
        k(   34) = (  -0.2752854  -0.4129281   0.5505708), wk =   0.0480000
        k(   35) = (  -0.2064641  -0.3441068   0.4817495), wk =   0.0240000
        k(   36) = (   0.4129281   0.1376427  -0.0000000), wk =   0.0240000
        k(   37) = (  -0.2064641  -0.4817495   0.6193922), wk =   0.0480000
        k(   38) = (  -0.1376427  -0.4129281   0.5505708), wk =   0.0480000
        k(   39) = (  -0.0688214  -0.3441068   0.4817495), wk =   0.0480000
        k(   40) = (   0.0000000  -0.2752854   0.4129281), wk =   0.0240000
        k(   41) = (  -0.1376427  -0.5505708   0.6882135), wk =   0.0240000
        k(   42) = (  -0.0688214  -0.4817495   0.6193922), wk =   0.0480000
        k(   43) = (   0.0000000  -0.4129281   0.5505708), wk =   0.0240000
        k(   44) = (  -0.6882135   0.1376427   0.0000000), wk =   0.0120000
        k(   45) = (  -0.1376427  -0.4129281   0.6882135), wk =   0.0240000
        k(   46) = (  -0.0688214  -0.3441068   0.6193922), wk =   0.0240000
        k(   47) = (  -0.6882135   0.2752854   0.0000000), wk =   0.0120000

                       cryst. coord.
        k(    1) = (   0.0000000   0.0000000   0.0000000), wk =   0.0010000
        k(    2) = (  -0.0000000  -0.0000000   0.1000000), wk =   0.0080000
        k(    3) = (  -0.0000000  -0.0000000   0.2000000), wk =   0.0080000
        k(    4) = (   0.0000000   0.0000000   0.3000000), wk =   0.0080000
        k(    5) = (  -0.0000000  -0.0000000   0.4000000), wk =   0.0080000
        k(    6) = (   0.0000000   0.0000000  -0.5000000), wk =   0.0040000
        k(    7) = (   0.0000000   0.1000000   0.1000000), wk =   0.0060000
        k(    8) = (   0.0000000   0.1000000   0.2000000), wk =   0.0240000
        k(    9) = (   0.0000000   0.1000000   0.3000000), wk =   0.0240000
        k(   10) = (   0.0000000   0.1000000   0.4000000), wk =   0.0240000
        k(   11) = (   0.0000000   0.1000000  -0.5000000), wk =   0.0240000
        k(   12) = (   0.0000000   0.1000000  -0.4000000), wk =   0.0240000
        k(   13) = (   0.0000000   0.1000000  -0.3000000), wk =   0.0240000
        k(   14) = (  -0.0000000   0.1000000  -0.2000000), wk =   0.0240000
        k(   15) = (  -0.0000000   0.1000000  -0.1000000), wk =   0.0120000
        k(   16) = (   0.0000000   0.2000000   0.2000000), wk =   0.0060000
        k(   17) = (  -0.0000000   0.2000000   0.3000000), wk =   0.0240000
        k(   18) = (   0.0000000   0.2000000   0.4000000), wk =   0.0240000
        k(   19) = (  -0.0000000   0.2000000  -0.5000000), wk =   0.0240000
        k(   20) = (   0.0000000   0.2000000  -0.4000000), wk =   0.0240000
        k(   21) = (   0.0000000   0.2000000  -0.3000000), wk =   0.0240000
        k(   22) = (  -0.0000000   0.2000000  -0.2000000), wk =   0.0120000
        k(   23) = (   0.0000000   0.3000000   0.3000000), wk =   0.0060000
        k(   24) = (  -0.0000000   0.3000000   0.4000000), wk =   0.0240000
        k(   25) = (  -0.0000000   0.3000000  -0.5000000), wk =   0.0240000
        k(   26) = (   0.0000000   0.3000000  -0.4000000), wk =   0.0240000
        k(   27) = (   0.0000000   0.3000000  -0.3000000), wk =   0.0120000
        k(   28) = (   0.0000000   0.4000000   0.4000000), wk =   0.0060000
        k(   29) = (   0.0000000   0.4000000  -0.5000000), wk =   0.0240000
        k(   30) = (   0.0000000   0.4000000  -0.4000000), wk =   0.0120000
        k(   31) = (  -0.0000000  -0.5000000  -0.5000000), wk =   0.0030000
        k(   32) = (   0.1000000   0.2000000   0.3000000), wk =   0.0240000
        k(   33) = (   0.1000000   0.2000000   0.4000000), wk =   0.0480000
        k(   34) = (   0.1000000   0.2000000  -0.5000000), wk =   0.0480000
        k(   35) = (   0.1000000   0.2000000  -0.4000000), wk =   0.0240000
        k(   36) = (   0.1000000   0.3000000   0.4000000), wk =   0.0240000
        k(   37) = (   0.1000000   0.3000000  -0.5000000), wk =   0.0480000
        k(   38) = (   0.1000000   0.3000000  -0.4000000), wk =   0.0480000
        k(   39) = (   0.1000000   0.3000000  -0.3000000), wk =   0.0480000
        k(   40) = (   0.1000000   0.3000000  -0.2000000), wk =   0.0240000
        k(   41) = (   0.1000000   0.4000000  -0.5000000), wk =   0.0240000
        k(   42) = (   0.1000000   0.4000000  -0.4000000), wk =   0.0480000
        k(   43) = (   0.1000000   0.4000000  -0.3000000), wk =   0.0240000
        k(   44) = (   0.1000000  -0.5000000  -0.4000000), wk =   0.0120000
        k(   45) = (   0.2000000   0.4000000  -0.4000000), wk =   0.0240000
        k(   46) = (   0.2000000   0.4000000  -0.3000000), wk =   0.0240000
        k(   47) = (   0.2000000  -0.5000000  -0.3000000), wk =   0.0120000

     Dense  grid:   160549 G-vectors     FFT dimensions: (  75,  75,  75)

     Smooth grid:    87555 G-vectors     FFT dimensions: (  64,  64,  64)

     Dynamical RAM for                 wfc:       1.44 MB

     Dynamical RAM for     wfc (w. buffer):      69.28 MB

     Dynamical RAM for           str. fact:       0.82 MB

     Dynamical RAM for           local pot:       0.38 MB

     Dynamical RAM for          nlocal pot:       1.89 MB

     Dynamical RAM for                qrad:      33.83 MB

     Dynamical RAM for          rho,v,vnew:      11.59 MB

     Dynamical RAM for               rhoin:       3.86 MB

     Dynamical RAM for            rho*nmix:      26.13 MB

     Dynamical RAM for           G-vectors:       1.64 MB

     Dynamical RAM for          h,s,v(r/c):       0.12 MB

     Dynamical RAM for          <psi|beta>:       0.05 MB

     Dynamical RAM for                 psi:       2.89 MB

     Dynamical RAM for                hpsi:       2.89 MB

     Dynamical RAM for                spsi:       2.89 MB

     Dynamical RAM for      wfcinit/wfcrot:       2.35 MB

     Dynamical RAM for           addusdens:     249.46 MB

     Dynamical RAM for          addusforce:     249.68 MB

     Dynamical RAM for         addusstress:     256.40 MB

     Estimated static dynamical RAM per process >     128.97 MB

     Estimated max dynamical RAM per process >     411.50 MB

     Estimated total dynamical RAM >       2.41 GB

     Initial potential from superposition of free atoms

     starting charge      25.9997, renormalised to      26.0000
     Starting wfcs are   28 randomized atomic wfcs

     total cpu time spent up to now is     1719.4 secs

     per-process dynamical memory:   151.2 Mb

     Self-consistent Calculation

     iteration #  1     ecut=   120.00 Ry     beta= 0.30
     Davidson diagonalization with overlap

---- Real-time Memory Report at c_bands before calling an iterative solver
           436 MiB given to the printing process from OS
           148 MiB allocation reported by mallinfo(arena+hblkhd)
         10970 MiB available memory on the node where the printing process lives
------------------
     ethr =  1.00E-06,  avg # of iterations = 11.7

     total cpu time spent up to now is     1743.8 secs

     total energy              =    -346.73668597 Ry
     estimated scf accuracy    <       0.04171584 Ry

     iteration #  2     ecut=   120.00 Ry     beta= 0.30
     Davidson diagonalization with overlap

---- Real-time Memory Report at c_bands before calling an iterative solver
           454 MiB given to the printing process from OS
           166 MiB allocation reported by mallinfo(arena+hblkhd)
         10380 MiB available memory on the node where the printing process lives
------------------
     ethr =  1.60E-04,  avg # of iterations =  2.0

     total cpu time spent up to now is     1753.3 secs

     total energy              =    -346.74080494 Ry
     estimated scf accuracy    <       0.00518597 Ry

     iteration #  3     ecut=   120.00 Ry     beta= 0.30
     Davidson diagonalization with overlap

---- Real-time Memory Report at c_bands before calling an iterative solver
           456 MiB given to the printing process from OS
           168 MiB allocation reported by mallinfo(arena+hblkhd)
         10575 MiB available memory on the node where the printing process lives
------------------
     ethr =  1.99E-05,  avg # of iterations =  3.0

     total cpu time spent up to now is     1762.7 secs

     total energy              =    -346.74144162 Ry
     estimated scf accuracy    <       0.00133687 Ry

     iteration #  4     ecut=   120.00 Ry     beta= 0.30
     Davidson diagonalization with overlap

---- Real-time Memory Report at c_bands before calling an iterative solver
           457 MiB given to the printing process from OS
           169 MiB allocation reported by mallinfo(arena+hblkhd)
         10375 MiB available memory on the node where the printing process lives
------------------
     ethr =  5.14E-06,  avg # of iterations =  2.0

     total cpu time spent up to now is     1770.8 secs

     total energy              =    -346.74153656 Ry
     estimated scf accuracy    <       0.00008792 Ry

     iteration #  5     ecut=   120.00 Ry     beta= 0.30
     Davidson diagonalization with overlap

---- Real-time Memory Report at c_bands before calling an iterative solver
           459 MiB given to the printing process from OS
           171 MiB allocation reported by mallinfo(arena+hblkhd)
         10377 MiB available memory on the node where the printing process lives
------------------
     ethr =  3.38E-07,  avg # of iterations =  3.6

     total cpu time spent up to now is     1793.7 secs

     total energy              =    -346.74155059 Ry
     estimated scf accuracy    <       0.00000997 Ry

     iteration #  6     ecut=   120.00 Ry     beta= 0.30
     Davidson diagonalization with overlap

---- Real-time Memory Report at c_bands before calling an iterative solver
           461 MiB given to the printing process from OS
           173 MiB allocation reported by mallinfo(arena+hblkhd)
         10596 MiB available memory on the node where the printing process lives
------------------
     ethr =  3.84E-08,  avg # of iterations =  3.7

     total cpu time spent up to now is     1877.2 secs

     total energy              =    -346.74155339 Ry
     estimated scf accuracy    <       0.00000234 Ry

     iteration #  7     ecut=   120.00 Ry     beta= 0.30
     Davidson diagonalization with overlap

---- Real-time Memory Report at c_bands before calling an iterative solver
           463 MiB given to the printing process from OS
           175 MiB allocation reported by mallinfo(arena+hblkhd)
         10604 MiB available memory on the node where the printing process lives
------------------
     ethr =  9.01E-09,  avg # of iterations =  2.6

     total cpu time spent up to now is     1953.0 secs

     total energy              =    -346.74155381 Ry
     estimated scf accuracy    <       0.00000043 Ry

     iteration #  8     ecut=   120.00 Ry     beta= 0.30
     Davidson diagonalization with overlap

---- Real-time Memory Report at c_bands before calling an iterative solver
           465 MiB given to the printing process from OS
           176 MiB allocation reported by mallinfo(arena+hblkhd)
         10510 MiB available memory on the node where the printing process lives
------------------
     ethr =  1.67E-09,  avg # of iterations =  4.0

     total cpu time spent up to now is     2028.1 secs

     total energy              =    -346.74155393 Ry
     estimated scf accuracy    <       0.00000003 Ry

     iteration #  9     ecut=   120.00 Ry     beta= 0.30
     Davidson diagonalization with overlap

---- Real-time Memory Report at c_bands before calling an iterative solver
           466 MiB given to the printing process from OS
           178 MiB allocation reported by mallinfo(arena+hblkhd)
         10472 MiB available memory on the node where the printing process lives
------------------
     ethr =  1.26E-10,  avg # of iterations =  3.3

     total cpu time spent up to now is     2104.9 secs

     total energy              =    -346.74155394 Ry
     estimated scf accuracy    <          4.4E-09 Ry

     iteration # 10     ecut=   120.00 Ry     beta= 0.30
     Davidson diagonalization with overlap

---- Real-time Memory Report at c_bands before calling an iterative solver
           468 MiB given to the printing process from OS
           180 MiB allocation reported by mallinfo(arena+hblkhd)
         10449 MiB available memory on the node where the printing process lives
------------------
     ethr =  1.68E-11,  avg # of iterations =  4.1

     total cpu time spent up to now is     2187.2 secs

     total energy              =    -346.74155395 Ry
     estimated scf accuracy    <          2.1E-09 Ry

     iteration # 11     ecut=   120.00 Ry     beta= 0.30
     Davidson diagonalization with overlap

---- Real-time Memory Report at c_bands before calling an iterative solver
           468 MiB given to the printing process from OS
           180 MiB allocation reported by mallinfo(arena+hblkhd)
         10472 MiB available memory on the node where the printing process lives
------------------
     ethr =  7.97E-12,  avg # of iterations =  4.0

     total cpu time spent up to now is     2265.8 secs

     total energy              =    -346.74155395 Ry
     estimated scf accuracy    <          1.7E-09 Ry

     iteration # 12     ecut=   120.00 Ry     beta= 0.30
     Davidson diagonalization with overlap

---- Real-time Memory Report at c_bands before calling an iterative solver
           468 MiB given to the printing process from OS
           180 MiB allocation reported by mallinfo(arena+hblkhd)
         10397 MiB available memory on the node where the printing process lives
------------------
     ethr =  6.70E-12,  avg # of iterations =  2.0

     total cpu time spent up to now is     2332.1 secs

     total energy              =    -346.74155395 Ry
     estimated scf accuracy    <          1.7E-10 Ry

     iteration # 13     ecut=   120.00 Ry     beta= 0.30
     Davidson diagonalization with overlap

---- Real-time Memory Report at c_bands before calling an iterative solver
           468 MiB given to the printing process from OS
           180 MiB allocation reported by mallinfo(arena+hblkhd)
         10395 MiB available memory on the node where the printing process lives
------------------
     ethr =  6.40E-13,  avg # of iterations =  4.1

     total cpu time spent up to now is     2414.9 secs

     total energy              =    -346.74155395 Ry
     estimated scf accuracy    <          3.4E-11 Ry

     iteration # 14     ecut=   120.00 Ry     beta= 0.30
     Davidson diagonalization with overlap

---- Real-time Memory Report at c_bands before calling an iterative solver
           468 MiB given to the printing process from OS
           180 MiB allocation reported by mallinfo(arena+hblkhd)
         10338 MiB available memory on the node where the printing process lives
------------------
     ethr =  1.32E-13,  avg # of iterations =  2.8

     total cpu time spent up to now is     2483.7 secs

     End of self-consistent calculation

          k = 0.0000 0.0000 0.0000 ( 10969 PWs)   bands (ev):

  -108.1515-108.1515 -70.1405 -70.1405 -51.8692 -51.8692 -51.8692 -51.8692
    -5.1669  -5.1669  -1.4757  -1.4757  -1.4757  -1.4757  -0.0475  -0.0475
     0.3686   0.3686   0.3686   0.3686   5.4175   5.4175   5.7860   5.7860
     6.5577   6.5577

     occupation numbers 
     1.0000   1.0000   1.0000   1.0000   1.0000   1.0000   1.0000   1.0000
     1.0000   1.0000   1.0000   1.0000   1.0000   1.0000   1.0000   1.0000
     1.0000   1.0000   1.0000   1.0000   1.0000   1.0000   1.0000   1.0000
     1.0000   1.0000

          k = 0.0688 0.0688-0.0688 ( 10939 PWs)   bands (ev):

  -108.1515-108.1515 -70.1405 -70.1405 -51.8692 -51.8692 -51.8692 -51.8692
    -5.1248  -5.1248  -1.4855  -1.4609  -1.4583  -1.4583  -0.0334  -0.0334
     0.3552   0.3629   0.3629   0.4027   4.7130   4.7130   5.8683   5.8683
     6.4328   6.4865

     occupation numbers 
     1.0000   1.0000   1.0000   1.0000   1.0000   1.0000   1.0000   1.0000
     1.0000   1.0000   1.0000   1.0000   1.0000   1.0000   1.0000   1.0000
     1.0000   1.0000   1.0000   1.0000   1.0000   1.0000   1.0000   1.0000
     1.0000   1.0000

          k = 0.1376 0.1376-0.1376 ( 10924 PWs)   bands (ev):

  -108.1515-108.1515 -70.1405 -70.1405 -51.8692 -51.8692 -51.8692 -51.8692
    -5.0118  -5.0118  -1.4871  -1.4472  -1.4034  -1.4034   0.0098   0.0098
     0.3541   0.3541   0.3684   0.4466   3.6658   3.6658   5.6745   5.6745
     6.1830   6.2660

     occupation numbers 
     1.0000   1.0000   1.0000   1.0000   1.0000   1.0000   1.0000   1.0000
     1.0000   1.0000   1.0000   1.0000   1.0000   1.0000   1.0000   1.0000
     1.0000   1.0000   1.0000   1.0000   1.0000   1.0000   1.0000   1.0000
     1.0000   1.0000

          k = 0.2065 0.2065-0.2065 ( 10924 PWs)   bands (ev):

  -108.1515-108.1515 -70.1405 -70.1405 -51.8693 -51.8693 -51.8692 -51.8692
    -4.8657  -4.8657  -1.4805  -1.4406  -1.3102  -1.3102   0.0747   0.0747
     0.3770   0.3770   0.4057   0.4855   2.6297   2.6297   5.4236   5.4236
     5.9250   6.0053

     occupation numbers 
     1.0000   1.0000   1.0000   1.0000   1.0000   1.0000   1.0000   1.0000
     1.0000   1.0000   1.0000   1.0000   1.0000   1.0000   1.0000   1.0000
     1.0000   1.0000   1.0000   1.0000   1.0000   1.0000   1.0000   1.0000
     1.0000   1.0000

          k = 0.2753 0.2753-0.2753 ( 10931 PWs)   bands (ev):

  -108.1515-108.1515 -70.1406 -70.1406 -51.8693 -51.8693 -51.8692 -51.8692
    -4.7422  -4.7422  -1.4683  -1.4436  -1.2032  -1.2032   0.1214   0.1214
     0.4538   0.5040   0.5133   0.5133   1.7547   1.7547   5.2349   5.2349
     5.7488   5.7976

     occupation numbers 
     1.0000   1.0000   1.0000   1.0000   1.0000   1.0000   1.0000   1.0000
     1.0000   1.0000   1.0000   1.0000   1.0000   1.0000   1.0000   1.0000
     1.0000   1.0000   1.0000   1.0000   1.0000   1.0000   1.0000   1.0000
     1.0000   1.0000

          k =-0.3441-0.3441 0.3441 ( 10958 PWs)   bands (ev):

  -108.1515-108.1515 -70.1406 -70.1406 -51.8694 -51.8694 -51.8692 -51.8692
    -4.6938  -4.6938  -1.4543  -1.4543  -1.1517  -1.1517   0.1319   0.1319
     0.4922   0.4922   0.7031   0.7031   1.2951   1.2951   5.1658   5.1658
     5.7031   5.7031

     occupation numbers 
     1.0000   1.0000   1.0000   1.0000   1.0000   1.0000   1.0000   1.0000
     1.0000   1.0000   1.0000   1.0000   1.0000   1.0000   1.0000   1.0000
     1.0000   1.0000   1.0000   1.0000   1.0000   1.0000   1.0000   1.0000
     1.0000   1.0000

          k = 0.1376 0.0000 0.0000 ( 10958 PWs)   bands (ev):

  -108.1515-108.1515 -70.1405 -70.1405 -51.8692 -51.8692 -51.8692 -51.8692
    -5.1108  -5.1108  -1.4742  -1.4742  -1.4507  -1.4507  -0.0292  -0.0292
     0.3505   0.3505   0.3932   0.3932   4.6233   4.6233   5.7661   5.7661
     6.2406   6.2406

     occupation numbers 
     1.0000   1.0000   1.0000   1.0000   1.0000   1.0000   1.0000   1.0000
     1.0000   1.0000   1.0000   1.0000   1.0000   1.0000   1.0000   1.0000
     1.0000   1.0000   1.0000   1.0000   1.0000   1.0000   1.0000   1.0000
     1.0000   1.0000

          k = 0.2065 0.0688-0.0688 ( 10935 PWs)   bands (ev):

  -108.1515-108.1515 -70.1405 -70.1405 -51.8692 -51.8692 -51.8692 -51.8692
    -5.0213  -5.0211  -1.4791  -1.4425  -1.4318  -1.4025   0.0012   0.0057
     0.3379   0.3580   0.3844   0.4377   3.8583   3.8659   5.5252   5.5700
     5.9308   6.0035

     occupation numbers 
     1.0000   1.0000   1.0000   1.0000   1.0000   1.0000   1.0000   1.0000
     1.0000   1.0000   1.0000   1.0000   1.0000   1.0000   1.0000   1.0000
     1.0000   1.0000   1.0000   1.0000   1.0000   1.0000   1.0000   1.0000
     1.0000   1.0000

          k = 0.2753 0.1376-0.1376 ( 10931 PWs)   bands (ev):

  -108.1515-108.1515 -70.1405 -70.1405 -51.8693 -51.8693 -51.8692 -51.8692
    -4.8858  -4.8851  -1.4747  -1.4301  -1.3654  -1.3110   0.0582   0.0682
     0.3371   0.3905   0.3945   0.4839   2.8962   2.9199   5.2379   5.2972
     5.6403   5.7333

     occupation numbers 
     1.0000   1.0000   1.0000   1.0000   1.0000   1.0000   1.0000   1.0000
     1.0000   1.0000   1.0000   1.0000   1.0000   1.0000   1.0000   1.0000
     1.0000   1.0000   1.0000   1.0000   1.0000   1.0000   1.0000   1.0000
     1.0000   1.0000

          k = 0.3441 0.2065-0.2065 ( 10914 PWs)   bands (ev):

  -108.1515-108.1515 -70.1406 -70.1406 -51.8693 -51.8693 -51.8692 -51.8692
    -4.7543  -4.7526  -1.4636  -1.4296  -1.2743  -1.1912   0.1157   0.1295
     0.4065   0.4348   0.4898   0.5231   1.9929   2.0397   4.9914   5.0510
     5.4393   5.5078

     occupation numbers 
     1.0000   1.0000   1.0000   1.0000   1.0000   1.0000   1.0000   1.0000
     1.0000   1.0000   1.0000   1.0000   1.0000   1.0000   1.0000   1.0000
     1.0000   1.0000   1.0000   1.0000   1.0000   1.0000   1.0000   1.0000
     1.0000   1.0000

          k =-0.2753-0.4129 0.4129 ( 10915 PWs)   bands (ev):

  -108.1515-108.1515 -70.1406 -70.1406 -51.8694 -51.8693 -51.8692 -51.8692
    -4.6804  -4.6780  -1.4497  -1.4381  -1.2090  -1.1047   0.1343   0.1543
     0.4779   0.4875   0.6504   0.6921   1.3545   1.4311   4.8346   4.8914
     5.3957   5.4157

     occupation numbers 
     1.0000   1.0000   1.0000   1.0000   1.0000   1.0000   1.0000   1.0000
     1.0000   1.0000   1.0000   1.0000   1.0000   1.0000   1.0000   1.0000
     1.0000   1.0000   1.0000   1.0000   1.0000   1.0000   1.0000   1.0000
     1.0000   1.0000

          k =-0.2065-0.3441 0.3441 ( 10927 PWs)   bands (ev):

  -108.1515-108.1515 -70.1406 -70.1406 -51.8694 -51.8693 -51.8692 -51.8692
    -4.6965  -4.6942  -1.4519  -1.4377  -1.2243  -1.1233   0.1293   0.1541
     0.4650   0.4899   0.5744   0.6265   1.5120   1.5908   4.8016   4.8624
     5.4869   5.5131

     occupation numbers 
     1.0000   1.0000   1.0000   1.0000   1.0000   1.0000   1.0000   1.0000
     1.0000   1.0000   1.0000   1.0000   1.0000   1.0000   1.0000   1.0000
     1.0000   1.0000   1.0000   1.0000   1.0000   1.0000   1.0000   1.0000
     1.0000   1.0000

          k =-0.1376-0.2753 0.2753 ( 10909 PWs)   bands (ev):

  -108.1515-108.1515 -70.1406 -70.1405 -51.8693 -51.8693 -51.8692 -51.8692
    -4.7954  -4.7939  -1.4662  -1.4323  -1.3054  -1.2292   0.0960   0.1210
     0.3880   0.4107   0.4275   0.5148   2.2677   2.3246   4.9200   4.9881
     5.6939   5.7495

     occupation numbers 
     1.0000   1.0000   1.0000   1.0000   1.0000   1.0000   1.0000   1.0000
     1.0000   1.0000   1.0000   1.0000   1.0000   1.0000   1.0000   1.0000
     1.0000   1.0000   1.0000   1.0000   1.0000   1.0000   1.0000   1.0000
     1.0000   1.0000

          k =-0.0688-0.2065 0.2065 ( 10936 PWs)   bands (ev):

  -108.1515-108.1515 -70.1405 -70.1405 -51.8693 -51.8693 -51.8692 -51.8692
    -4.9346  -4.9340  -1.4773  -1.4366  -1.3902  -1.3431   0.0349   0.0511
     0.3433   0.3661   0.3816   0.4730   3.1997   3.2346   5.1970   5.2674
     5.9680   6.0315

     occupation numbers 
     1.0000   1.0000   1.0000   1.0000   1.0000   1.0000   1.0000   1.0000
     1.0000   1.0000   1.0000   1.0000   1.0000   1.0000   1.0000   1.0000
     1.0000   1.0000   1.0000   1.0000   1.0000   1.0000   1.0000   1.0000
     1.0000   1.0000

          k = 0.0000-0.1376 0.1376 ( 10941 PWs)   bands (ev):

  -108.1515-108.1515 -70.1405 -70.1405 -51.8692 -51.8692 -51.8692 -51.8692
    -5.0591  -5.0589  -1.4835  -1.4490  -1.4430  -1.4204  -0.0126  -0.0068
     0.3480   0.3581   0.3673   0.4297   4.1046   4.1190   5.5934   5.6512
     6.2242   6.2764

     occupation numbers 
     1.0000   1.0000   1.0000   1.0000   1.0000   1.0000   1.0000   1.0000
     1.0000   1.0000   1.0000   1.0000   1.0000   1.0000   1.0000   1.0000
     1.0000   1.0000   1.0000   1.0000   1.0000   1.0000   1.0000   1.0000
     1.0000   1.0000

          k = 0.2753 0.0000 0.0000 ( 10962 PWs)   bands (ev):

  -108.1515-108.1515 -70.1405 -70.1405 -51.8692 -51.8692 -51.8692 -51.8692
    -4.9594  -4.9594  -1.4533  -1.4533  -1.3916  -1.3916   0.0223   0.0223
     0.3415   0.3415   0.4325   0.4325   3.5897   3.5897   5.2903   5.2903
     5.5945   5.5945

     occupation numbers 
     1.0000   1.0000   1.0000   1.0000   1.0000   1.0000   1.0000   1.0000
     1.0000   1.0000   1.0000   1.0000   1.0000   1.0000   1.0000   1.0000
     1.0000   1.0000   1.0000   1.0000   1.0000   1.0000   1.0000   1.0000
     1.0000   1.0000

          k = 0.3441 0.0688-0.0688 ( 10943 PWs)   bands (ev):

  -108.1515-108.1515 -70.1406 -70.1405 -51.8693 -51.8693 -51.8692 -51.8692
    -4.8473  -4.8464  -1.4544  -1.4144  -1.3706  -1.3045   0.0660   0.0709
     0.3254   0.3772   0.4371   0.4884   2.9297   2.9522   4.9491   5.0190
     5.2313   5.3213

     occupation numbers 
     1.0000   1.0000   1.0000   1.0000   1.0000   1.0000   1.0000   1.0000
     1.0000   1.0000   1.0000   1.0000   1.0000   1.0000   1.0000   1.0000
     1.0000   1.0000   1.0000   1.0000   1.0000   1.0000   1.0000   1.0000
     1.0000   1.0000

          k = 0.4129 0.1376-0.1376 ( 10905 PWs)   bands (ev):

  -108.1515-108.1515 -70.1406 -70.1406 -51.8693 -51.8693 -51.8692 -51.8692
    -4.7254  -4.7229  -1.4465  -1.3940  -1.3187  -1.1820   0.1322   0.1331
     0.3407   0.4309   0.4994   0.5419   2.1612   2.2255   4.5912   4.6568
     5.0303   5.0983

     occupation numbers 
     1.0000   1.0000   1.0000   1.0000   1.0000   1.0000   1.0000   1.0000
     1.0000   1.0000   1.0000   1.0000   1.0000   1.0000   1.0000   1.0000
     1.0000   1.0000   1.0000   1.0000   1.0000   1.0000   1.0000   1.0000
     1.0000   1.0000

          k =-0.2065-0.4817 0.4817 ( 10907 PWs)   bands (ev):

  -108.1515-108.1515 -70.1406 -70.1406 -51.8694 -51.8693 -51.8692 -51.8692
    -4.6421  -4.6379  -1.4342  -1.3964  -1.2626  -1.0721   0.1696   0.1740
     0.4354   0.4708   0.6172   0.6722   1.5043   1.6297   4.2795   4.3418
     5.0230   5.0377

     occupation numbers 
     1.0000   1.0000   1.0000   1.0000   1.0000   1.0000   1.0000   1.0000
     1.0000   1.0000   1.0000   1.0000   1.0000   1.0000   1.0000   1.0000
     1.0000   1.0000   1.0000   1.0000   1.0000   1.0000   1.0000   1.0000
     1.0000   1.0000

          k =-0.1376-0.4129 0.4129 ( 10923 PWs)   bands (ev):

  -108.1515-108.1515 -70.1406 -70.1406 -51.8694 -51.8693 -51.8693 -51.8692
    -4.6322  -4.6274  -1.4229  -1.4097  -1.2544  -1.0497   0.1663   0.1911
     0.4733   0.4888   0.6389   0.7173   1.3543   1.5372   4.1075   4.1889
     5.1549   5.1822

     occupation numbers 
     1.0000   1.0000   1.0000   1.0000   1.0000   1.0000   1.0000   1.0000
     1.0000   1.0000   1.0000   1.0000   1.0000   1.0000   1.0000   1.0000
     1.0000   1.0000   1.0000   1.0000   1.0000   1.0000   1.0000   1.0000
     1.0000   1.0000

          k =-0.0688-0.3441 0.3441 ( 10913 PWs)   bands (ev):

  -108.1515-108.1515 -70.1406 -70.1406 -51.8694 -51.8693 -51.8692 -51.8692
    -4.6997  -4.6960  -1.4296  -1.4181  -1.2997  -1.1294   0.1397   0.1819
     0.4304   0.4399   0.4640   0.5766   1.8851   2.0378   4.1640   4.2650
     5.4059   5.4604

     occupation numbers 
     1.0000   1.0000   1.0000   1.0000   1.0000   1.0000   1.0000   1.0000
     1.0000   1.0000   1.0000   1.0000   1.0000   1.0000   1.0000   1.0000
     1.0000   1.0000   1.0000   1.0000   1.0000   1.0000   1.0000   1.0000
     1.0000   1.0000

          k = 0.0000-0.2753 0.2753 ( 10923 PWs)   bands (ev):

  -108.1515-108.1515 -70.1406 -70.1405 -51.8693 -51.8693 -51.8692 -51.8692
    -4.8160  -4.8141  -1.4542  -1.4232  -1.3558  -1.2468   0.0844   0.1223
     0.3551   0.3776   0.4123   0.5174   2.5780   2.6739   4.5346   4.6327
     5.7093   5.7745

     occupation numbers 
     1.0000   1.0000   1.0000   1.0000   1.0000   1.0000   1.0000   1.0000
     1.0000   1.0000   1.0000   1.0000   1.0000   1.0000   1.0000   1.0000
     1.0000   1.0000   1.0000   1.0000   1.0000   1.0000   1.0000   1.0000
     1.0000   1.0000

          k = 0.4129 0.0000 0.0000 ( 10922 PWs)   bands (ev):

  -108.1515-108.1515 -70.1406 -70.1406 -51.8693 -51.8693 -51.8692 -51.8692
    -4.7629  -4.7629  -1.4238  -1.4238  -1.2913  -1.2913   0.0917   0.0917
     0.3589   0.3589   0.5006   0.5006   2.6119   2.6119   4.7508   4.7508
     4.9737   4.9737

     occupation numbers 
     1.0000   1.0000   1.0000   1.0000   1.0000   1.0000   1.0000   1.0000
     1.0000   1.0000   1.0000   1.0000   1.0000   1.0000   1.0000   1.0000
     1.0000   1.0000   1.0000   1.0000   1.0000   1.0000   1.0000   1.0000
     1.0000   1.0000

          k = 0.4817 0.0688-0.0688 ( 10910 PWs)   bands (ev):

  -108.1515-108.1515 -70.1406 -70.1406 -51.8693 -51.8693 -51.8693 -51.8693
    -4.6653  -4.6633  -1.4242  -1.3870  -1.2780  -1.1720   0.1297   0.1477
     0.3435   0.4300   0.5482   0.5700   2.0770   2.1227   4.4175   4.4914
     4.6906   4.7677

     occupation numbers 
     1.0000   1.0000   1.0000   1.0000   1.0000   1.0000   1.0000   1.0000
     1.0000   1.0000   1.0000   1.0000   1.0000   1.0000   1.0000   1.0000
     1.0000   1.0000   1.0000   1.0000   1.0000   1.0000   1.0000   1.0000
     1.0000   1.0000

          k =-0.1376-0.5506 0.5506 ( 10909 PWs)   bands (ev):

  -108.1515-108.1515 -70.1406 -70.1406 -51.8694 -51.8693 -51.8693 -51.8693
    -4.5921  -4.5873  -1.4177  -1.3555  -1.2746  -1.0539   0.1683   0.2200
     0.3695   0.4839   0.6451   0.6913   1.5469   1.6679   4.0204   4.0833
     4.6642   4.6891

     occupation numbers 
     1.0000   1.0000   1.0000   1.0000   1.0000   1.0000   1.0000   1.0000
     1.0000   1.0000   1.0000   1.0000   1.0000   1.0000   1.0000   1.0000
     1.0000   1.0000   1.0000   1.0000   1.0000   1.0000   1.0000   1.0000
     1.0000   1.0000

          k =-0.0688-0.4817 0.4817 ( 10918 PWs)   bands (ev):

  -108.1515-108.1515 -70.1406 -70.1406 -51.8694 -51.8693 -51.8693 -51.8693
    -4.5726  -4.5662  -1.4106  -1.3486  -1.2846  -1.0000   0.1977   0.2232
     0.4560   0.5067   0.7042   0.7957   1.2505   1.4868   3.7181   3.8085
     4.8084   4.8261

     occupation numbers 
     1.0000   1.0000   1.0000   1.0000   1.0000   1.0000   1.0000   1.0000
     1.0000   1.0000   1.0000   1.0000   1.0000   1.0000   1.0000   1.0000
     1.0000   1.0000   1.0000   1.0000   1.0000   1.0000   1.0000   1.0000
     1.0000   1.0000

          k =-0.0000-0.4129 0.4129 ( 10912 PWs)   bands (ev):

  -108.1515-108.1515 -70.1406 -70.1406 -51.8694 -51.8693 -51.8693 -51.8693
    -4.6143  -4.6084  -1.4096  -1.3808  -1.2939  -1.0366   0.1899   0.2098
     0.4783   0.4913   0.5632   0.6769   1.4823   1.7277   3.7209   3.8380
     5.0764   5.1200

     occupation numbers 
     1.0000   1.0000   1.0000   1.0000   1.0000   1.0000   1.0000   1.0000
     1.0000   1.0000   1.0000   1.0000   1.0000   1.0000   1.0000   1.0000
     1.0000   1.0000   1.0000   1.0000   1.0000   1.0000   1.0000   1.0000
     1.0000   1.0000

          k = 0.5506 0.0000 0.0000 ( 10890 PWs)   bands (ev):

  -108.1515-108.1515 -70.1406 -70.1406 -51.8694 -51.8694 -51.8693 -51.8693
    -4.5963  -4.5963  -1.3994  -1.3994  -1.1706  -1.1706   0.1486   0.1486
     0.4131   0.4131   0.6292   0.6292   1.7859   1.7859   4.3446   4.3446
     4.5479   4.5479

     occupation numbers 
     1.0000   1.0000   1.0000   1.0000   1.0000   1.0000   1.0000   1.0000
     1.0000   1.0000   1.0000   1.0000   1.0000   1.0000   1.0000   1.0000
     1.0000   1.0000   1.0000   1.0000   1.0000   1.0000   1.0000   1.0000
     1.0000   1.0000

          k =-0.0688-0.6194 0.6194 ( 10885 PWs)   bands (ev):

  -108.1515-108.1515 -70.1406 -70.1406 -51.8694 -51.8694 -51.8693 -51.8693
    -4.5490  -4.5459  -1.4041  -1.3705  -1.1968  -1.0606   0.1565   0.2112
     0.3851   0.4829   0.7173   0.7539   1.4307   1.4928   4.1011   4.1716
     4.4054   4.4645

     occupation numbers 
     1.0000   1.0000   1.0000   1.0000   1.0000   1.0000   1.0000   1.0000
     1.0000   1.0000   1.0000   1.0000   1.0000   1.0000   1.0000   1.0000
     1.0000   1.0000   1.0000   1.0000   1.0000   1.0000   1.0000   1.0000
     1.0000   1.0000

          k =-0.0000-0.5506 0.5506 ( 10908 PWs)   bands (ev):

  -108.1515-108.1515 -70.1406 -70.1406 -51.8694 -51.8693 -51.8693 -51.8693
    -4.5404  -4.5345  -1.4055  -1.3396  -1.2541  -0.9977   0.1774   0.2632
     0.3925   0.5121   0.7625   0.8526   1.2253   1.3851   3.7924   3.8620
     4.5371   4.5475

     occupation numbers 
     1.0000   1.0000   1.0000   1.0000   1.0000   1.0000   1.0000   1.0000
     1.0000   1.0000   1.0000   1.0000   1.0000   1.0000   1.0000   1.0000
     1.0000   1.0000   1.0000   1.0000   1.0000   1.0000   1.0000   1.0000
     1.0000   1.0000

          k =-0.6882 0.0000 0.0000 ( 10918 PWs)   bands (ev):

  -108.1515-108.1515 -70.1406 -70.1406 -51.8694 -51.8694 -51.8693 -51.8693
    -4.5309  -4.5309  -1.3901  -1.3901  -1.1101  -1.1101   0.1695   0.1695
     0.4465   0.4465   0.7859   0.7859   1.3550   1.3550   4.1931   4.1931
     4.3973   4.3973

     occupation numbers 
     1.0000   1.0000   1.0000   1.0000   1.0000   1.0000   1.0000   1.0000
     1.0000   1.0000   1.0000   1.0000   1.0000   1.0000   1.0000   1.0000
     1.0000   1.0000   1.0000   1.0000   1.0000   1.0000   1.0000   1.0000
     1.0000   1.0000

          k = 0.2753 0.1376 0.0000 ( 10936 PWs)   bands (ev):

  -108.1515-108.1515 -70.1405 -70.1405 -51.8693 -51.8693 -51.8692 -51.8692
    -4.9202  -4.9195  -1.4682  -1.4254  -1.4019  -1.3396   0.0376   0.0518
     0.3283   0.3744   0.3940   0.4736   3.2382   3.2748   5.0604   5.1506
     5.6758   5.7680

     occupation numbers 
     1.0000   1.0000   1.0000   1.0000   1.0000   1.0000   1.0000   1.0000
     1.0000   1.0000   1.0000   1.0000   1.0000   1.0000   1.0000   1.0000
     1.0000   1.0000   1.0000   1.0000   1.0000   1.0000   1.0000   1.0000
     1.0000   1.0000

          k = 0.3441 0.2065-0.0688 ( 10933 PWs)   bands (ev):

  -108.1515-108.1515 -70.1406 -70.1405 -51.8693 -51.8693 -51.8692 -51.8692
    -4.7911  -4.7891  -1.4546  -1.4139  -1.3433  -1.2319   0.0968   0.1218
     0.3399   0.4121   0.4282   0.5213   2.4526   2.5295   4.6280   4.7273
     5.4285   5.5140

     occupation numbers 
     1.0000   1.0000   1.0000   1.0000   1.0000   1.0000   1.0000   1.0000
     1.0000   1.0000   1.0000   1.0000   1.0000   1.0000   1.0000   1.0000
     1.0000   1.0000   1.0000   1.0000   1.0000   1.0000   1.0000   1.0000
     1.0000   1.0000

          k =-0.2753-0.4129 0.5506 ( 10906 PWs)   bands (ev):

  -108.1515-108.1515 -70.1406 -70.1406 -51.8694 -51.8693 -51.8692 -51.8692
    -4.6832  -4.6796  -1.4394  -1.4141  -1.2725  -1.1133   0.1453   0.1708
     0.4269   0.4558   0.5435   0.5986   1.7052   1.8227   4.3952   4.4821
     5.2164   5.2716

     occupation numbers 
     1.0000   1.0000   1.0000   1.0000   1.0000   1.0000   1.0000   1.0000
     1.0000   1.0000   1.0000   1.0000   1.0000   1.0000   1.0000   1.0000
     1.0000   1.0000   1.0000   1.0000   1.0000   1.0000   1.0000   1.0000
     1.0000   1.0000

          k =-0.2065-0.3441 0.4817 ( 10916 PWs)   bands (ev):

  -108.1515-108.1515 -70.1406 -70.1406 -51.8694 -51.8693 -51.8692 -51.8692
    -4.6412  -4.6369  -1.4275  -1.4210  -1.2387  -1.0581   0.1571   0.1819
     0.4714   0.4881   0.6717   0.7367   1.3052   1.4556   4.3286   4.4036
     5.1431   5.1624

     occupation numbers 
     1.0000   1.0000   1.0000   1.0000   1.0000   1.0000   1.0000   1.0000
     1.0000   1.0000   1.0000   1.0000   1.0000   1.0000   1.0000   1.0000
     1.0000   1.0000   1.0000   1.0000   1.0000   1.0000   1.0000   1.0000
     1.0000   1.0000

          k = 0.4129 0.1376-0.0000 ( 10927 PWs)   bands (ev):

  -108.1515-108.1515 -70.1406 -70.1406 -51.8693 -51.8693 -51.8692 -51.8692
    -4.7417  -4.7397  -1.4388  -1.3937  -1.3347  -1.2162   0.1136   0.1219
     0.3252   0.4157   0.4754   0.5352   2.3883   2.4524   4.5098   4.6436
     4.9670   5.0917

     occupation numbers 
     1.0000   1.0000   1.0000   1.0000   1.0000   1.0000   1.0000   1.0000
     1.0000   1.0000   1.0000   1.0000   1.0000   1.0000   1.0000   1.0000
     1.0000   1.0000   1.0000   1.0000   1.0000   1.0000   1.0000   1.0000
     1.0000   1.0000

          k =-0.2065-0.4817 0.6194 ( 10913 PWs)   bands (ev):

  -108.1515-108.1515 -70.1406 -70.1406 -51.8694 -51.8693 -51.8693 -51.8693
    -4.6436  -4.6394  -1.4231  -1.3750  -1.3002  -1.0984   0.1655   0.1891
     0.3558   0.4632   0.5743   0.6050   1.7892   1.9142   4.1332   4.2601
     4.7808   4.8719

     occupation numbers 
     1.0000   1.0000   1.0000   1.0000   1.0000   1.0000   1.0000   1.0000
     1.0000   1.0000   1.0000   1.0000   1.0000   1.0000   1.0000   1.0000
     1.0000   1.0000   1.0000   1.0000   1.0000   1.0000   1.0000   1.0000
     1.0000   1.0000

          k =-0.1376-0.4129 0.5506 ( 10920 PWs)   bands (ev):

  -108.1515-108.1515 -70.1406 -70.1406 -51.8694 -51.8693 -51.8693 -51.8693
    -4.5921  -4.5861  -1.4098  -1.3740  -1.2763  -1.0183   0.1901   0.2174
     0.4402   0.4952   0.6731   0.7583   1.3325   1.5292   3.8982   4.0002
     4.7608   4.7962

     occupation numbers 
     1.0000   1.0000   1.0000   1.0000   1.0000   1.0000   1.0000   1.0000
     1.0000   1.0000   1.0000   1.0000   1.0000   1.0000   1.0000   1.0000
     1.0000   1.0000   1.0000   1.0000   1.0000   1.0000   1.0000   1.0000
     1.0000   1.0000

          k =-0.0688-0.3441 0.4817 ( 10918 PWs)   bands (ev):

  -108.1515-108.1515 -70.1406 -70.1406 -51.8694 -51.8693 -51.8693 -51.8693
    -4.6081  -4.6022  -1.4044  -1.3876  -1.2848  -1.0317   0.1881   0.2147
     0.4495   0.4899   0.6157   0.7009   1.4320   1.6507   3.8334   3.9505
     4.9041   4.9538

     occupation numbers 
     1.0000   1.0000   1.0000   1.0000   1.0000   1.0000   1.0000   1.0000
     1.0000   1.0000   1.0000   1.0000   1.0000   1.0000   1.0000   1.0000
     1.0000   1.0000   1.0000   1.0000   1.0000   1.0000   1.0000   1.0000
     1.0000   1.0000

          k = 0.0000-0.2753 0.4129 ( 10926 PWs)   bands (ev):

  -108.1515-108.1515 -70.1406 -70.1406 -51.8694 -51.8693 -51.8693 -51.8692
    -4.6848  -4.6807  -1.4232  -1.4003  -1.3151  -1.1237   0.1526   0.1848
     0.3765   0.4486   0.4936   0.5792   1.9303   2.0899   4.0596   4.1847
     5.1668   5.2418

     occupation numbers 
     1.0000   1.0000   1.0000   1.0000   1.0000   1.0000   1.0000   1.0000
     1.0000   1.0000   1.0000   1.0000   1.0000   1.0000   1.0000   1.0000
     1.0000   1.0000   1.0000   1.0000   1.0000   1.0000   1.0000   1.0000
     1.0000   1.0000

          k =-0.1376-0.5506 0.6882 ( 10892 PWs)   bands (ev):

  -108.1515-108.1515 -70.1406 -70.1406 -51.8694 -51.8693 -51.8693 -51.8693
    -4.5920  -4.5882  -1.4109  -1.3691  -1.2535  -1.0824   0.1574   0.2076
     0.3497   0.4748   0.6382   0.6537   1.6621   1.7481   4.1374   4.3118
     4.4112   4.5644

     occupation numbers 
     1.0000   1.0000   1.0000   1.0000   1.0000   1.0000   1.0000   1.0000
     1.0000   1.0000   1.0000   1.0000   1.0000   1.0000   1.0000   1.0000
     1.0000   1.0000   1.0000   1.0000   1.0000   1.0000   1.0000   1.0000
     1.0000   1.0000

          k =-0.0688-0.4817 0.6194 ( 10896 PWs)   bands (ev):

  -108.1515-108.1515 -70.1406 -70.1406 -51.8694 -51.8693 -51.8693 -51.8693
    -4.5507  -4.5446  -1.4001  -1.3435  -1.2723  -1.0008   0.1846   0.2727
     0.3758   0.5070   0.7174   0.8131   1.3053   1.4589   3.8534   3.9629
     4.4101   4.4590

     occupation numbers 
     1.0000   1.0000   1.0000   1.0000   1.0000   1.0000   1.0000   1.0000
     1.0000   1.0000   1.0000   1.0000   1.0000   1.0000   1.0000   1.0000
     1.0000   1.0000   1.0000   1.0000   1.0000   1.0000   1.0000   1.0000
     1.0000   1.0000

          k = 0.0000-0.4129 0.5506 ( 10905 PWs)   bands (ev):

  -108.1515-108.1515 -70.1406 -70.1406 -51.8694 -51.8693 -51.8693 -51.8693
    -4.5573  -4.5502  -1.3962  -1.3377  -1.3001  -0.9832   0.2007   0.2560
     0.4462   0.5107   0.7168   0.8268   1.2171   1.4627   3.6650   3.7771
     4.6002   4.6265

     occupation numbers 
     1.0000   1.0000   1.0000   1.0000   1.0000   1.0000   1.0000   1.0000
     1.0000   1.0000   1.0000   1.0000   1.0000   1.0000   1.0000   1.0000
     1.0000   1.0000   1.0000   1.0000   1.0000   1.0000   1.0000   1.0000
     1.0000   1.0000

          k =-0.6882 0.1376 0.0000 ( 10896 PWs)   bands (ev):

  -108.1515-108.1515 -70.1406 -70.1406 -51.8694 -51.8694 -51.8693 -51.8693
    -4.5336  -4.5289  -1.3995  -1.3600  -1.2138  -1.0195   0.1675   0.2518
     0.3722   0.5031   0.7642   0.8420   1.2830   1.3644   4.0216   4.1826
     4.2180   4.3503

     occupation numbers 
     1.0000   1.0000   1.0000   1.0000   1.0000   1.0000   1.0000   1.0000
     1.0000   1.0000   1.0000   1.0000   1.0000   1.0000   1.0000   1.0000
     1.0000   1.0000   1.0000   1.0000   1.0000   1.0000   1.0000   1.0000
     1.0000   1.0000

          k =-0.1376-0.4129 0.6882 ( 10908 PWs)   bands (ev):

  -108.1515-108.1515 -70.1406 -70.1406 -51.8694 -51.8693 -51.8693 -51.8693
    -4.5770  -4.5706  -1.3928  -1.3601  -1.2968  -1.0130   0.1934   0.2586
     0.3884   0.4958   0.6580   0.7350   1.4166   1.6098   3.8193   3.9746
     4.4939   4.5772

     occupation numbers 
     1.0000   1.0000   1.0000   1.0000   1.0000   1.0000   1.0000   1.0000
     1.0000   1.0000   1.0000   1.0000   1.0000   1.0000   1.0000   1.0000
     1.0000   1.0000   1.0000   1.0000   1.0000   1.0000   1.0000   1.0000
     1.0000   1.0000

          k =-0.0688-0.3441 0.6194 ( 10898 PWs)   bands (ev):

  -108.1515-108.1515 -70.1406 -70.1406 -51.8694 -51.8693 -51.8693 -51.8693
    -4.5515  -4.5440  -1.3792  -1.3501  -1.3018  -0.9760   0.2013   0.2864
     0.4220   0.5075   0.7199   0.8524   1.2152   1.4313   3.7426   3.8832
     4.3732   4.4132

     occupation numbers 
     1.0000   1.0000   1.0000   1.0000   1.0000   1.0000   1.0000   1.0000
     1.0000   1.0000   1.0000   1.0000   1.0000   1.0000   1.0000   1.0000
     1.0000   1.0000   1.0000   1.0000   1.0000   1.0000   1.0000   1.0000
     1.0000   1.0000

          k =-0.6882 0.2753 0.0000 ( 10882 PWs)   bands (ev):

  -108.1515-108.1515 -70.1406 -70.1406 -51.8694 -51.8693 -51.8693 -51.8693
    -4.5355  -4.5280  -1.3788  -1.3344  -1.2999  -0.9678   0.1990   0.3406
     0.3630   0.5126   0.7474   0.9091   1.1880   1.3454   3.8332   4.0339
     4.1101   4.1899

     occupation numbers 
     1.0000   1.0000   1.0000   1.0000   1.0000   1.0000   1.0000   1.0000
     1.0000   1.0000   1.0000   1.0000   1.0000   1.0000   1.0000   1.0000
     1.0000   1.0000   1.0000   1.0000   1.0000   1.0000   1.0000   1.0000
     1.0000   1.0000

     highest occupied level (ev):     6.5577

!    total energy              =    -346.74155395 Ry
     estimated scf accuracy    <          2.8E-13 Ry

     The total energy is the sum of the following terms:
     one-electron contribution =    -235.44468246 Ry
     hartree contribution      =     119.38027434 Ry
     xc contribution           =     -55.76816300 Ry
     ewald contribution        =    -174.90898282 Ry

     convergence has been achieved in  14 iterations

     Forces acting on atoms (cartesian axes, Ry/au):

     atom    1 type  1   force =     0.00000000    0.00000000    0.00000000
     atom    2 type  2   force =     0.00000000   -0.00000000    0.00000000
     The non-local contrib.  to forces
     atom    1 type  1   force =    -0.00000000    0.00000000    0.00000000
     atom    2 type  2   force =     0.00000000    0.00000000    0.00000000
     The ionic contribution  to forces
     atom    1 type  1   force =     0.00000000    0.00000000    0.00000000
     atom    2 type  2   force =    -0.00000000   -0.00000000    0.00000000
     The local contribution  to forces
     atom    1 type  1   force =    -0.00000000   -0.00000000    0.00000000
     atom    2 type  2   force =     0.00000000   -0.00000000    0.00000000
     The core correction contribution to forces
     atom    1 type  1   force =     0.00000000   -0.00000000   -0.00000000
     atom    2 type  2   force =     0.00000000    0.00000000    0.00000000
     The Hubbard contrib.    to forces
     atom    1 type  1   force =     0.00000000    0.00000000    0.00000000
     atom    2 type  2   force =     0.00000000    0.00000000    0.00000000
     The SCF correction term to forces
     atom    1 type  1   force =     0.00000000   -0.00000000   -0.00000000
     atom    2 type  2   force =    -0.00000000   -0.00000000   -0.00000000

     Total force =     0.000000     Total SCF correction =     0.000000


     Computing stress (Cartesian axis) and pressure

          total   stress  (Ry/bohr**3)                   (kbar)     P=       -0.02
  -0.00000015  -0.00000000  -0.00000000           -0.02       -0.00       -0.00
  -0.00000000  -0.00000015   0.00000000           -0.00       -0.02        0.00
   0.00000000  -0.00000000  -0.00000015            0.00       -0.00       -0.02

     kinetic stress (kbar)  24962.74     -0.00     -0.00
                               -0.00  24962.74     -0.00
                               -0.00     -0.00  24962.74

     local   stress (kbar) -24881.71      0.00      0.00
                                0.00 -24881.71      0.00
                                0.00      0.00 -24881.71

     nonloc. stress (kbar)   9415.08      0.00     -0.00
                                0.00   9415.08     -0.00
                               -0.00     -0.00   9415.08

     hartree stress (kbar)  11905.07      0.00      0.00
                                0.00  11905.07      0.00
                                0.00      0.00  11905.07

     exc-cor stress (kbar)   3363.53     -0.00      0.00
                               -0.00   3363.53      0.00
                                0.00      0.00   3363.53

     corecor stress (kbar)  -7322.12      0.00     -0.00
                                0.00  -7322.12      0.00
                               -0.00      0.00  -7322.12

     ewald   stress (kbar) -17442.61      0.00     -0.00
                                0.00 -17442.61      0.00
                               -0.00      0.00 -17442.61

     hubbard stress (kbar)      0.00      0.00      0.00
                                0.00      0.00      0.00
                                0.00      0.00      0.00

     DFT-D   stress (kbar)      0.00      0.00      0.00
                                0.00      0.00      0.00
                                0.00      0.00      0.00

     XDM     stress (kbar)      0.00      0.00      0.00
                                0.00      0.00      0.00
                                0.00      0.00      0.00

     dft-nl  stress (kbar)      0.00      0.00      0.00
                                0.00      0.00      0.00
                                0.00      0.00      0.00

     TS-vdW  stress (kbar)      0.00      0.00      0.00
                                0.00      0.00      0.00
                                0.00      0.00      0.00

     MDB     stress (kbar)      0.00      0.00      0.00
                                0.00      0.00      0.00
                                0.00      0.00      0.00

     3D-RISM stress (kbar)      0.00      0.00      0.00
                                0.00      0.00      0.00
                                0.00      0.00      0.00


     Writing all to output data dir /home/User/opencode_workspace/DFT/calculations/hgte/relax_soc/out/pwscf.save/ :
     XML data file, charge density, pseudopotentials, collected wavefunctions

     init_run     :     15.83s CPU     30.38s WALL (       2 calls)
     electrons    :   1387.44s CPU   2389.31s WALL (       7 calls)
     update_pot   :      0.22s CPU      0.34s WALL (       5 calls)
     forces       :      7.30s CPU     13.01s WALL (       7 calls)
     stress       :     43.17s CPU     66.65s WALL (       7 calls)

     Called by init_run:
     wfcinit      :     13.45s CPU     25.07s WALL (       2 calls)
     wfcinit:atom :      0.06s CPU      0.08s WALL (      94 calls)
     wfcinit:wfcr :     12.98s CPU     24.38s WALL (      94 calls)
     potinit      :      0.28s CPU      0.56s WALL (       2 calls)
     hinit0       :      1.18s CPU      2.39s WALL (       2 calls)

     Called by electrons:
     c_bands      :   1146.24s CPU   1945.25s WALL (      82 calls)
     sum_band     :    206.02s CPU    368.21s WALL (      82 calls)
     v_of_rho     :      2.40s CPU      3.53s WALL (      83 calls)
     v_h          :      0.18s CPU      0.30s WALL (      83 calls)
     v_xc         :      2.62s CPU      3.93s WALL (      97 calls)
     newd         :     33.11s CPU     74.55s WALL (      83 calls)
     mix_rho      :      1.43s CPU      2.42s WALL (      82 calls)

     Called by c_bands:
     init_us_2    :      6.40s CPU      7.65s WALL (    8460 calls)
     cegterg      :   1089.50s CPU   1870.08s WALL (    3854 calls)

     Called by sum_band:
     sum_band:wei :      0.00s CPU      0.00s WALL (      82 calls)
     sum_band:loo :    169.69s CPU    288.96s WALL (      82 calls)
     sum_band:buf :      0.50s CPU      0.58s WALL (    3854 calls)
     sum_band:ini :      3.02s CPU      3.53s WALL (    3854 calls)
     sum_band:cal :     10.48s CPU     17.14s WALL (    3854 calls)
     sum_band:bec :      4.63s CPU      5.32s WALL (    3854 calls)
     addusdens    :     33.86s CPU     76.11s WALL (      82 calls)
                                        0.00s GPU  (      82 calls)
     addusd:skk   :      0.01s CPU      0.02s WALL (     164 calls)
                                        0.00s GPU  (     164 calls)

     Called by *egterg:
     cdiaghg      :     20.50s CPU     34.03s WALL (   16354 calls)
     cegterg:over :     47.36s CPU     79.59s WALL (   13017 calls)
     cegterg:upda :     10.35s CPU     12.51s WALL (   13017 calls)
     cegterg:last :     21.31s CPU     26.72s WALL (    9262 calls)
     h_psi        :    957.87s CPU   1669.52s WALL (   16965 calls)
     s_psi        :     14.89s CPU     19.55s WALL (   16965 calls)
     g_psi        :      3.56s CPU      4.18s WALL (   13017 calls)

     Called by h_psi:
     h_psi:calbec :     40.63s CPU     68.81s WALL (   16965 calls)
     vloc_psi     :    899.64s CPU   1579.72s WALL (   16965 calls)
                                        0.00s GPU  (   16965 calls)
     add_vuspsi   :     15.50s CPU     17.55s WALL (   16965 calls)

     General routines
     calbec       :     61.43s CPU    101.92s WALL (   26412 calls)
     fft          :      3.01s CPU      4.98s WALL (    2202 calls)
     ffts         :      0.72s CPU      1.25s WALL (     660 calls)
     fftw         :   1001.99s CPU   1780.91s WALL ( 1384128 calls)
     interpolate  :      0.89s CPU      1.52s WALL (     332 calls)

     Parallel routines

     PWSCF        :  24m18.01s CPU  41m48.63s WALL


   This run was terminated on:   1:30:10  23Sep2026            

=------------------------------------------------------------------------------=
   JOB DONE.
=------------------------------------------------------------------------------=
