
     Program PWSCF v.7.5 starts on 22Sep2026 at 19:35:10 

     This program is part of the open-source Quantum ESPRESSO suite
     for quantum simulation of materials; please cite
         "P. Giannozzi et al., J. Phys.:Condens. Matter 21 395502 (2009);
         "P. Giannozzi et al., J. Phys.:Condens. Matter 29 465901 (2017);
         "P. Giannozzi et al., J. Chem. Phys. 152 154105 (2020);
          URL http://www.quantum-espresso.org", 
     in publications or presentations arising from this work. More details at
     http://www.quantum-espresso.org/quote

     Parallel version (MPI & OpenMP), running on       6 processor cores
     Number of MPI processes:                 6
     Threads/MPI process:                     1

     MPI processes distributed on     1 nodes
     1662 MiB available memory on the printing compute node when the environment starts

     Reading input from pw.in

     Current dimensions of program PWSCF are:
     Max number of different atomic species (ntypx) = 10
     Max number of k-points (npk) =  40000
     Max angular momentum in pseudopotentials (lmaxx) =  4
     file Cd.pbe-n-rrkjus_psl.1.0.0.UPF: wavefunction(s)  4D renormalized
     file Te.pbe-n-rrkjus_psl.1.0.0.UPF: wavefunction(s)  5S renormalized
     Message from routine setup:
     using ibrav=0 with symmetry is DISCOURAGED, use correct ibrav instead

     R & G space division:  proc/nbgrp/npool/nimage =       6
     Subspace diagonalization in iterative solution of the eigenvalue problem:
     a serial algorithm will be used


     Parallelization info
     --------------------
     sticks:   dense  smooth     PW     G-vecs:    dense   smooth      PW
     Min         616     275     79                24937     7399    1142
     Max         617     276     80                24940     7402    1145
     Sum        3697    1651    475               149629    44399    6855

     Using Slab Decomposition



     bravais-lattice index     =            0
     lattice parameter (alat)  =       8.6615  a.u.
     unit-cell volume          =     459.4769 (a.u.)^3
     number of atoms/cell      =            2
     number of atomic types    =            2
     number of electrons       =        18.00
     number of Kohn-Sham states=            9
     kinetic-energy cutoff     =      80.0000  Ry
     charge density cutoff     =     720.0000  Ry
     scf convergence threshold =      1.0E-10
     mixing beta               =       0.3000
     number of iterations used =            8  plain     mixing
     Exchange-correlation= PBE
                           (   1   4   3   4   0   0   0)

     celldm(1)=   8.661496  celldm(2)=   0.000000  celldm(3)=   0.000000
     celldm(4)=   0.000000  celldm(5)=   0.000000  celldm(6)=   0.000000

     crystal axes: (cart. coord. in units of alat)
               a(1) = (   0.000000   0.707107   0.707107 )  
               a(2) = (   0.707107   0.000000   0.707107 )  
               a(3) = (   0.707107   0.707107   0.000000 )  

     reciprocal axes: (cart. coord. in units 2 pi/alat)
               b(1) = ( -0.707107  0.707107  0.707107 )  
               b(2) = (  0.707107 -0.707107  0.707107 )  
               b(3) = (  0.707107  0.707107 -0.707107 )  


     PseudoPot. # 1 for Cd read from file:
     /home/User/opencode_workspace/DFT/pseudopotentials/Cd.pbe-n-rrkjus_psl.1.0.0.UPF
     MD5 check sum: a744746c89d2344a134ead0d8ab94e7a
     Pseudo is Ultrasoft + core correction, Zval = 12.0
     Generated using &quot;atomic&quot; code by A. Dal Corso  v.6.3
     Using radial grid of 1239 points,  6 beta functions with: 
                l(1) =   0
                l(2) =   0
                l(3) =   1
                l(4) =   1
                l(5) =   2
                l(6) =   2
     Q(r) pseudized with 0 coefficients 


     PseudoPot. # 2 for Te read from file:
     /home/User/opencode_workspace/DFT/pseudopotentials/Te.pbe-n-rrkjus_psl.1.0.0.UPF
     MD5 check sum: 203a1e86ef55f0cd9de2762a27c58f54
     Pseudo is Ultrasoft + core correction, Zval =  6.0
     Generated using &quot;atomic&quot; code by A. Dal Corso  v.6.3
     Using radial grid of 1245 points,  6 beta functions with: 
                l(1) =   0
                l(2) =   0
                l(3) =   1
                l(4) =   1
                l(5) =   2
                l(6) =   2
     Q(r) pseudized with 0 coefficients 


     atomic species   valence    mass     pseudopotential
     Cd               12.00   112.41400     Cd( 1.00)
     Te                6.00   127.60000     Te( 1.00)

     24 Sym. Ops. (no inversion) found


                                    s                        frac. trans.

      isym =  1     identity                                     

 cryst.   s( 1) = (     1          0          0      )
                  (     0          1          0      )
                  (     0          0          1      )

 cart.    s( 1) = (  1.0000000  0.0000000  0.0000000 )
                  (  0.0000000  1.0000000  0.0000000 )
                  (  0.0000000  0.0000000  1.0000000 )


      isym =  2     180 deg rotation - cart. axis [0,0,1]        

 cryst.   s( 2) = (     0          1         -1      )
                  (     1          0         -1      )
                  (     0          0         -1      )

 cart.    s( 2) = ( -1.0000000  0.0000000  0.0000000 )
                  (  0.0000000 -1.0000000  0.0000000 )
                  (  0.0000000  0.0000000  1.0000000 )


      isym =  3     180 deg rotation - cart. axis [0,1,0]        

 cryst.   s( 3) = (     0         -1          1      )
                  (     0         -1          0      )
                  (     1         -1          0      )

 cart.    s( 3) = ( -1.0000000  0.0000000  0.0000000 )
                  (  0.0000000  1.0000000  0.0000000 )
                  (  0.0000000  0.0000000 -1.0000000 )


      isym =  4     180 deg rotation - cart. axis [1,0,0]        

 cryst.   s( 4) = (    -1          0          0      )
                  (    -1          0          1      )
                  (    -1          1          0      )

 cart.    s( 4) = (  1.0000000  0.0000000  0.0000000 )
                  (  0.0000000 -1.0000000  0.0000000 )
                  (  0.0000000  0.0000000 -1.0000000 )


      isym =  5     120 deg rotation - cart. axis [-1,-1,-1]     

 cryst.   s( 5) = (     0          0          1      )
                  (     1          0          0      )
                  (     0          1          0      )

 cart.    s( 5) = (  0.0000000  1.0000000  0.0000000 )
                  (  0.0000000  0.0000000  1.0000000 )
                  (  1.0000000  0.0000000  0.0000000 )


      isym =  6     120 deg rotation - cart. axis [-1,1,1]       

 cryst.   s( 6) = (     1         -1          0      )
                  (     0         -1          1      )
                  (     0         -1          0      )

 cart.    s( 6) = (  0.0000000 -1.0000000  0.0000000 )
                  (  0.0000000  0.0000000  1.0000000 )
                  ( -1.0000000  0.0000000  0.0000000 )


      isym =  7     120 deg rotation - cart. axis [1,1,-1]       

 cryst.   s( 7) = (    -1          1          0      )
                  (    -1          0          0      )
                  (    -1          0          1      )

 cart.    s( 7) = (  0.0000000  1.0000000  0.0000000 )
                  (  0.0000000  0.0000000 -1.0000000 )
                  ( -1.0000000  0.0000000  0.0000000 )


      isym =  8     120 deg rotation - cart. axis [1,-1,1]       

 cryst.   s( 8) = (     0          0         -1      )
                  (     0          1         -1      )
                  (     1          0         -1      )

 cart.    s( 8) = (  0.0000000 -1.0000000  0.0000000 )
                  (  0.0000000  0.0000000 -1.0000000 )
                  (  1.0000000  0.0000000  0.0000000 )


      isym =  9     120 deg rotation - cart. axis [1,1,1]        

 cryst.   s( 9) = (     0          1          0      )
                  (     0          0          1      )
                  (     1          0          0      )

 cart.    s( 9) = (  0.0000000  0.0000000  1.0000000 )
                  (  1.0000000  0.0000000  0.0000000 )
                  (  0.0000000  1.0000000  0.0000000 )


      isym = 10     120 deg rotation - cart. axis [-1,1,-1]      

 cryst.   s(10) = (    -1          0          1      )
                  (    -1          1          0      )
                  (    -1          0          0      )

 cart.    s(10) = (  0.0000000  0.0000000  1.0000000 )
                  ( -1.0000000  0.0000000  0.0000000 )
                  (  0.0000000 -1.0000000  0.0000000 )


      isym = 11     120 deg rotation - cart. axis [1,-1,-1]      

 cryst.   s(11) = (     1          0         -1      )
                  (     0          0         -1      )
                  (     0          1         -1      )

 cart.    s(11) = (  0.0000000  0.0000000 -1.0000000 )
                  ( -1.0000000  0.0000000  0.0000000 )
                  (  0.0000000  1.0000000  0.0000000 )


      isym = 12     120 deg rotation - cart. axis [-1,-1,1]      

 cryst.   s(12) = (     0         -1          0      )
                  (     1         -1          0      )
                  (     0         -1          1      )

 cart.    s(12) = (  0.0000000  0.0000000 -1.0000000 )
                  (  1.0000000  0.0000000  0.0000000 )
                  (  0.0000000 -1.0000000  0.0000000 )


      isym = 13     inv. 180 deg rotation - cart. axis [1,1,0]   

 cryst.   s(13) = (     1          0         -1      )
                  (     0          1         -1      )
                  (     0          0         -1      )

 cart.    s(13) = (  0.0000000 -1.0000000  0.0000000 )
                  ( -1.0000000  0.0000000  0.0000000 )
                  (  0.0000000  0.0000000  1.0000000 )


      isym = 14     inv. 180 deg rotation - cart. axis [1,-1,0]  

 cryst.   s(14) = (     0          1          0      )
                  (     1          0          0      )
                  (     0          0          1      )

 cart.    s(14) = (  0.0000000  1.0000000  0.0000000 )
                  (  1.0000000  0.0000000  0.0000000 )
                  (  0.0000000  0.0000000  1.0000000 )


      isym = 15     inv.  90 deg rotation - cart. axis [0,0,-1]  

 cryst.   s(15) = (     0         -1          0      )
                  (     0         -1          1      )
                  (     1         -1          0      )

 cart.    s(15) = (  0.0000000 -1.0000000  0.0000000 )
                  (  1.0000000  0.0000000  0.0000000 )
                  (  0.0000000  0.0000000 -1.0000000 )


      isym = 16     inv.  90 deg rotation - cart. axis [0,0,1]   

 cryst.   s(16) = (    -1          0          1      )
                  (    -1          0          0      )
                  (    -1          1          0      )

 cart.    s(16) = (  0.0000000  1.0000000  0.0000000 )
                  ( -1.0000000  0.0000000  0.0000000 )
                  (  0.0000000  0.0000000 -1.0000000 )


      isym = 17     inv. 180 deg rotation - cart. axis [1,0,1]   

 cryst.   s(17) = (     1         -1          0      )
                  (     0         -1          0      )
                  (     0         -1          1      )

 cart.    s(17) = (  0.0000000  0.0000000 -1.0000000 )
                  (  0.0000000  1.0000000  0.0000000 )
                  ( -1.0000000  0.0000000  0.0000000 )


      isym = 18     inv. 180 deg rotation - cart. axis [-1,0,1]  

 cryst.   s(18) = (     0          0          1      )
                  (     0          1          0      )
                  (     1          0          0      )

 cart.    s(18) = (  0.0000000  0.0000000  1.0000000 )
                  (  0.0000000  1.0000000  0.0000000 )
                  (  1.0000000  0.0000000  0.0000000 )


      isym = 19     inv.  90 deg rotation - cart. axis [0,1,0]   

 cryst.   s(19) = (     0          0         -1      )
                  (     1          0         -1      )
                  (     0          1         -1      )

 cart.    s(19) = (  0.0000000  0.0000000 -1.0000000 )
                  (  0.0000000 -1.0000000  0.0000000 )
                  (  1.0000000  0.0000000  0.0000000 )


      isym = 20     inv.  90 deg rotation - cart. axis [0,-1,0]  

 cryst.   s(20) = (    -1          1          0      )
                  (    -1          0          1      )
                  (    -1          0          0      )

 cart.    s(20) = (  0.0000000  0.0000000  1.0000000 )
                  (  0.0000000 -1.0000000  0.0000000 )
                  ( -1.0000000  0.0000000  0.0000000 )


      isym = 21     inv. 180 deg rotation - cart. axis [0,1,1]   

 cryst.   s(21) = (    -1          0          0      )
                  (    -1          1          0      )
                  (    -1          0          1      )

 cart.    s(21) = (  1.0000000  0.0000000  0.0000000 )
                  (  0.0000000  0.0000000 -1.0000000 )
                  (  0.0000000 -1.0000000  0.0000000 )


      isym = 22     inv. 180 deg rotation - cart. axis [0,1,-1]  

 cryst.   s(22) = (     1          0          0      )
                  (     0          0          1      )
                  (     0          1          0      )

 cart.    s(22) = (  1.0000000  0.0000000  0.0000000 )
                  (  0.0000000  0.0000000  1.0000000 )
                  (  0.0000000  1.0000000  0.0000000 )


      isym = 23     inv.  90 deg rotation - cart. axis [-1,0,0]  

 cryst.   s(23) = (     0          1         -1      )
                  (     0          0         -1      )
                  (     1          0         -1      )

 cart.    s(23) = ( -1.0000000  0.0000000  0.0000000 )
                  (  0.0000000  0.0000000 -1.0000000 )
                  (  0.0000000  1.0000000  0.0000000 )


      isym = 24     inv.  90 deg rotation - cart. axis [1,0,0]   

 cryst.   s(24) = (     0         -1          1      )
                  (     1         -1          0      )
                  (     0         -1          0      )

 cart.    s(24) = ( -1.0000000  0.0000000  0.0000000 )
                  (  0.0000000  0.0000000  1.0000000 )
                  (  0.0000000 -1.0000000  0.0000000 )


   Cartesian axes

     site n.     atom                  positions (alat units)
         1        Cd     tau(   1) = (   0.0000000   0.0000000   0.0000000  )
         2        Te     tau(   2) = (   0.3535534   0.3535534   0.3535534  )

   Crystallographic axes

     site n.     atom                  positions (cryst. coord.)
         1        Cd     tau(   1) = (  0.0000000  0.0000000  0.0000000  )
         2        Te     tau(   2) = (  0.2500000  0.2500000  0.2500000  )

     number of k points=    29
                       cart. coord. in units 2pi/alat
        k(    1) = (   0.0000000   0.0000000   0.0000000), wk =   0.0039062
        k(    2) = (   0.0883883   0.0883883  -0.0883883), wk =   0.0312500
        k(    3) = (   0.1767767   0.1767767  -0.1767767), wk =   0.0312500
        k(    4) = (   0.2651650   0.2651650  -0.2651650), wk =   0.0312500
        k(    5) = (  -0.3535534  -0.3535534   0.3535534), wk =   0.0156250
        k(    6) = (   0.1767767   0.0000000   0.0000000), wk =   0.0234375
        k(    7) = (   0.2651650   0.0883883  -0.0883883), wk =   0.0937500
        k(    8) = (   0.3535534   0.1767767  -0.1767767), wk =   0.0937500
        k(    9) = (  -0.2651650  -0.4419417   0.4419417), wk =   0.0937500
        k(   10) = (  -0.1767767  -0.3535534   0.3535534), wk =   0.0937500
        k(   11) = (  -0.0883883  -0.2651650   0.2651650), wk =   0.0937500
        k(   12) = (   0.0000000  -0.1767767   0.1767767), wk =   0.0468750
        k(   13) = (   0.3535534   0.0000000   0.0000000), wk =   0.0234375
        k(   14) = (   0.4419417   0.0883883  -0.0883883), wk =   0.0937500
        k(   15) = (  -0.1767767  -0.5303301   0.5303301), wk =   0.0937500
        k(   16) = (  -0.0883883  -0.4419417   0.4419417), wk =   0.0937500
        k(   17) = (   0.0000000  -0.3535534   0.3535534), wk =   0.0468750
        k(   18) = (   0.5303301   0.0000000   0.0000000), wk =   0.0234375
        k(   19) = (  -0.0883883  -0.6187184   0.6187184), wk =   0.0937500
        k(   20) = (   0.0000000  -0.5303301   0.5303301), wk =   0.0468750
        k(   21) = (  -0.7071068   0.0000000   0.0000000), wk =   0.0117188
        k(   22) = (   0.3535534   0.1767767   0.0000000), wk =   0.0937500
        k(   23) = (  -0.2651650  -0.4419417   0.6187184), wk =   0.1875000
        k(   24) = (  -0.1767767  -0.3535534   0.5303301), wk =   0.0937500
        k(   25) = (  -0.1767767  -0.5303301   0.7071068), wk =   0.0937500
        k(   26) = (  -0.0883883  -0.4419417   0.6187184), wk =   0.1875000
        k(   27) = (   0.0000000  -0.3535534   0.5303301), wk =   0.0937500
        k(   28) = (  -0.7071068   0.1767767   0.0000000), wk =   0.0468750
        k(   29) = (  -0.7071068   0.3535534   0.0000000), wk =   0.0234375

                       cryst. coord.
        k(    1) = (   0.0000000   0.0000000   0.0000000), wk =   0.0039062
        k(    2) = (   0.0000000   0.0000000   0.1250000), wk =   0.0312500
        k(    3) = (   0.0000000   0.0000000   0.2500000), wk =   0.0312500
        k(    4) = (   0.0000000   0.0000000   0.3750000), wk =   0.0312500
        k(    5) = (   0.0000000   0.0000000  -0.5000000), wk =   0.0156250
        k(    6) = (   0.0000000   0.1250000   0.1250000), wk =   0.0234375
        k(    7) = (   0.0000000   0.1250000   0.2500000), wk =   0.0937500
        k(    8) = (   0.0000000   0.1250000   0.3750000), wk =   0.0937500
        k(    9) = (   0.0000000   0.1250000  -0.5000000), wk =   0.0937500
        k(   10) = (   0.0000000   0.1250000  -0.3750000), wk =   0.0937500
        k(   11) = (   0.0000000   0.1250000  -0.2500000), wk =   0.0937500
        k(   12) = (   0.0000000   0.1250000  -0.1250000), wk =   0.0468750
        k(   13) = (   0.0000000   0.2500000   0.2500000), wk =   0.0234375
        k(   14) = (   0.0000000   0.2500000   0.3750000), wk =   0.0937500
        k(   15) = (   0.0000000   0.2500000  -0.5000000), wk =   0.0937500
        k(   16) = (   0.0000000   0.2500000  -0.3750000), wk =   0.0937500
        k(   17) = (   0.0000000   0.2500000  -0.2500000), wk =   0.0468750
        k(   18) = (   0.0000000   0.3750000   0.3750000), wk =   0.0234375
        k(   19) = (   0.0000000   0.3750000  -0.5000000), wk =   0.0937500
        k(   20) = (   0.0000000   0.3750000  -0.3750000), wk =   0.0468750
        k(   21) = (   0.0000000  -0.5000000  -0.5000000), wk =   0.0117188
        k(   22) = (   0.1250000   0.2500000   0.3750000), wk =   0.0937500
        k(   23) = (   0.1250000   0.2500000  -0.5000000), wk =   0.1875000
        k(   24) = (   0.1250000   0.2500000  -0.3750000), wk =   0.0937500
        k(   25) = (   0.1250000   0.3750000  -0.5000000), wk =   0.0937500
        k(   26) = (   0.1250000   0.3750000  -0.3750000), wk =   0.1875000
        k(   27) = (   0.1250000   0.3750000  -0.2500000), wk =   0.0937500
        k(   28) = (   0.1250000  -0.5000000  -0.3750000), wk =   0.0468750
        k(   29) = (   0.2500000  -0.5000000  -0.2500000), wk =   0.0234375

     Dense  grid:   149629 G-vectors     FFT dimensions: (  75,  75,  75)

     Smooth grid:    44399 G-vectors     FFT dimensions: (  50,  50,  50)

     Dynamical RAM for                 wfc:       0.13 MB

     Dynamical RAM for     wfc (w. buffer):       3.81 MB

     Dynamical RAM for           str. fact:       0.76 MB

     Dynamical RAM for           local pot:       0.00 MB

     Dynamical RAM for          nlocal pot:       0.51 MB

     Dynamical RAM for                qrad:       4.31 MB

     Dynamical RAM for          rho,v,vnew:       2.82 MB

     Dynamical RAM for               rhoin:       0.94 MB

     Dynamical RAM for            rho*nmix:       6.09 MB

     Dynamical RAM for           G-vectors:       1.48 MB

     Dynamical RAM for          h,s,v(r/c):       0.01 MB

     Dynamical RAM for          <psi|beta>:       0.00 MB

     Dynamical RAM for                 psi:       0.25 MB

     Dynamical RAM for                hpsi:       0.25 MB

     Dynamical RAM for                spsi:       0.25 MB

     Dynamical RAM for      wfcinit/wfcrot:       0.26 MB

     Dynamical RAM for           addusdens:      71.16 MB

     Estimated static dynamical RAM per process >      18.55 MB

     Estimated max dynamical RAM per process >      95.81 MB

     Estimated total dynamical RAM >     574.84 MB

     Initial potential from superposition of free atoms

     starting charge      17.9949, renormalised to      18.0000
     Starting wfcs are   13 randomized atomic wfcs

     total cpu time spent up to now is        2.0 secs

     per-process dynamical memory:    29.8 Mb

     Self-consistent Calculation

     iteration #  1     ecut=    80.00 Ry     beta= 0.30
     Davidson diagonalization with overlap

---- Real-time Memory Report at c_bands before calling an iterative solver
           137 MiB given to the printing process from OS
            29 MiB allocation reported by mallinfo(arena+hblkhd)
          1234 MiB available memory on the node where the printing process lives
------------------
     ethr =  1.00E-02,  avg # of iterations =  1.1

     Threshold (ethr) on eigenvalues was too large:
     Diagonalizing with lowered threshold

     Davidson diagonalization with overlap

---- Real-time Memory Report at c_bands before calling an iterative solver
           141 MiB given to the printing process from OS
            35 MiB allocation reported by mallinfo(arena+hblkhd)
          1247 MiB available memory on the node where the printing process lives
------------------
     ethr =  2.05E-04,  avg # of iterations =  5.0

     total cpu time spent up to now is        3.9 secs

     total energy              =    -128.97478321 Ry
     estimated scf accuracy    <       0.04129587 Ry

     iteration #  2     ecut=    80.00 Ry     beta= 0.30
     Davidson diagonalization with overlap

---- Real-time Memory Report at c_bands before calling an iterative solver
           142 MiB given to the printing process from OS
            37 MiB allocation reported by mallinfo(arena+hblkhd)
          1185 MiB available memory on the node where the printing process lives
------------------
     ethr =  2.29E-04,  avg # of iterations =  1.8

     total cpu time spent up to now is        4.9 secs

     total energy              =    -128.97303714 Ry
     estimated scf accuracy    <       0.01247308 Ry

     iteration #  3     ecut=    80.00 Ry     beta= 0.30
     Davidson diagonalization with overlap

---- Real-time Memory Report at c_bands before calling an iterative solver
           143 MiB given to the printing process from OS
            37 MiB allocation reported by mallinfo(arena+hblkhd)
          1207 MiB available memory on the node where the printing process lives
------------------
     ethr =  6.93E-05,  avg # of iterations =  2.2

     total cpu time spent up to now is        6.1 secs

     total energy              =    -128.97646349 Ry
     estimated scf accuracy    <       0.00137953 Ry

     iteration #  4     ecut=    80.00 Ry     beta= 0.30
     Davidson diagonalization with overlap

---- Real-time Memory Report at c_bands before calling an iterative solver
           143 MiB given to the printing process from OS
            37 MiB allocation reported by mallinfo(arena+hblkhd)
          1202 MiB available memory on the node where the printing process lives
------------------
     ethr =  7.66E-06,  avg # of iterations =  5.2

     total cpu time spent up to now is        7.4 secs

     total energy              =    -128.97718874 Ry
     estimated scf accuracy    <       0.00021285 Ry

     iteration #  5     ecut=    80.00 Ry     beta= 0.30
     Davidson diagonalization with overlap

---- Real-time Memory Report at c_bands before calling an iterative solver
           143 MiB given to the printing process from OS
            37 MiB allocation reported by mallinfo(arena+hblkhd)
          1216 MiB available memory on the node where the printing process lives
------------------
     ethr =  1.18E-06,  avg # of iterations =  5.1

     total cpu time spent up to now is        8.6 secs

     total energy              =    -128.97727807 Ry
     estimated scf accuracy    <       0.00006661 Ry

     iteration #  6     ecut=    80.00 Ry     beta= 0.30
     Davidson diagonalization with overlap

---- Real-time Memory Report at c_bands before calling an iterative solver
           143 MiB given to the printing process from OS
            37 MiB allocation reported by mallinfo(arena+hblkhd)
          1238 MiB available memory on the node where the printing process lives
------------------
     ethr =  3.70E-07,  avg # of iterations =  5.5

     total cpu time spent up to now is        9.8 secs

     total energy              =    -128.97731630 Ry
     estimated scf accuracy    <       0.00004987 Ry

     iteration #  7     ecut=    80.00 Ry     beta= 0.30
     Davidson diagonalization with overlap

---- Real-time Memory Report at c_bands before calling an iterative solver
           144 MiB given to the printing process from OS
            38 MiB allocation reported by mallinfo(arena+hblkhd)
          1211 MiB available memory on the node where the printing process lives
------------------
     ethr =  2.77E-07,  avg # of iterations =  1.1

     total cpu time spent up to now is       10.7 secs

     total energy              =    -128.97732544 Ry
     estimated scf accuracy    <       0.00005089 Ry

     iteration #  8     ecut=    80.00 Ry     beta= 0.30
     Davidson diagonalization with overlap

---- Real-time Memory Report at c_bands before calling an iterative solver
           144 MiB given to the printing process from OS
            38 MiB allocation reported by mallinfo(arena+hblkhd)
          1236 MiB available memory on the node where the printing process lives
------------------
     ethr =  2.77E-07,  avg # of iterations =  1.1

     total cpu time spent up to now is       11.5 secs

     total energy              =    -128.97731408 Ry
     estimated scf accuracy    <       0.00007259 Ry

     iteration #  9     ecut=    80.00 Ry     beta= 0.30
     Davidson diagonalization with overlap

---- Real-time Memory Report at c_bands before calling an iterative solver
           144 MiB given to the printing process from OS
            38 MiB allocation reported by mallinfo(arena+hblkhd)
          1233 MiB available memory on the node where the printing process lives
------------------
     ethr =  2.77E-07,  avg # of iterations =  2.3

     total cpu time spent up to now is       12.5 secs

     total energy              =    -128.97732348 Ry
     estimated scf accuracy    <       0.00006011 Ry

     iteration # 10     ecut=    80.00 Ry     beta= 0.30
     Davidson diagonalization with overlap

---- Real-time Memory Report at c_bands before calling an iterative solver
           144 MiB given to the printing process from OS
            38 MiB allocation reported by mallinfo(arena+hblkhd)
          1222 MiB available memory on the node where the printing process lives
------------------
     ethr =  2.77E-07,  avg # of iterations =  9.0

     total cpu time spent up to now is       14.1 secs

     total energy              =    -128.97737055 Ry
     estimated scf accuracy    <       0.00034547 Ry

     iteration # 11     ecut=    80.00 Ry     beta= 0.30
     Davidson diagonalization with overlap

---- Real-time Memory Report at c_bands before calling an iterative solver
           144 MiB given to the printing process from OS
            38 MiB allocation reported by mallinfo(arena+hblkhd)
          1221 MiB available memory on the node where the printing process lives
------------------
     ethr =  2.77E-07,  avg # of iterations =  1.7

     total cpu time spent up to now is       15.0 secs

     total energy              =    -128.97737684 Ry
     estimated scf accuracy    <       0.00023279 Ry

     iteration # 12     ecut=    80.00 Ry     beta= 0.30
     Davidson diagonalization with overlap

---- Real-time Memory Report at c_bands before calling an iterative solver
           144 MiB given to the printing process from OS
            38 MiB allocation reported by mallinfo(arena+hblkhd)
          1233 MiB available memory on the node where the printing process lives
------------------
     ethr =  2.77E-07,  avg # of iterations =  1.0

     total cpu time spent up to now is       16.0 secs

     total energy              =    -128.97748361 Ry
     estimated scf accuracy    <       0.00024701 Ry

     iteration # 13     ecut=    80.00 Ry     beta= 0.30
     Davidson diagonalization with overlap

---- Real-time Memory Report at c_bands before calling an iterative solver
           144 MiB given to the printing process from OS
            38 MiB allocation reported by mallinfo(arena+hblkhd)
          1223 MiB available memory on the node where the printing process lives
------------------
     ethr =  2.77E-07,  avg # of iterations =  2.1

     total cpu time spent up to now is       17.2 secs

     total energy              =    -128.97739107 Ry
     estimated scf accuracy    <       0.00044851 Ry

     iteration # 14     ecut=    80.00 Ry     beta= 0.30
     Davidson diagonalization with overlap

---- Real-time Memory Report at c_bands before calling an iterative solver
           144 MiB given to the printing process from OS
            38 MiB allocation reported by mallinfo(arena+hblkhd)
          1228 MiB available memory on the node where the printing process lives
------------------
     ethr =  2.77E-07,  avg # of iterations =  1.2

     total cpu time spent up to now is       18.1 secs

     total energy              =    -128.97728582 Ry
     estimated scf accuracy    <       0.00028770 Ry

     iteration # 15     ecut=    80.00 Ry     beta= 0.30
     Davidson diagonalization with overlap

---- Real-time Memory Report at c_bands before calling an iterative solver
           144 MiB given to the printing process from OS
            38 MiB allocation reported by mallinfo(arena+hblkhd)
          1221 MiB available memory on the node where the printing process lives
------------------
     ethr =  2.77E-07,  avg # of iterations =  5.1

     total cpu time spent up to now is       19.4 secs

     total energy              =    -128.97727561 Ry
     estimated scf accuracy    <       0.00005977 Ry

     iteration # 16     ecut=    80.00 Ry     beta= 0.30
     Davidson diagonalization with overlap

---- Real-time Memory Report at c_bands before calling an iterative solver
           144 MiB given to the printing process from OS
            38 MiB allocation reported by mallinfo(arena+hblkhd)
          1230 MiB available memory on the node where the printing process lives
------------------
     ethr =  2.77E-07,  avg # of iterations =  4.3

     total cpu time spent up to now is       20.9 secs

     total energy              =    -128.97729593 Ry
     estimated scf accuracy    <       0.00001446 Ry

     iteration # 17     ecut=    80.00 Ry     beta= 0.30
     Davidson diagonalization with overlap

---- Real-time Memory Report at c_bands before calling an iterative solver
           144 MiB given to the printing process from OS
            38 MiB allocation reported by mallinfo(arena+hblkhd)
          1207 MiB available memory on the node where the printing process lives
------------------
     ethr =  8.03E-08,  avg # of iterations =  3.9

     total cpu time spent up to now is       22.1 secs

     total energy              =    -128.97729817 Ry
     estimated scf accuracy    <       0.00000762 Ry

     iteration # 18     ecut=    80.00 Ry     beta= 0.30
     Davidson diagonalization with overlap

---- Real-time Memory Report at c_bands before calling an iterative solver
           144 MiB given to the printing process from OS
            38 MiB allocation reported by mallinfo(arena+hblkhd)
          1202 MiB available memory on the node where the printing process lives
------------------
     ethr =  4.23E-08,  avg # of iterations =  3.4

     total cpu time spent up to now is       23.1 secs

     total energy              =    -128.97729735 Ry
     estimated scf accuracy    <       0.00000400 Ry

     iteration # 19     ecut=    80.00 Ry     beta= 0.30
     Davidson diagonalization with overlap

---- Real-time Memory Report at c_bands before calling an iterative solver
           144 MiB given to the printing process from OS
            38 MiB allocation reported by mallinfo(arena+hblkhd)
          1233 MiB available memory on the node where the printing process lives
------------------
     ethr =  2.22E-08,  avg # of iterations =  3.6

     total cpu time spent up to now is       24.3 secs

     total energy              =    -128.97729818 Ry
     estimated scf accuracy    <       0.00000165 Ry

     iteration # 20     ecut=    80.00 Ry     beta= 0.30
     Davidson diagonalization with overlap

---- Real-time Memory Report at c_bands before calling an iterative solver
           144 MiB given to the printing process from OS
            38 MiB allocation reported by mallinfo(arena+hblkhd)
          1225 MiB available memory on the node where the printing process lives
------------------
     ethr =  9.15E-09,  avg # of iterations =  1.5

     total cpu time spent up to now is       25.3 secs

     total energy              =    -128.97729935 Ry
     estimated scf accuracy    <       0.00000073 Ry

     iteration # 21     ecut=    80.00 Ry     beta= 0.30
     Davidson diagonalization with overlap

---- Real-time Memory Report at c_bands before calling an iterative solver
           144 MiB given to the printing process from OS
            38 MiB allocation reported by mallinfo(arena+hblkhd)
          1228 MiB available memory on the node where the printing process lives
------------------
     ethr =  4.03E-09,  avg # of iterations =  5.3

     total cpu time spent up to now is       26.8 secs

     total energy              =    -128.97730231 Ry
     estimated scf accuracy    <       0.00000398 Ry

     iteration # 22     ecut=    80.00 Ry     beta= 0.30
     Davidson diagonalization with overlap

---- Real-time Memory Report at c_bands before calling an iterative solver
           144 MiB given to the printing process from OS
            38 MiB allocation reported by mallinfo(arena+hblkhd)
          1223 MiB available memory on the node where the printing process lives
------------------
     ethr =  4.03E-09,  avg # of iterations =  5.0

     total cpu time spent up to now is       28.2 secs

     total energy              =    -128.97730180 Ry
     estimated scf accuracy    <       0.00001106 Ry

     iteration # 23     ecut=    80.00 Ry     beta= 0.30
     Davidson diagonalization with overlap

---- Real-time Memory Report at c_bands before calling an iterative solver
           144 MiB given to the printing process from OS
            38 MiB allocation reported by mallinfo(arena+hblkhd)
          1234 MiB available memory on the node where the printing process lives
------------------
     ethr =  4.03E-09,  avg # of iterations =  1.0

     total cpu time spent up to now is       29.2 secs

     total energy              =    -128.97729507 Ry
     estimated scf accuracy    <       0.00000947 Ry

     iteration # 24     ecut=    80.00 Ry     beta= 0.30
     Davidson diagonalization with overlap

---- Real-time Memory Report at c_bands before calling an iterative solver
           144 MiB given to the printing process from OS
            38 MiB allocation reported by mallinfo(arena+hblkhd)
          1219 MiB available memory on the node where the printing process lives
------------------
     ethr =  4.03E-09,  avg # of iterations =  7.9

     total cpu time spent up to now is       31.1 secs

     total energy              =    -128.97729918 Ry
     estimated scf accuracy    <       0.00000314 Ry

     iteration # 25     ecut=    80.00 Ry     beta= 0.30
     Davidson diagonalization with overlap

---- Real-time Memory Report at c_bands before calling an iterative solver
           144 MiB given to the printing process from OS
            38 MiB allocation reported by mallinfo(arena+hblkhd)
          1222 MiB available memory on the node where the printing process lives
------------------
     ethr =  4.03E-09,  avg # of iterations =  1.0

     total cpu time spent up to now is       32.1 secs

     total energy              =    -128.97729813 Ry
     estimated scf accuracy    <       0.00000307 Ry

     iteration # 26     ecut=    80.00 Ry     beta= 0.30
     Davidson diagonalization with overlap

---- Real-time Memory Report at c_bands before calling an iterative solver
           144 MiB given to the printing process from OS
            38 MiB allocation reported by mallinfo(arena+hblkhd)
          1231 MiB available memory on the node where the printing process lives
------------------
     ethr =  4.03E-09,  avg # of iterations =  3.0

     total cpu time spent up to now is       33.5 secs

     total energy              =    -128.97729797 Ry
     estimated scf accuracy    <       0.00000154 Ry

     iteration # 27     ecut=    80.00 Ry     beta= 0.30
     Davidson diagonalization with overlap

---- Real-time Memory Report at c_bands before calling an iterative solver
           144 MiB given to the printing process from OS
            38 MiB allocation reported by mallinfo(arena+hblkhd)
          1223 MiB available memory on the node where the printing process lives
------------------
     ethr =  4.03E-09,  avg # of iterations =  4.7

     total cpu time spent up to now is       34.6 secs

     total energy              =    -128.97729795 Ry
     estimated scf accuracy    <       0.00000094 Ry

     iteration # 28     ecut=    80.00 Ry     beta= 0.30
     Davidson diagonalization with overlap

---- Real-time Memory Report at c_bands before calling an iterative solver
           144 MiB given to the printing process from OS
            38 MiB allocation reported by mallinfo(arena+hblkhd)
          1252 MiB available memory on the node where the printing process lives
------------------
     ethr =  4.03E-09,  avg # of iterations =  2.1

     total cpu time spent up to now is       35.5 secs

     total energy              =    -128.97729796 Ry
     estimated scf accuracy    <       0.00000014 Ry

     iteration # 29     ecut=    80.00 Ry     beta= 0.30
     Davidson diagonalization with overlap

---- Real-time Memory Report at c_bands before calling an iterative solver
           144 MiB given to the printing process from OS
            38 MiB allocation reported by mallinfo(arena+hblkhd)
          1273 MiB available memory on the node where the printing process lives
------------------
     ethr =  7.96E-10,  avg # of iterations =  3.5

     total cpu time spent up to now is       36.7 secs

     total energy              =    -128.97729804 Ry
     estimated scf accuracy    <       0.00000001 Ry

     iteration # 30     ecut=    80.00 Ry     beta= 0.30
     Davidson diagonalization with overlap

---- Real-time Memory Report at c_bands before calling an iterative solver
           144 MiB given to the printing process from OS
            38 MiB allocation reported by mallinfo(arena+hblkhd)
          1214 MiB available memory on the node where the printing process lives
------------------
     ethr =  6.61E-11,  avg # of iterations =  6.0

     total cpu time spent up to now is       37.9 secs

     total energy              =    -128.97729804 Ry
     estimated scf accuracy    <       0.00000002 Ry

     iteration # 31     ecut=    80.00 Ry     beta= 0.30
     Davidson diagonalization with overlap

---- Real-time Memory Report at c_bands before calling an iterative solver
           144 MiB given to the printing process from OS
            38 MiB allocation reported by mallinfo(arena+hblkhd)
          1211 MiB available memory on the node where the printing process lives
------------------
     ethr =  6.61E-11,  avg # of iterations =  1.9

     total cpu time spent up to now is       38.9 secs

     total energy              =    -128.97729804 Ry
     estimated scf accuracy    <          4.8E-09 Ry

     iteration # 32     ecut=    80.00 Ry     beta= 0.30
     Davidson diagonalization with overlap

---- Real-time Memory Report at c_bands before calling an iterative solver
           144 MiB given to the printing process from OS
            38 MiB allocation reported by mallinfo(arena+hblkhd)
          1215 MiB available memory on the node where the printing process lives
------------------
     ethr =  2.65E-11,  avg # of iterations =  6.1

     total cpu time spent up to now is       40.3 secs

     total energy              =    -128.97729804 Ry
     estimated scf accuracy    <          1.4E-09 Ry

     iteration # 33     ecut=    80.00 Ry     beta= 0.30
     Davidson diagonalization with overlap

---- Real-time Memory Report at c_bands before calling an iterative solver
           144 MiB given to the printing process from OS
            38 MiB allocation reported by mallinfo(arena+hblkhd)
          1219 MiB available memory on the node where the printing process lives
------------------
     ethr =  7.60E-12,  avg # of iterations =  2.6

     total cpu time spent up to now is       41.3 secs

     total energy              =    -128.97729804 Ry
     estimated scf accuracy    <          1.5E-09 Ry

     iteration # 34     ecut=    80.00 Ry     beta= 0.30
     Davidson diagonalization with overlap

---- Real-time Memory Report at c_bands before calling an iterative solver
           144 MiB given to the printing process from OS
            38 MiB allocation reported by mallinfo(arena+hblkhd)
          1224 MiB available memory on the node where the printing process lives
------------------
     ethr =  7.60E-12,  avg # of iterations =  3.0

     total cpu time spent up to now is       42.4 secs

     total energy              =    -128.97729804 Ry
     estimated scf accuracy    <          4.3E-10 Ry

     iteration # 35     ecut=    80.00 Ry     beta= 0.30
     Davidson diagonalization with overlap

---- Real-time Memory Report at c_bands before calling an iterative solver
           144 MiB given to the printing process from OS
            38 MiB allocation reported by mallinfo(arena+hblkhd)
          1221 MiB available memory on the node where the printing process lives
------------------
     ethr =  2.38E-12,  avg # of iterations =  4.8

     total cpu time spent up to now is       43.5 secs

     total energy              =    -128.97729804 Ry
     estimated scf accuracy    <          1.4E-10 Ry

     iteration # 36     ecut=    80.00 Ry     beta= 0.30
     Davidson diagonalization with overlap

---- Real-time Memory Report at c_bands before calling an iterative solver
           144 MiB given to the printing process from OS
            38 MiB allocation reported by mallinfo(arena+hblkhd)
          1230 MiB available memory on the node where the printing process lives
------------------
     ethr =  7.65E-13,  avg # of iterations =  2.3

     total cpu time spent up to now is       44.5 secs

     End of self-consistent calculation

          k = 0.0000 0.0000 0.0000 (  5601 PWs)   bands (ev):

    -6.0536  -3.1526  -3.1526  -3.1526  -2.8921  -2.8921   5.1238   5.1238
     5.1238

     occupation numbers 
     1.0000   1.0000   1.0000   1.0000   1.0000   1.0000   1.0000   1.0000
     1.0000

          k = 0.0884 0.0884-0.0884 (  5585 PWs)   bands (ev):

    -5.9952  -3.1415  -3.1415  -3.1071  -2.8929  -2.8929   3.8988   4.9861
     4.9861

     occupation numbers 
     1.0000   1.0000   1.0000   1.0000   1.0000   1.0000   1.0000   1.0000
     1.0000

          k = 0.1768 0.1768-0.1768 (  5561 PWs)   bands (ev):

    -5.8537  -3.1168  -3.1168  -2.9541  -2.8921  -2.8921   2.3953   4.6946
     4.6946

     occupation numbers 
     1.0000   1.0000   1.0000   1.0000   1.0000   1.0000   1.0000   1.0000
     1.0000

          k = 0.2652 0.2652-0.2652 (  5558 PWs)   bands (ev):

    -5.7133  -3.0962  -3.0962  -2.8863  -2.8863  -2.7005   1.1945   4.4435
     4.4435

     occupation numbers 
     1.0000   1.0000   1.0000   1.0000   1.0000   1.0000   1.0000   1.0000
     1.0000

          k =-0.3536-0.3536 0.3536 (  5564 PWs)   bands (ev):

    -5.6562  -3.0893  -3.0893  -2.8821  -2.8821  -2.5406   0.6958   4.3480
     4.3480

     occupation numbers 
     1.0000   1.0000   1.0000   1.0000   1.0000   1.0000   1.0000   1.0000
     1.0000

          k = 0.1768 0.0000 0.0000 (  5565 PWs)   bands (ev):

    -5.9759  -3.1307  -3.1307  -3.1066  -2.8985  -2.8873   3.8703   4.7481
     4.7481

     occupation numbers 
     1.0000   1.0000   1.0000   1.0000   1.0000   1.0000   1.0000   1.0000
     1.0000

          k = 0.2652 0.0884-0.0884 (  5563 PWs)   bands (ev):

    -5.8624  -3.1124  -3.1047  -3.0003  -2.8945  -2.8832   2.7455   4.4152
     4.4457

     occupation numbers 
     1.0000   1.0000   1.0000   1.0000   1.0000   1.0000   1.0000   1.0000
     1.0000

          k = 0.3536 0.1768-0.1768 (  5540 PWs)   bands (ev):

    -5.7224  -3.0928  -3.0819  -2.9149  -2.8793  -2.7450   1.5475   4.0607
     4.1848

     occupation numbers 
     1.0000   1.0000   1.0000   1.0000   1.0000   1.0000   1.0000   1.0000
     1.0000

          k =-0.2652-0.4419 0.4419 (  5549 PWs)   bands (ev):

    -5.6390  -3.0814  -3.0738  -2.8970  -2.8804  -2.5268   0.8248   3.7583
     4.1541

     occupation numbers 
     1.0000   1.0000   1.0000   1.0000   1.0000   1.0000   1.0000   1.0000
     1.0000

          k =-0.1768-0.3536 0.3536 (  5538 PWs)   bands (ev):

    -5.6577  -3.0812  -3.0808  -2.8903  -2.8892  -2.5808   0.9881   3.6645
     4.3321

     occupation numbers 
     1.0000   1.0000   1.0000   1.0000   1.0000   1.0000   1.0000   1.0000
     1.0000

          k =-0.0884-0.2652 0.2652 (  5551 PWs)   bands (ev):

    -5.7686  -3.1028  -3.0923  -2.9020  -2.8995  -2.8199   1.9149   3.8421
     4.6466

     occupation numbers 
     1.0000   1.0000   1.0000   1.0000   1.0000   1.0000   1.0000   1.0000
     1.0000

          k = 0.0000-0.1768 0.1768 (  5561 PWs)   bands (ev):

    -5.9092  -3.1290  -3.1164  -3.0326  -2.8990  -2.8859   3.0782   4.3458
     4.9356

     occupation numbers 
     1.0000   1.0000   1.0000   1.0000   1.0000   1.0000   1.0000   1.0000
     1.0000

          k = 0.3536 0.0000 0.0000 (  5537 PWs)   bands (ev):

    -5.7889  -3.0750  -3.0750  -2.9933  -2.8758  -2.8638   2.4553   4.0360
     4.0360

     occupation numbers 
     1.0000   1.0000   1.0000   1.0000   1.0000   1.0000   1.0000   1.0000
     1.0000

          k = 0.4419 0.0884-0.0884 (  5551 PWs)   bands (ev):

    -5.6781  -3.0577  -3.0474  -2.9594  -2.8713  -2.7111   1.6782   3.5787
     3.7765

     occupation numbers 
     1.0000   1.0000   1.0000   1.0000   1.0000   1.0000   1.0000   1.0000
     1.0000

          k =-0.1768-0.5303 0.5303 (  5558 PWs)   bands (ev):

    -5.5966  -3.0556  -3.0367  -2.9325  -2.8747  -2.4867   1.0436   3.0427
     3.7449

     occupation numbers 
     1.0000   1.0000   1.0000   1.0000   1.0000   1.0000   1.0000   1.0000
     1.0000

          k =-0.0884-0.4419 0.4419 (  5548 PWs)   bands (ev):

    -5.5892  -3.0599  -3.0459  -2.9090  -2.8880  -2.4362   0.9655   2.7547
     3.9524

     occupation numbers 
     1.0000   1.0000   1.0000   1.0000   1.0000   1.0000   1.0000   1.0000
     1.0000

          k = 0.0000-0.3536 0.3536 (  5556 PWs)   bands (ev):

    -5.6591  -3.0724  -3.0705  -2.8994  -2.8986  -2.6181   1.4096   2.9746
     4.3164

     occupation numbers 
     1.0000   1.0000   1.0000   1.0000   1.0000   1.0000   1.0000   1.0000
     1.0000

          k = 0.5303 0.0000 0.0000 (  5542 PWs)   bands (ev):

    -5.6073  -3.0146  -3.0146  -2.9873  -2.8643  -2.5964   1.3105   3.4680
     3.4680

     occupation numbers 
     1.0000   1.0000   1.0000   1.0000   1.0000   1.0000   1.0000   1.0000
     1.0000

          k =-0.0884-0.6187 0.6187 (  5551 PWs)   bands (ev):

    -5.5534  -3.0196  -3.0015  -2.9681  -2.8652  -2.4321   0.9538   3.0403
     3.3923

     occupation numbers 
     1.0000   1.0000   1.0000   1.0000   1.0000   1.0000   1.0000   1.0000
     1.0000

          k = 0.0000-0.5303 0.5303 (  5536 PWs)   bands (ev):

    -5.5466  -3.0385  -3.0132  -2.9379  -2.8770  -2.3572   0.9141   2.5652
     3.5774

     occupation numbers 
     1.0000   1.0000   1.0000   1.0000   1.0000   1.0000   1.0000   1.0000
     1.0000

          k =-0.7071 0.0000 0.0000 (  5514 PWs)   bands (ev):

    -5.5353  -2.9967  -2.9881  -2.9881  -2.8595  -2.4029   0.8143   3.2579
     3.2579

     occupation numbers 
     1.0000   1.0000   1.0000   1.0000   1.0000   1.0000   1.0000   1.0000
     1.0000

          k = 0.3536 0.1768 0.0000 (  5549 PWs)   bands (ev):

    -5.7502  -3.0885  -3.0766  -2.9400  -2.8817  -2.8069   2.0356   3.6322
     4.3045

     occupation numbers 
     1.0000   1.0000   1.0000   1.0000   1.0000   1.0000   1.0000   1.0000
     1.0000

          k =-0.2652-0.4419 0.6187 (  5550 PWs)   bands (ev):

    -5.6405  -3.0688  -3.0587  -2.9193  -2.8812  -2.5829   1.2518   3.1770
     4.0036

     occupation numbers 
     1.0000   1.0000   1.0000   1.0000   1.0000   1.0000   1.0000   1.0000
     1.0000

          k =-0.1768-0.3536 0.5303 (  5550 PWs)   bands (ev):

    -5.5963  -3.0637  -3.0513  -2.9070  -2.8854  -2.4455   0.8845   3.0556
     3.8556

     occupation numbers 
     1.0000   1.0000   1.0000   1.0000   1.0000   1.0000   1.0000   1.0000
     1.0000

          k =-0.1768-0.5303 0.7071 (  5563 PWs)   bands (ev):

    -5.5969  -3.0360  -3.0311  -2.9518  -2.8713  -2.5279   1.2154   3.1242
     3.4922

     occupation numbers 
     1.0000   1.0000   1.0000   1.0000   1.0000   1.0000   1.0000   1.0000
     1.0000

          k =-0.0884-0.4419 0.6187 (  5554 PWs)   bands (ev):

    -5.5541  -3.0388  -3.0240  -2.9296  -2.8815  -2.3734   0.9558   2.7144
     3.3734

     occupation numbers 
     1.0000   1.0000   1.0000   1.0000   1.0000   1.0000   1.0000   1.0000
     1.0000

          k = 0.0000-0.3536 0.5303 (  5555 PWs)   bands (ev):

    -5.5718  -3.0488  -3.0358  -2.9160  -2.8890  -2.4082   1.0330   2.6260
     3.6188

     occupation numbers 
     1.0000   1.0000   1.0000   1.0000   1.0000   1.0000   1.0000   1.0000
     1.0000

          k =-0.7071 0.1768 0.0000 (  5540 PWs)   bands (ev):

    -5.5361  -3.0163  -3.0098  -2.9533  -2.8701  -2.3607   0.8710   3.0206
     3.0807

     occupation numbers 
     1.0000   1.0000   1.0000   1.0000   1.0000   1.0000   1.0000   1.0000
     1.0000

          k =-0.7071 0.3536 0.0000 (  5540 PWs)   bands (ev):

    -5.5369  -3.0291  -3.0236  -2.9211  -2.8903  -2.3203   0.9363   2.7978
     2.9226

     occupation numbers 
     1.0000   1.0000   1.0000   1.0000   1.0000   1.0000   1.0000   1.0000
     1.0000

     highest occupied level (ev):     5.1238

!    total energy              =    -128.97729804 Ry
     estimated scf accuracy    <          8.6E-12 Ry

     The total energy is the sum of the following terms:
     one-electron contribution =     -48.73592812 Ry
     hartree contribution      =      36.05988934 Ry
     xc contribution           =     -39.50003232 Ry
     ewald contribution        =     -76.80122694 Ry

     convergence has been achieved in  36 iterations

     Writing all to output data dir /home/User/opencode_workspace/DFT/calculations/cdte/conv_scf_rho720/out/pwscf.save/ :
     XML data file, charge density, pseudopotentials, collected wavefunctions

     init_run     :      1.39s CPU      1.79s WALL (       1 calls)
     electrons    :     32.53s CPU     42.47s WALL (       1 calls)

     Called by init_run:
     wfcinit      :      0.22s CPU      0.25s WALL (       1 calls)
     wfcinit:atom :      0.00s CPU      0.00s WALL (      29 calls)
     wfcinit:wfcr :      0.20s CPU      0.22s WALL (      29 calls)
     potinit      :      0.13s CPU      0.15s WALL (       1 calls)
     hinit0       :      0.25s CPU      0.26s WALL (       1 calls)

     Called by electrons:
     c_bands      :     18.29s CPU     20.59s WALL (      37 calls)
     sum_band     :      8.29s CPU     12.12s WALL (      37 calls)
     v_of_rho     :      1.09s CPU      1.37s WALL (      37 calls)
     v_h          :      0.07s CPU      0.13s WALL (      37 calls)
     v_xc         :      1.02s CPU      1.24s WALL (      37 calls)
     newd         :      5.40s CPU      9.24s WALL (      37 calls)
     mix_rho      :      0.14s CPU      0.15s WALL (      37 calls)

     Called by c_bands:
     init_us_2    :      0.53s CPU      0.57s WALL (    2175 calls)
     cegterg      :     17.19s CPU     19.43s WALL (    1073 calls)

     Called by sum_band:
     sum_band:wei :      0.00s CPU      0.00s WALL (      37 calls)
     sum_band:loo :      2.72s CPU      3.05s WALL (      37 calls)
     sum_band:buf :      0.01s CPU      0.02s WALL (    1073 calls)
     sum_band:ini :      0.26s CPU      0.28s WALL (    1073 calls)
     sum_band:cal :      0.20s CPU      0.22s WALL (    1073 calls)
     sum_band:bec :      0.01s CPU      0.01s WALL (    1073 calls)
     addusdens    :      4.76s CPU      8.21s WALL (      37 calls)
                                        0.00s GPU  (      37 calls)
     addusd:skk   :      0.01s CPU      0.01s WALL (      74 calls)
                                        0.00s GPU  (      74 calls)

     Called by *egterg:
     cdiaghg      :      0.43s CPU      0.47s WALL (    4735 calls)
     cegterg:over :      0.52s CPU      0.57s WALL (    3691 calls)
     cegterg:upda :      0.15s CPU      0.16s WALL (    3691 calls)
     cegterg:last :      0.29s CPU      0.31s WALL (    2696 calls)
     h_psi        :     15.12s CPU     17.20s WALL (    4793 calls)
     s_psi        :      0.26s CPU      0.29s WALL (    4793 calls)
     g_psi        :      0.11s CPU      0.12s WALL (    3691 calls)

     Called by h_psi:
     h_psi:calbec :      0.79s CPU      0.89s WALL (    4793 calls)
     vloc_psi     :     13.93s CPU     15.88s WALL (    4793 calls)
                                        0.00s GPU  (    4793 calls)
     add_vuspsi   :      0.31s CPU      0.35s WALL (    4793 calls)

     General routines
     calbec       :      0.98s CPU      1.09s WALL (    5866 calls)
     fft          :      0.71s CPU      0.91s WALL (     480 calls)
     ffts         :      0.12s CPU      0.12s WALL (      74 calls)
     fftw         :     15.10s CPU     17.20s WALL (   70361 calls)
     interpolate  :      0.14s CPU      0.16s WALL (      37 calls)

     Parallel routines

     PWSCF        :     34.18s CPU     44.58s WALL


   This run was terminated on:  19:35:55  22Sep2026            

=------------------------------------------------------------------------------=
   JOB DONE.
=------------------------------------------------------------------------------=
