
     Program PWSCF v.7.5 starts on 22Sep2026 at 19:58:29 

     This program is part of the open-source Quantum ESPRESSO suite
     for quantum simulation of materials; please cite
         "P. Giannozzi et al., J. Phys.:Condens. Matter 21 395502 (2009);
         "P. Giannozzi et al., J. Phys.:Condens. Matter 29 465901 (2017);
         "P. Giannozzi et al., J. Chem. Phys. 152 154105 (2020);
          URL http://www.quantum-espresso.org", 
     in publications or presentations arising from this work. More details at
     http://www.quantum-espresso.org/quote

     Parallel version (MPI & OpenMP), running on       6 processor cores
     Number of MPI processes:                 6
     Threads/MPI process:                     1

     MPI processes distributed on     1 nodes
     2041 MiB available memory on the printing compute node when the environment starts

     Reading input from pw.in

     Current dimensions of program PWSCF are:
     Max number of different atomic species (ntypx) = 10
     Max number of k-points (npk) =  40000
     Max angular momentum in pseudopotentials (lmaxx) =  4
     file Cd.pbe-n-rrkjus_psl.1.0.0.UPF: wavefunction(s)  4D renormalized
     file Te.pbe-n-rrkjus_psl.1.0.0.UPF: wavefunction(s)  5S renormalized
     Message from routine setup:
     using ibrav=0 with symmetry is DISCOURAGED, use correct ibrav instead

     R & G space division:  proc/nbgrp/npool/nimage =       6
     Subspace diagonalization in iterative solution of the eigenvalue problem:
     a serial algorithm will be used


     Parallelization info
     --------------------
     sticks:   dense  smooth     PW     G-vecs:    dense   smooth      PW
     Min         615     414    115                24936    13591    2008
     Max         617     416    116                24939    13592    2009
     Sum        3697    2491    691               149629    81547   12051

     Using Slab Decomposition



     bravais-lattice index     =            0
     lattice parameter (alat)  =       8.6615  a.u.
     unit-cell volume          =     459.4769 (a.u.)^3
     number of atoms/cell      =            2
     number of atomic types    =            2
     number of electrons       =        18.00
     number of Kohn-Sham states=            9
     kinetic-energy cutoff     =     120.0000  Ry
     charge density cutoff     =     720.0000  Ry
     scf convergence threshold =      1.0E-10
     mixing beta               =       0.3000
     number of iterations used =            8  plain     mixing
     energy convergence thresh.=      1.0E-04
     force convergence thresh. =      1.0E-03
     press convergence thresh. =      5.0E-01
     Exchange-correlation= PBE
                           (   1   4   3   4   0   0   0)
     nstep                     =           50


     celldm(1)=   8.661496  celldm(2)=   0.000000  celldm(3)=   0.000000
     celldm(4)=   0.000000  celldm(5)=   0.000000  celldm(6)=   0.000000

     crystal axes: (cart. coord. in units of alat)
               a(1) = (   0.000000   0.707107   0.707107 )  
               a(2) = (   0.707107   0.000000   0.707107 )  
               a(3) = (   0.707107   0.707107   0.000000 )  

     reciprocal axes: (cart. coord. in units 2 pi/alat)
               b(1) = ( -0.707107  0.707107  0.707107 )  
               b(2) = (  0.707107 -0.707107  0.707107 )  
               b(3) = (  0.707107  0.707107 -0.707107 )  


     PseudoPot. # 1 for Cd read from file:
     /home/User/opencode_workspace/DFT/pseudopotentials/Cd.pbe-n-rrkjus_psl.1.0.0.UPF
     MD5 check sum: a744746c89d2344a134ead0d8ab94e7a
     Pseudo is Ultrasoft + core correction, Zval = 12.0
     Generated using &quot;atomic&quot; code by A. Dal Corso  v.6.3
     Using radial grid of 1239 points,  6 beta functions with: 
                l(1) =   0
                l(2) =   0
                l(3) =   1
                l(4) =   1
                l(5) =   2
                l(6) =   2
     Q(r) pseudized with 0 coefficients 


     PseudoPot. # 2 for Te read from file:
     /home/User/opencode_workspace/DFT/pseudopotentials/Te.pbe-n-rrkjus_psl.1.0.0.UPF
     MD5 check sum: 203a1e86ef55f0cd9de2762a27c58f54
     Pseudo is Ultrasoft + core correction, Zval =  6.0
     Generated using &quot;atomic&quot; code by A. Dal Corso  v.6.3
     Using radial grid of 1245 points,  6 beta functions with: 
                l(1) =   0
                l(2) =   0
                l(3) =   1
                l(4) =   1
                l(5) =   2
                l(6) =   2
     Q(r) pseudized with 0 coefficients 


     atomic species   valence    mass     pseudopotential
     Cd               12.00   112.41400     Cd( 1.00)
     Te                6.00   127.60000     Te( 1.00)

     24 Sym. Ops. (no inversion) found


                                    s                        frac. trans.

      isym =  1     identity                                     

 cryst.   s( 1) = (     1          0          0      )
                  (     0          1          0      )
                  (     0          0          1      )

 cart.    s( 1) = (  1.0000000  0.0000000  0.0000000 )
                  (  0.0000000  1.0000000  0.0000000 )
                  (  0.0000000  0.0000000  1.0000000 )


      isym =  2     180 deg rotation - cart. axis [0,0,1]        

 cryst.   s( 2) = (     0          1         -1      )
                  (     1          0         -1      )
                  (     0          0         -1      )

 cart.    s( 2) = ( -1.0000000  0.0000000  0.0000000 )
                  (  0.0000000 -1.0000000  0.0000000 )
                  (  0.0000000  0.0000000  1.0000000 )


      isym =  3     180 deg rotation - cart. axis [0,1,0]        

 cryst.   s( 3) = (     0         -1          1      )
                  (     0         -1          0      )
                  (     1         -1          0      )

 cart.    s( 3) = ( -1.0000000  0.0000000  0.0000000 )
                  (  0.0000000  1.0000000  0.0000000 )
                  (  0.0000000  0.0000000 -1.0000000 )


      isym =  4     180 deg rotation - cart. axis [1,0,0]        

 cryst.   s( 4) = (    -1          0          0      )
                  (    -1          0          1      )
                  (    -1          1          0      )

 cart.    s( 4) = (  1.0000000  0.0000000  0.0000000 )
                  (  0.0000000 -1.0000000  0.0000000 )
                  (  0.0000000  0.0000000 -1.0000000 )


      isym =  5     120 deg rotation - cart. axis [-1,-1,-1]     

 cryst.   s( 5) = (     0          0          1      )
                  (     1          0          0      )
                  (     0          1          0      )

 cart.    s( 5) = (  0.0000000  1.0000000  0.0000000 )
                  (  0.0000000  0.0000000  1.0000000 )
                  (  1.0000000  0.0000000  0.0000000 )


      isym =  6     120 deg rotation - cart. axis [-1,1,1]       

 cryst.   s( 6) = (     1         -1          0      )
                  (     0         -1          1      )
                  (     0         -1          0      )

 cart.    s( 6) = (  0.0000000 -1.0000000  0.0000000 )
                  (  0.0000000  0.0000000  1.0000000 )
                  ( -1.0000000  0.0000000  0.0000000 )


      isym =  7     120 deg rotation - cart. axis [1,1,-1]       

 cryst.   s( 7) = (    -1          1          0      )
                  (    -1          0          0      )
                  (    -1          0          1      )

 cart.    s( 7) = (  0.0000000  1.0000000  0.0000000 )
                  (  0.0000000  0.0000000 -1.0000000 )
                  ( -1.0000000  0.0000000  0.0000000 )


      isym =  8     120 deg rotation - cart. axis [1,-1,1]       

 cryst.   s( 8) = (     0          0         -1      )
                  (     0          1         -1      )
                  (     1          0         -1      )

 cart.    s( 8) = (  0.0000000 -1.0000000  0.0000000 )
                  (  0.0000000  0.0000000 -1.0000000 )
                  (  1.0000000  0.0000000  0.0000000 )


      isym =  9     120 deg rotation - cart. axis [1,1,1]        

 cryst.   s( 9) = (     0          1          0      )
                  (     0          0          1      )
                  (     1          0          0      )

 cart.    s( 9) = (  0.0000000  0.0000000  1.0000000 )
                  (  1.0000000  0.0000000  0.0000000 )
                  (  0.0000000  1.0000000  0.0000000 )


      isym = 10     120 deg rotation - cart. axis [-1,1,-1]      

 cryst.   s(10) = (    -1          0          1      )
                  (    -1          1          0      )
                  (    -1          0          0      )

 cart.    s(10) = (  0.0000000  0.0000000  1.0000000 )
                  ( -1.0000000  0.0000000  0.0000000 )
                  (  0.0000000 -1.0000000  0.0000000 )


      isym = 11     120 deg rotation - cart. axis [1,-1,-1]      

 cryst.   s(11) = (     1          0         -1      )
                  (     0          0         -1      )
                  (     0          1         -1      )

 cart.    s(11) = (  0.0000000  0.0000000 -1.0000000 )
                  ( -1.0000000  0.0000000  0.0000000 )
                  (  0.0000000  1.0000000  0.0000000 )


      isym = 12     120 deg rotation - cart. axis [-1,-1,1]      

 cryst.   s(12) = (     0         -1          0      )
                  (     1         -1          0      )
                  (     0         -1          1      )

 cart.    s(12) = (  0.0000000  0.0000000 -1.0000000 )
                  (  1.0000000  0.0000000  0.0000000 )
                  (  0.0000000 -1.0000000  0.0000000 )


      isym = 13     inv. 180 deg rotation - cart. axis [1,1,0]   

 cryst.   s(13) = (     1          0         -1      )
                  (     0          1         -1      )
                  (     0          0         -1      )

 cart.    s(13) = (  0.0000000 -1.0000000  0.0000000 )
                  ( -1.0000000  0.0000000  0.0000000 )
                  (  0.0000000  0.0000000  1.0000000 )


      isym = 14     inv. 180 deg rotation - cart. axis [1,-1,0]  

 cryst.   s(14) = (     0          1          0      )
                  (     1          0          0      )
                  (     0          0          1      )

 cart.    s(14) = (  0.0000000  1.0000000  0.0000000 )
                  (  1.0000000  0.0000000  0.0000000 )
                  (  0.0000000  0.0000000  1.0000000 )


      isym = 15     inv.  90 deg rotation - cart. axis [0,0,-1]  

 cryst.   s(15) = (     0         -1          0      )
                  (     0         -1          1      )
                  (     1         -1          0      )

 cart.    s(15) = (  0.0000000 -1.0000000  0.0000000 )
                  (  1.0000000  0.0000000  0.0000000 )
                  (  0.0000000  0.0000000 -1.0000000 )


      isym = 16     inv.  90 deg rotation - cart. axis [0,0,1]   

 cryst.   s(16) = (    -1          0          1      )
                  (    -1          0          0      )
                  (    -1          1          0      )

 cart.    s(16) = (  0.0000000  1.0000000  0.0000000 )
                  ( -1.0000000  0.0000000  0.0000000 )
                  (  0.0000000  0.0000000 -1.0000000 )


      isym = 17     inv. 180 deg rotation - cart. axis [1,0,1]   

 cryst.   s(17) = (     1         -1          0      )
                  (     0         -1          0      )
                  (     0         -1          1      )

 cart.    s(17) = (  0.0000000  0.0000000 -1.0000000 )
                  (  0.0000000  1.0000000  0.0000000 )
                  ( -1.0000000  0.0000000  0.0000000 )


      isym = 18     inv. 180 deg rotation - cart. axis [-1,0,1]  

 cryst.   s(18) = (     0          0          1      )
                  (     0          1          0      )
                  (     1          0          0      )

 cart.    s(18) = (  0.0000000  0.0000000  1.0000000 )
                  (  0.0000000  1.0000000  0.0000000 )
                  (  1.0000000  0.0000000  0.0000000 )


      isym = 19     inv.  90 deg rotation - cart. axis [0,1,0]   

 cryst.   s(19) = (     0          0         -1      )
                  (     1          0         -1      )
                  (     0          1         -1      )

 cart.    s(19) = (  0.0000000  0.0000000 -1.0000000 )
                  (  0.0000000 -1.0000000  0.0000000 )
                  (  1.0000000  0.0000000  0.0000000 )


      isym = 20     inv.  90 deg rotation - cart. axis [0,-1,0]  

 cryst.   s(20) = (    -1          1          0      )
                  (    -1          0          1      )
                  (    -1          0          0      )

 cart.    s(20) = (  0.0000000  0.0000000  1.0000000 )
                  (  0.0000000 -1.0000000  0.0000000 )
                  ( -1.0000000  0.0000000  0.0000000 )


      isym = 21     inv. 180 deg rotation - cart. axis [0,1,1]   

 cryst.   s(21) = (    -1          0          0      )
                  (    -1          1          0      )
                  (    -1          0          1      )

 cart.    s(21) = (  1.0000000  0.0000000  0.0000000 )
                  (  0.0000000  0.0000000 -1.0000000 )
                  (  0.0000000 -1.0000000  0.0000000 )


      isym = 22     inv. 180 deg rotation - cart. axis [0,1,-1]  

 cryst.   s(22) = (     1          0          0      )
                  (     0          0          1      )
                  (     0          1          0      )

 cart.    s(22) = (  1.0000000  0.0000000  0.0000000 )
                  (  0.0000000  0.0000000  1.0000000 )
                  (  0.0000000  1.0000000  0.0000000 )


      isym = 23     inv.  90 deg rotation - cart. axis [-1,0,0]  

 cryst.   s(23) = (     0          1         -1      )
                  (     0          0         -1      )
                  (     1          0         -1      )

 cart.    s(23) = ( -1.0000000  0.0000000  0.0000000 )
                  (  0.0000000  0.0000000 -1.0000000 )
                  (  0.0000000  1.0000000  0.0000000 )


      isym = 24     inv.  90 deg rotation - cart. axis [1,0,0]   

 cryst.   s(24) = (     0         -1          1      )
                  (     1         -1          0      )
                  (     0         -1          0      )

 cart.    s(24) = ( -1.0000000  0.0000000  0.0000000 )
                  (  0.0000000  0.0000000  1.0000000 )
                  (  0.0000000 -1.0000000  0.0000000 )


   Cartesian axes

     site n.     atom                  positions (alat units)
         1        Cd     tau(   1) = (   0.0000000   0.0000000   0.0000000  )
         2        Te     tau(   2) = (   0.3535534   0.3535534   0.3535534  )

   Crystallographic axes

     site n.     atom                  positions (cryst. coord.)
         1        Cd     tau(   1) = (  0.0000000  0.0000000  0.0000000  )
         2        Te     tau(   2) = (  0.2500000  0.2500000  0.2500000  )

     number of k points=    47
                       cart. coord. in units 2pi/alat
        k(    1) = (   0.0000000   0.0000000   0.0000000), wk =   0.0020000
        k(    2) = (   0.0707107   0.0707107  -0.0707107), wk =   0.0160000
        k(    3) = (   0.1414214   0.1414214  -0.1414214), wk =   0.0160000
        k(    4) = (   0.2121320   0.2121320  -0.2121320), wk =   0.0160000
        k(    5) = (   0.2828427   0.2828427  -0.2828427), wk =   0.0160000
        k(    6) = (  -0.3535534  -0.3535534   0.3535534), wk =   0.0080000
        k(    7) = (   0.1414214   0.0000000   0.0000000), wk =   0.0120000
        k(    8) = (   0.2121320   0.0707107  -0.0707107), wk =   0.0480000
        k(    9) = (   0.2828427   0.1414214  -0.1414214), wk =   0.0480000
        k(   10) = (   0.3535534   0.2121320  -0.2121320), wk =   0.0480000
        k(   11) = (  -0.2828427  -0.4242641   0.4242641), wk =   0.0480000
        k(   12) = (  -0.2121320  -0.3535534   0.3535534), wk =   0.0480000
        k(   13) = (  -0.1414214  -0.2828427   0.2828427), wk =   0.0480000
        k(   14) = (  -0.0707107  -0.2121320   0.2121320), wk =   0.0480000
        k(   15) = (   0.0000000  -0.1414214   0.1414214), wk =   0.0240000
        k(   16) = (   0.2828427   0.0000000   0.0000000), wk =   0.0120000
        k(   17) = (   0.3535534   0.0707107  -0.0707107), wk =   0.0480000
        k(   18) = (   0.4242641   0.1414214  -0.1414214), wk =   0.0480000
        k(   19) = (  -0.2121320  -0.4949747   0.4949747), wk =   0.0480000
        k(   20) = (  -0.1414214  -0.4242641   0.4242641), wk =   0.0480000
        k(   21) = (  -0.0707107  -0.3535534   0.3535534), wk =   0.0480000
        k(   22) = (   0.0000000  -0.2828427   0.2828427), wk =   0.0240000
        k(   23) = (   0.4242641   0.0000000   0.0000000), wk =   0.0120000
        k(   24) = (   0.4949747   0.0707107  -0.0707107), wk =   0.0480000
        k(   25) = (  -0.1414214  -0.5656854   0.5656854), wk =   0.0480000
        k(   26) = (  -0.0707107  -0.4949747   0.4949747), wk =   0.0480000
        k(   27) = (  -0.0000000  -0.4242641   0.4242641), wk =   0.0240000
        k(   28) = (   0.5656854   0.0000000   0.0000000), wk =   0.0120000
        k(   29) = (  -0.0707107  -0.6363961   0.6363961), wk =   0.0480000
        k(   30) = (   0.0000000  -0.5656854   0.5656854), wk =   0.0240000
        k(   31) = (  -0.7071068   0.0000000   0.0000000), wk =   0.0060000
        k(   32) = (   0.2828427   0.1414214   0.0000000), wk =   0.0480000
        k(   33) = (   0.3535534   0.2121320  -0.0707107), wk =   0.0960000
        k(   34) = (  -0.2828427  -0.4242641   0.5656854), wk =   0.0960000
        k(   35) = (  -0.2121320  -0.3535534   0.4949747), wk =   0.0480000
        k(   36) = (   0.4242641   0.1414214  -0.0000000), wk =   0.0480000
        k(   37) = (  -0.2121320  -0.4949747   0.6363961), wk =   0.0960000
        k(   38) = (  -0.1414214  -0.4242641   0.5656854), wk =   0.0960000
        k(   39) = (  -0.0707107  -0.3535534   0.4949747), wk =   0.0960000
        k(   40) = (   0.0000000  -0.2828427   0.4242641), wk =   0.0480000
        k(   41) = (  -0.1414214  -0.5656854   0.7071068), wk =   0.0480000
        k(   42) = (  -0.0707107  -0.4949747   0.6363961), wk =   0.0960000
        k(   43) = (  -0.0000000  -0.4242641   0.5656854), wk =   0.0480000
        k(   44) = (  -0.7071068   0.1414214   0.0000000), wk =   0.0240000
        k(   45) = (  -0.1414214  -0.4242641   0.7071068), wk =   0.0480000
        k(   46) = (  -0.0707107  -0.3535534   0.6363961), wk =   0.0480000
        k(   47) = (  -0.7071068   0.2828427   0.0000000), wk =   0.0240000

                       cryst. coord.
        k(    1) = (   0.0000000   0.0000000   0.0000000), wk =   0.0020000
        k(    2) = (   0.0000000   0.0000000   0.1000000), wk =   0.0160000
        k(    3) = (   0.0000000   0.0000000   0.2000000), wk =   0.0160000
        k(    4) = (   0.0000000   0.0000000   0.3000000), wk =   0.0160000
        k(    5) = (   0.0000000   0.0000000   0.4000000), wk =   0.0160000
        k(    6) = (   0.0000000   0.0000000  -0.5000000), wk =   0.0080000
        k(    7) = (   0.0000000   0.1000000   0.1000000), wk =   0.0120000
        k(    8) = (   0.0000000   0.1000000   0.2000000), wk =   0.0480000
        k(    9) = (   0.0000000   0.1000000   0.3000000), wk =   0.0480000
        k(   10) = (   0.0000000   0.1000000   0.4000000), wk =   0.0480000
        k(   11) = (   0.0000000   0.1000000  -0.5000000), wk =   0.0480000
        k(   12) = (   0.0000000   0.1000000  -0.4000000), wk =   0.0480000
        k(   13) = (   0.0000000   0.1000000  -0.3000000), wk =   0.0480000
        k(   14) = (   0.0000000   0.1000000  -0.2000000), wk =   0.0480000
        k(   15) = (   0.0000000   0.1000000  -0.1000000), wk =   0.0240000
        k(   16) = (   0.0000000   0.2000000   0.2000000), wk =   0.0120000
        k(   17) = (   0.0000000   0.2000000   0.3000000), wk =   0.0480000
        k(   18) = (   0.0000000   0.2000000   0.4000000), wk =   0.0480000
        k(   19) = (   0.0000000   0.2000000  -0.5000000), wk =   0.0480000
        k(   20) = (   0.0000000   0.2000000  -0.4000000), wk =   0.0480000
        k(   21) = (   0.0000000   0.2000000  -0.3000000), wk =   0.0480000
        k(   22) = (   0.0000000   0.2000000  -0.2000000), wk =   0.0240000
        k(   23) = (   0.0000000   0.3000000   0.3000000), wk =   0.0120000
        k(   24) = (   0.0000000   0.3000000   0.4000000), wk =   0.0480000
        k(   25) = (   0.0000000   0.3000000  -0.5000000), wk =   0.0480000
        k(   26) = (   0.0000000   0.3000000  -0.4000000), wk =   0.0480000
        k(   27) = (   0.0000000   0.3000000  -0.3000000), wk =   0.0240000
        k(   28) = (   0.0000000   0.4000000   0.4000000), wk =   0.0120000
        k(   29) = (   0.0000000   0.4000000  -0.5000000), wk =   0.0480000
        k(   30) = (   0.0000000   0.4000000  -0.4000000), wk =   0.0240000
        k(   31) = (   0.0000000  -0.5000000  -0.5000000), wk =   0.0060000
        k(   32) = (   0.1000000   0.2000000   0.3000000), wk =   0.0480000
        k(   33) = (   0.1000000   0.2000000   0.4000000), wk =   0.0960000
        k(   34) = (   0.1000000   0.2000000  -0.5000000), wk =   0.0960000
        k(   35) = (   0.1000000   0.2000000  -0.4000000), wk =   0.0480000
        k(   36) = (   0.1000000   0.3000000   0.4000000), wk =   0.0480000
        k(   37) = (   0.1000000   0.3000000  -0.5000000), wk =   0.0960000
        k(   38) = (   0.1000000   0.3000000  -0.4000000), wk =   0.0960000
        k(   39) = (   0.1000000   0.3000000  -0.3000000), wk =   0.0960000
        k(   40) = (   0.1000000   0.3000000  -0.2000000), wk =   0.0480000
        k(   41) = (   0.1000000   0.4000000  -0.5000000), wk =   0.0480000
        k(   42) = (   0.1000000   0.4000000  -0.4000000), wk =   0.0960000
        k(   43) = (   0.1000000   0.4000000  -0.3000000), wk =   0.0480000
        k(   44) = (   0.1000000  -0.5000000  -0.4000000), wk =   0.0240000
        k(   45) = (   0.2000000   0.4000000  -0.4000000), wk =   0.0480000
        k(   46) = (   0.2000000   0.4000000  -0.3000000), wk =   0.0480000
        k(   47) = (   0.2000000  -0.5000000  -0.3000000), wk =   0.0240000

     Dense  grid:   149629 G-vectors     FFT dimensions: (  75,  75,  75)

     Smooth grid:    81547 G-vectors     FFT dimensions: (  64,  64,  64)

     Dynamical RAM for                 wfc:       0.23 MB

     Dynamical RAM for     wfc (w. buffer):      11.21 MB

     Dynamical RAM for           str. fact:       0.76 MB

     Dynamical RAM for           local pot:       0.00 MB

     Dynamical RAM for          nlocal pot:       0.93 MB

     Dynamical RAM for                qrad:      12.92 MB

     Dynamical RAM for          rho,v,vnew:       2.82 MB

     Dynamical RAM for               rhoin:       0.94 MB

     Dynamical RAM for            rho*nmix:       6.09 MB

     Dynamical RAM for           G-vectors:       1.53 MB

     Dynamical RAM for          h,s,v(r/c):       0.01 MB

     Dynamical RAM for          <psi|beta>:       0.00 MB

     Dynamical RAM for                 psi:       0.47 MB

     Dynamical RAM for                hpsi:       0.47 MB

     Dynamical RAM for                spsi:       0.47 MB

     Dynamical RAM for      wfcinit/wfcrot:       0.47 MB

     Dynamical RAM for           addusdens:      71.16 MB

     Dynamical RAM for          addusforce:      71.35 MB

     Dynamical RAM for         addusstress:      76.49 MB

     Estimated static dynamical RAM per process >      35.03 MB

     Estimated max dynamical RAM per process >     117.61 MB

     Estimated total dynamical RAM >     705.63 MB

     Initial potential from superposition of free atoms

     starting charge      17.9949, renormalised to      18.0000
     Starting wfcs are   13 randomized atomic wfcs

     total cpu time spent up to now is        3.6 secs

     per-process dynamical memory:    48.7 Mb

     Self-consistent Calculation

     iteration #  1     ecut=   120.00 Ry     beta= 0.30
     Davidson diagonalization with overlap

---- Real-time Memory Report at c_bands before calling an iterative solver
           147 MiB given to the printing process from OS
            47 MiB allocation reported by mallinfo(arena+hblkhd)
          1376 MiB available memory on the node where the printing process lives
------------------
     ethr =  1.00E-02,  avg # of iterations =  1.1

     Threshold (ethr) on eigenvalues was too large:
     Diagonalizing with lowered threshold

     Davidson diagonalization with overlap

---- Real-time Memory Report at c_bands before calling an iterative solver
           159 MiB given to the printing process from OS
            52 MiB allocation reported by mallinfo(arena+hblkhd)
          1323 MiB available memory on the node where the printing process lives
------------------
     ethr =  2.07E-04,  avg # of iterations =  5.0

     total cpu time spent up to now is        7.3 secs

     total energy              =    -128.97497306 Ry
     estimated scf accuracy    <       0.04137813 Ry

     iteration #  2     ecut=   120.00 Ry     beta= 0.30
     Davidson diagonalization with overlap

---- Real-time Memory Report at c_bands before calling an iterative solver
           164 MiB given to the printing process from OS
            58 MiB allocation reported by mallinfo(arena+hblkhd)
          1295 MiB available memory on the node where the printing process lives
------------------
     ethr =  2.30E-04,  avg # of iterations =  1.8

     total cpu time spent up to now is        8.9 secs

     total energy              =    -128.97331271 Ry
     estimated scf accuracy    <       0.01246696 Ry

     iteration #  3     ecut=   120.00 Ry     beta= 0.30
     Davidson diagonalization with overlap

---- Real-time Memory Report at c_bands before calling an iterative solver
           165 MiB given to the printing process from OS
            59 MiB allocation reported by mallinfo(arena+hblkhd)
          1260 MiB available memory on the node where the printing process lives
------------------
     ethr =  6.93E-05,  avg # of iterations =  2.2

     total cpu time spent up to now is       10.7 secs

     total energy              =    -128.97678702 Ry
     estimated scf accuracy    <       0.00133578 Ry

     iteration #  4     ecut=   120.00 Ry     beta= 0.30
     Davidson diagonalization with overlap

---- Real-time Memory Report at c_bands before calling an iterative solver
           165 MiB given to the printing process from OS
            59 MiB allocation reported by mallinfo(arena+hblkhd)
          1289 MiB available memory on the node where the printing process lives
------------------
     ethr =  7.42E-06,  avg # of iterations =  5.2

     total cpu time spent up to now is       13.1 secs

     total energy              =    -128.97756217 Ry
     estimated scf accuracy    <       0.00022495 Ry

     iteration #  5     ecut=   120.00 Ry     beta= 0.30
     Davidson diagonalization with overlap

---- Real-time Memory Report at c_bands before calling an iterative solver
           166 MiB given to the printing process from OS
            60 MiB allocation reported by mallinfo(arena+hblkhd)
          1306 MiB available memory on the node where the printing process lives
------------------
     ethr =  1.25E-06,  avg # of iterations =  4.4

     total cpu time spent up to now is       15.3 secs

     total energy              =    -128.97764121 Ry
     estimated scf accuracy    <       0.00007235 Ry

     iteration #  6     ecut=   120.00 Ry     beta= 0.30
     Davidson diagonalization with overlap

---- Real-time Memory Report at c_bands before calling an iterative solver
           166 MiB given to the printing process from OS
            60 MiB allocation reported by mallinfo(arena+hblkhd)
          1294 MiB available memory on the node where the printing process lives
------------------
     ethr =  4.02E-07,  avg # of iterations =  4.8

     total cpu time spent up to now is       17.2 secs

     total energy              =    -128.97766522 Ry
     estimated scf accuracy    <       0.00001588 Ry

     iteration #  7     ecut=   120.00 Ry     beta= 0.30
     Davidson diagonalization with overlap

---- Real-time Memory Report at c_bands before calling an iterative solver
           167 MiB given to the printing process from OS
            60 MiB allocation reported by mallinfo(arena+hblkhd)
          1292 MiB available memory on the node where the printing process lives
------------------
     ethr =  8.82E-08,  avg # of iterations =  3.6

     total cpu time spent up to now is       19.0 secs

     total energy              =    -128.97768519 Ry
     estimated scf accuracy    <       0.00001508 Ry

     iteration #  8     ecut=   120.00 Ry     beta= 0.30
     Davidson diagonalization with overlap

---- Real-time Memory Report at c_bands before calling an iterative solver
           167 MiB given to the printing process from OS
            61 MiB allocation reported by mallinfo(arena+hblkhd)
          1299 MiB available memory on the node where the printing process lives
------------------
     ethr =  8.38E-08,  avg # of iterations =  4.2

     total cpu time spent up to now is       21.0 secs

     total energy              =    -128.97765426 Ry
     estimated scf accuracy    <       0.00006675 Ry

     iteration #  9     ecut=   120.00 Ry     beta= 0.30
     Davidson diagonalization with overlap

---- Real-time Memory Report at c_bands before calling an iterative solver
           168 MiB given to the printing process from OS
            61 MiB allocation reported by mallinfo(arena+hblkhd)
          1286 MiB available memory on the node where the printing process lives
------------------
     ethr =  8.38E-08,  avg # of iterations =  5.2

     total cpu time spent up to now is       23.3 secs

     total energy              =    -128.97766088 Ry
     estimated scf accuracy    <       0.00000511 Ry

     iteration # 10     ecut=   120.00 Ry     beta= 0.30
     Davidson diagonalization with overlap

---- Real-time Memory Report at c_bands before calling an iterative solver
           168 MiB given to the printing process from OS
            62 MiB allocation reported by mallinfo(arena+hblkhd)
          1282 MiB available memory on the node where the printing process lives
------------------
     ethr =  2.84E-08,  avg # of iterations =  7.6

     total cpu time spent up to now is       26.1 secs

     total energy              =    -128.97767790 Ry
     estimated scf accuracy    <       0.00001576 Ry

     iteration # 11     ecut=   120.00 Ry     beta= 0.30
     Davidson diagonalization with overlap

---- Real-time Memory Report at c_bands before calling an iterative solver
           168 MiB given to the printing process from OS
            62 MiB allocation reported by mallinfo(arena+hblkhd)
          1276 MiB available memory on the node where the printing process lives
------------------
     ethr =  2.84E-08,  avg # of iterations =  3.6

     total cpu time spent up to now is       28.0 secs

     total energy              =    -128.97766041 Ry
     estimated scf accuracy    <       0.00003707 Ry

     iteration # 12     ecut=   120.00 Ry     beta= 0.30
     Davidson diagonalization with overlap

---- Real-time Memory Report at c_bands before calling an iterative solver
           168 MiB given to the printing process from OS
            62 MiB allocation reported by mallinfo(arena+hblkhd)
          1276 MiB available memory on the node where the printing process lives
------------------
     ethr =  2.84E-08,  avg # of iterations =  5.1

     total cpu time spent up to now is       30.4 secs

     total energy              =    -128.97766115 Ry
     estimated scf accuracy    <       0.00000391 Ry

     iteration # 13     ecut=   120.00 Ry     beta= 0.30
     Davidson diagonalization with overlap

---- Real-time Memory Report at c_bands before calling an iterative solver
           168 MiB given to the printing process from OS
            62 MiB allocation reported by mallinfo(arena+hblkhd)
          1282 MiB available memory on the node where the printing process lives
------------------
     ethr =  2.17E-08,  avg # of iterations =  5.7

     total cpu time spent up to now is       33.1 secs

     total energy              =    -128.97766383 Ry
     estimated scf accuracy    <       0.00000093 Ry

     iteration # 14     ecut=   120.00 Ry     beta= 0.30
     Davidson diagonalization with overlap

---- Real-time Memory Report at c_bands before calling an iterative solver
           168 MiB given to the printing process from OS
            62 MiB allocation reported by mallinfo(arena+hblkhd)
          1281 MiB available memory on the node where the printing process lives
------------------
     ethr =  5.15E-09,  avg # of iterations =  4.0

     total cpu time spent up to now is       34.7 secs

     total energy              =    -128.97766411 Ry
     estimated scf accuracy    <       0.00000116 Ry

     iteration # 15     ecut=   120.00 Ry     beta= 0.30
     Davidson diagonalization with overlap

---- Real-time Memory Report at c_bands before calling an iterative solver
           168 MiB given to the printing process from OS
            62 MiB allocation reported by mallinfo(arena+hblkhd)
          1297 MiB available memory on the node where the printing process lives
------------------
     ethr =  5.15E-09,  avg # of iterations =  1.0

     total cpu time spent up to now is       36.2 secs

     total energy              =    -128.97766346 Ry
     estimated scf accuracy    <       0.00000130 Ry

     iteration # 16     ecut=   120.00 Ry     beta= 0.30
     Davidson diagonalization with overlap

---- Real-time Memory Report at c_bands before calling an iterative solver
           168 MiB given to the printing process from OS
            62 MiB allocation reported by mallinfo(arena+hblkhd)
          1297 MiB available memory on the node where the printing process lives
------------------
     ethr =  5.15E-09,  avg # of iterations =  2.0

     total cpu time spent up to now is       37.7 secs

     total energy              =    -128.97766341 Ry
     estimated scf accuracy    <       0.00000025 Ry

     iteration # 17     ecut=   120.00 Ry     beta= 0.30
     Davidson diagonalization with overlap

---- Real-time Memory Report at c_bands before calling an iterative solver
           168 MiB given to the printing process from OS
            62 MiB allocation reported by mallinfo(arena+hblkhd)
          1274 MiB available memory on the node where the printing process lives
------------------
     ethr =  1.39E-09,  avg # of iterations =  6.9

     total cpu time spent up to now is       40.1 secs

     total energy              =    -128.97766366 Ry
     estimated scf accuracy    <       0.00000016 Ry

     iteration # 18     ecut=   120.00 Ry     beta= 0.30
     Davidson diagonalization with overlap

---- Real-time Memory Report at c_bands before calling an iterative solver
           168 MiB given to the printing process from OS
            62 MiB allocation reported by mallinfo(arena+hblkhd)
          1294 MiB available memory on the node where the printing process lives
------------------
     ethr =  9.14E-10,  avg # of iterations =  1.4

     total cpu time spent up to now is       41.5 secs

     total energy              =    -128.97766365 Ry
     estimated scf accuracy    <       0.00000014 Ry

     iteration # 19     ecut=   120.00 Ry     beta= 0.30
     Davidson diagonalization with overlap

---- Real-time Memory Report at c_bands before calling an iterative solver
           168 MiB given to the printing process from OS
            62 MiB allocation reported by mallinfo(arena+hblkhd)
          1296 MiB available memory on the node where the printing process lives
------------------
     ethr =  7.68E-10,  avg # of iterations =  1.1

     total cpu time spent up to now is       42.9 secs

     total energy              =    -128.97766365 Ry
     estimated scf accuracy    <       0.00000011 Ry

     iteration # 20     ecut=   120.00 Ry     beta= 0.30
     Davidson diagonalization with overlap

---- Real-time Memory Report at c_bands before calling an iterative solver
           168 MiB given to the printing process from OS
            62 MiB allocation reported by mallinfo(arena+hblkhd)
          1290 MiB available memory on the node where the printing process lives
------------------
     ethr =  5.88E-10,  avg # of iterations =  1.0

     total cpu time spent up to now is       44.4 secs

     total energy              =    -128.97766371 Ry
     estimated scf accuracy    <       0.00000011 Ry

     iteration # 21     ecut=   120.00 Ry     beta= 0.30
     Davidson diagonalization with overlap

---- Real-time Memory Report at c_bands before calling an iterative solver
           168 MiB given to the printing process from OS
            62 MiB allocation reported by mallinfo(arena+hblkhd)
          1284 MiB available memory on the node where the printing process lives
------------------
     ethr =  5.88E-10,  avg # of iterations =  2.0

     total cpu time spent up to now is       46.0 secs

     total energy              =    -128.97766364 Ry
     estimated scf accuracy    <       0.00000027 Ry

     iteration # 22     ecut=   120.00 Ry     beta= 0.30
     Davidson diagonalization with overlap

---- Real-time Memory Report at c_bands before calling an iterative solver
           168 MiB given to the printing process from OS
            62 MiB allocation reported by mallinfo(arena+hblkhd)
          1303 MiB available memory on the node where the printing process lives
------------------
     ethr =  5.88E-10,  avg # of iterations =  1.0

     total cpu time spent up to now is       47.3 secs

     total energy              =    -128.97766363 Ry
     estimated scf accuracy    <       0.00000009 Ry

     iteration # 23     ecut=   120.00 Ry     beta= 0.30
     Davidson diagonalization with overlap

---- Real-time Memory Report at c_bands before calling an iterative solver
           168 MiB given to the printing process from OS
            62 MiB allocation reported by mallinfo(arena+hblkhd)
          1302 MiB available memory on the node where the printing process lives
------------------
     ethr =  5.14E-10,  avg # of iterations =  2.1

     total cpu time spent up to now is       48.9 secs

     total energy              =    -128.97766361 Ry
     estimated scf accuracy    <       0.00000005 Ry

     iteration # 24     ecut=   120.00 Ry     beta= 0.30
     Davidson diagonalization with overlap

---- Real-time Memory Report at c_bands before calling an iterative solver
           168 MiB given to the printing process from OS
            62 MiB allocation reported by mallinfo(arena+hblkhd)
          1295 MiB available memory on the node where the printing process lives
------------------
     ethr =  3.05E-10,  avg # of iterations =  2.3

     total cpu time spent up to now is       50.5 secs

     total energy              =    -128.97766361 Ry
     estimated scf accuracy    <       0.00000002 Ry

     iteration # 25     ecut=   120.00 Ry     beta= 0.30
     Davidson diagonalization with overlap

---- Real-time Memory Report at c_bands before calling an iterative solver
           168 MiB given to the printing process from OS
            62 MiB allocation reported by mallinfo(arena+hblkhd)
          1289 MiB available memory on the node where the printing process lives
------------------
     ethr =  1.36E-10,  avg # of iterations =  2.9

     total cpu time spent up to now is       52.2 secs

     total energy              =    -128.97766362 Ry
     estimated scf accuracy    <       0.00000001 Ry

     iteration # 26     ecut=   120.00 Ry     beta= 0.30
     Davidson diagonalization with overlap

---- Real-time Memory Report at c_bands before calling an iterative solver
           168 MiB given to the printing process from OS
            62 MiB allocation reported by mallinfo(arena+hblkhd)
          1277 MiB available memory on the node where the printing process lives
------------------
     ethr =  6.58E-11,  avg # of iterations =  1.5

     total cpu time spent up to now is       53.6 secs

     total energy              =    -128.97766362 Ry
     estimated scf accuracy    <          5.7E-09 Ry

     iteration # 27     ecut=   120.00 Ry     beta= 0.30
     Davidson diagonalization with overlap

---- Real-time Memory Report at c_bands before calling an iterative solver
           168 MiB given to the printing process from OS
            62 MiB allocation reported by mallinfo(arena+hblkhd)
          1363 MiB available memory on the node where the printing process lives
------------------
     ethr =  3.16E-11,  avg # of iterations =  1.4

     total cpu time spent up to now is       55.0 secs

     total energy              =    -128.97766362 Ry
     estimated scf accuracy    <          3.8E-09 Ry

     iteration # 28     ecut=   120.00 Ry     beta= 0.30
     Davidson diagonalization with overlap

---- Real-time Memory Report at c_bands before calling an iterative solver
           168 MiB given to the printing process from OS
            62 MiB allocation reported by mallinfo(arena+hblkhd)
          1287 MiB available memory on the node where the printing process lives
------------------
     ethr =  2.10E-11,  avg # of iterations =  3.7

     total cpu time spent up to now is       56.7 secs

     total energy              =    -128.97766362 Ry
     estimated scf accuracy    <          8.6E-10 Ry

     iteration # 29     ecut=   120.00 Ry     beta= 0.30
     Davidson diagonalization with overlap

---- Real-time Memory Report at c_bands before calling an iterative solver
           168 MiB given to the printing process from OS
            62 MiB allocation reported by mallinfo(arena+hblkhd)
          1293 MiB available memory on the node where the printing process lives
------------------
     ethr =  4.79E-12,  avg # of iterations =  5.3

     total cpu time spent up to now is       58.8 secs

     total energy              =    -128.97766362 Ry
     estimated scf accuracy    <          6.1E-10 Ry

     iteration # 30     ecut=   120.00 Ry     beta= 0.30
     Davidson diagonalization with overlap

---- Real-time Memory Report at c_bands before calling an iterative solver
           168 MiB given to the printing process from OS
            62 MiB allocation reported by mallinfo(arena+hblkhd)
          1275 MiB available memory on the node where the printing process lives
------------------
     ethr =  3.39E-12,  avg # of iterations =  2.0

     total cpu time spent up to now is       60.3 secs

     total energy              =    -128.97766362 Ry
     estimated scf accuracy    <          2.2E-10 Ry

     iteration # 31     ecut=   120.00 Ry     beta= 0.30
     Davidson diagonalization with overlap

---- Real-time Memory Report at c_bands before calling an iterative solver
           168 MiB given to the printing process from OS
            62 MiB allocation reported by mallinfo(arena+hblkhd)
          1290 MiB available memory on the node where the printing process lives
------------------
     ethr =  1.20E-12,  avg # of iterations =  3.6

     total cpu time spent up to now is       62.2 secs

     total energy              =    -128.97766362 Ry
     estimated scf accuracy    <          4.9E-10 Ry

     iteration # 32     ecut=   120.00 Ry     beta= 0.30
     Davidson diagonalization with overlap

---- Real-time Memory Report at c_bands before calling an iterative solver
           168 MiB given to the printing process from OS
            62 MiB allocation reported by mallinfo(arena+hblkhd)
          1284 MiB available memory on the node where the printing process lives
------------------
     ethr =  1.20E-12,  avg # of iterations = 11.4

     total cpu time spent up to now is       65.9 secs

     total energy              =    -128.97766362 Ry
     estimated scf accuracy    <       0.00000002 Ry

     iteration # 33     ecut=   120.00 Ry     beta= 0.30
     Davidson diagonalization with overlap

---- Real-time Memory Report at c_bands before calling an iterative solver
           168 MiB given to the printing process from OS
            62 MiB allocation reported by mallinfo(arena+hblkhd)
          1274 MiB available memory on the node where the printing process lives
------------------
     ethr =  1.20E-12,  avg # of iterations =  7.1

     total cpu time spent up to now is       68.5 secs

     total energy              =    -128.97766362 Ry
     estimated scf accuracy    <          4.9E-09 Ry

     iteration # 34     ecut=   120.00 Ry     beta= 0.30
     Davidson diagonalization with overlap

---- Real-time Memory Report at c_bands before calling an iterative solver
           168 MiB given to the printing process from OS
            62 MiB allocation reported by mallinfo(arena+hblkhd)
          1288 MiB available memory on the node where the printing process lives
------------------
     ethr =  1.20E-12,  avg # of iterations =  7.9

     total cpu time spent up to now is       71.8 secs

     End of self-consistent calculation

          k = 0.0000 0.0000 0.0000 ( 10177 PWs)   bands (ev):

    -6.0543  -3.1527  -3.1527  -3.1527  -2.8922  -2.8922   5.1232   5.1232
     5.1232

     occupation numbers 
     1.0000   1.0000   1.0000   1.0000   1.0000   1.0000   1.0000   1.0000
     1.0000

          k = 0.0707 0.0707-0.0707 ( 10168 PWs)   bands (ev):

    -6.0163  -3.1454  -3.1454  -3.1240  -2.8927  -2.8927   4.2050   5.0320
     5.0320

     occupation numbers 
     1.0000   1.0000   1.0000   1.0000   1.0000   1.0000   1.0000   1.0000
     1.0000

          k = 0.1414 0.1414-0.1414 ( 10141 PWs)   bands (ev):

    -5.9163  -3.1273  -3.1273  -3.0299  -2.8930  -2.8930   2.9784   4.8153
     4.8153

     occupation numbers 
     1.0000   1.0000   1.0000   1.0000   1.0000   1.0000   1.0000   1.0000
     1.0000

          k = 0.2121 0.2121-0.2121 ( 10180 PWs)   bands (ev):

    -5.7927  -3.1073  -3.1073  -2.8903  -2.8903  -2.8602   1.8592   4.5802
     4.5802

     occupation numbers 
     1.0000   1.0000   1.0000   1.0000   1.0000   1.0000   1.0000   1.0000
     1.0000

          k = 0.2828 0.2828-0.2828 ( 10197 PWs)   bands (ev):

    -5.6941  -3.0938  -3.0938  -2.8850  -2.8850  -2.6502   1.0231   4.4092
     4.4092

     occupation numbers 
     1.0000   1.0000   1.0000   1.0000   1.0000   1.0000   1.0000   1.0000
     1.0000

          k =-0.3536-0.3536 0.3536 ( 10200 PWs)   bands (ev):

    -5.6570  -3.0894  -3.0894  -2.8822  -2.8822  -2.5408   0.6956   4.3475
     4.3475

     occupation numbers 
     1.0000   1.0000   1.0000   1.0000   1.0000   1.0000   1.0000   1.0000
     1.0000

          k = 0.1414 0.0000 0.0000 ( 10161 PWs)   bands (ev):

    -6.0037  -3.1385  -3.1385  -3.1235  -2.8967  -2.8891   4.1675   4.8705
     4.8705

     occupation numbers 
     1.0000   1.0000   1.0000   1.0000   1.0000   1.0000   1.0000   1.0000
     1.0000

          k = 0.2121 0.0707-0.0707 ( 10180 PWs)   bands (ev):

    -5.9244  -3.1254  -3.1200  -3.0550  -2.8987  -2.8864   3.2488   4.6142
     4.6755

     occupation numbers 
     1.0000   1.0000   1.0000   1.0000   1.0000   1.0000   1.0000   1.0000
     1.0000

          k = 0.2828 0.1414-0.1414 ( 10192 PWs)   bands (ev):

    -5.8090  -3.1081  -3.0990  -2.9338  -2.8833  -2.8728   2.1798   4.3765
     4.4055

     occupation numbers 
     1.0000   1.0000   1.0000   1.0000   1.0000   1.0000   1.0000   1.0000
     1.0000

          k = 0.3536 0.2121-0.2121 ( 10195 PWs)   bands (ev):

    -5.7026  -3.0927  -3.0842  -2.9032  -2.8803  -2.6911   1.2797   4.1275
     4.2330

     occupation numbers 
     1.0000   1.0000   1.0000   1.0000   1.0000   1.0000   1.0000   1.0000
     1.0000

          k =-0.2828-0.4243 0.4243 ( 10176 PWs)   bands (ev):

    -5.6457  -3.0844  -3.0793  -2.8919  -2.8811  -2.5320   0.7809   3.9308
     4.2190

     occupation numbers 
     1.0000   1.0000   1.0000   1.0000   1.0000   1.0000   1.0000   1.0000
     1.0000

          k =-0.2121-0.3536 0.3536 ( 10191 PWs)   bands (ev):

    -5.6580  -3.0839  -3.0837  -2.8878  -2.8869  -2.5688   0.8893   3.8648
     4.3364

     occupation numbers 
     1.0000   1.0000   1.0000   1.0000   1.0000   1.0000   1.0000   1.0000
     1.0000

          k =-0.1414-0.2828 0.2828 ( 10197 PWs)   bands (ev):

    -5.7352  -3.0978  -3.0909  -2.8960  -2.8913  -2.7587   1.5498   3.9518
     4.5556

     occupation numbers 
     1.0000   1.0000   1.0000   1.0000   1.0000   1.0000   1.0000   1.0000
     1.0000

          k =-0.0707-0.2121 0.2121 ( 10181 PWs)   bands (ev):

    -5.8499  -3.1183  -3.1067  -2.9640  -2.8994  -2.8803   2.5167   4.1976
     4.8123

     occupation numbers 
     1.0000   1.0000   1.0000   1.0000   1.0000   1.0000   1.0000   1.0000
     1.0000

          k = 0.0000-0.1414 0.1414 ( 10145 PWs)   bands (ev):

    -5.9576  -3.1373  -3.1277  -3.0777  -2.8971  -2.8890   3.5221   4.6027
     5.0062

     occupation numbers 
     1.0000   1.0000   1.0000   1.0000   1.0000   1.0000   1.0000   1.0000
     1.0000

          k = 0.2828 0.0000 0.0000 ( 10197 PWs)   bands (ev):

    -5.8710  -3.1000  -3.1000  -3.0360  -2.8968  -2.8809   3.0004   4.3223
     4.3223

     occupation numbers 
     1.0000   1.0000   1.0000   1.0000   1.0000   1.0000   1.0000   1.0000
     1.0000

          k = 0.3536 0.0707-0.0707 ( 10207 PWs)   bands (ev):

    -5.7769  -3.0834  -3.0764  -2.9696  -2.8766  -2.8486   2.2799   4.0021
     4.0629

     occupation numbers 
     1.0000   1.0000   1.0000   1.0000   1.0000   1.0000   1.0000   1.0000
     1.0000

          k = 0.4243 0.1414-0.1414 ( 10199 PWs)   bands (ev):

    -5.6794  -3.0732  -3.0591  -2.9367  -2.8744  -2.6852   1.5088   3.6092
     3.9149

     occupation numbers 
     1.0000   1.0000   1.0000   1.0000   1.0000   1.0000   1.0000   1.0000
     1.0000

          k =-0.2121-0.4950 0.4950 ( 10212 PWs)   bands (ev):

    -5.6160  -3.0682  -3.0529  -2.9172  -2.8776  -2.5058   0.9721   3.2673
     3.9146

     occupation numbers 
     1.0000   1.0000   1.0000   1.0000   1.0000   1.0000   1.0000   1.0000
     1.0000

          k =-0.1414-0.4243 0.4243 ( 10205 PWs)   bands (ev):

    -5.6086  -3.0679  -3.0582  -2.9021  -2.8872  -2.4698   0.8984   3.0790
     4.0616

     occupation numbers 
     1.0000   1.0000   1.0000   1.0000   1.0000   1.0000   1.0000   1.0000
     1.0000

          k =-0.0707-0.3536 0.3536 ( 10196 PWs)   bands (ev):

    -5.6596  -3.0742  -3.0727  -2.8977  -2.8966  -2.6114   1.3092   3.1199
     4.3188

     occupation numbers 
     1.0000   1.0000   1.0000   1.0000   1.0000   1.0000   1.0000   1.0000
     1.0000

          k = 0.0000-0.2828 0.2828 ( 10157 PWs)   bands (ev):

    -5.7514  -3.0974  -3.0853  -2.9048  -2.9021  -2.7947   1.9416   3.4863
     4.6088

     occupation numbers 
     1.0000   1.0000   1.0000   1.0000   1.0000   1.0000   1.0000   1.0000
     1.0000

          k = 0.4243 0.0000 0.0000 ( 10213 PWs)   bands (ev):

    -5.7092  -3.0493  -3.0493  -2.9813  -2.8709  -2.7779   1.9502   3.7747
     3.7747

     occupation numbers 
     1.0000   1.0000   1.0000   1.0000   1.0000   1.0000   1.0000   1.0000
     1.0000

          k = 0.4950 0.0707-0.0707 ( 10197 PWs)   bands (ev):

    -5.6333  -3.0377  -3.0288  -2.9696  -2.8679  -2.6341   1.4449   3.4225
     3.6009

     occupation numbers 
     1.0000   1.0000   1.0000   1.0000   1.0000   1.0000   1.0000   1.0000
     1.0000

          k =-0.1414-0.5657 0.5657 ( 10221 PWs)   bands (ev):

    -5.5786  -3.0413  -3.0211  -2.9480  -2.8712  -2.4653   1.0521   2.9502
     3.5847

     occupation numbers 
     1.0000   1.0000   1.0000   1.0000   1.0000   1.0000   1.0000   1.0000
     1.0000

          k =-0.0707-0.4950 0.4950 ( 10211 PWs)   bands (ev):

    -5.5644  -3.0491  -3.0275  -2.9251  -2.8815  -2.3859   0.9388   2.6075
     3.7299

     occupation numbers 
     1.0000   1.0000   1.0000   1.0000   1.0000   1.0000   1.0000   1.0000
     1.0000

          k =-0.0000-0.4243 0.4243 ( 10221 PWs)   bands (ev):

    -5.5949  -3.0590  -3.0470  -2.9072  -2.8926  -2.4574   1.0910   2.6155
     4.0011

     occupation numbers 
     1.0000   1.0000   1.0000   1.0000   1.0000   1.0000   1.0000   1.0000
     1.0000

          k = 0.5657 0.0000 0.0000 ( 10218 PWs)   bands (ev):

    -5.5827  -3.0056  -3.0056  -2.9904  -2.8627  -2.5364   1.1420   3.3930
     3.3930

     occupation numbers 
     1.0000   1.0000   1.0000   1.0000   1.0000   1.0000   1.0000   1.0000
     1.0000

          k =-0.0707-0.6364 0.6364 ( 10234 PWs)   bands (ev):

    -5.5478  -3.0132  -2.9969  -2.9738  -2.8634  -2.4227   0.9104   3.1006
     3.3443

     occupation numbers 
     1.0000   1.0000   1.0000   1.0000   1.0000   1.0000   1.0000   1.0000
     1.0000

          k = 0.0000-0.5657 0.5657 ( 10215 PWs)   bands (ev):

    -5.5413  -3.0299  -3.0045  -2.9504  -2.8716  -2.3608   0.8836   2.6959
     3.4663

     occupation numbers 
     1.0000   1.0000   1.0000   1.0000   1.0000   1.0000   1.0000   1.0000
     1.0000

          k =-0.7071 0.0000 0.0000 ( 10190 PWs)   bands (ev):

    -5.5360  -2.9968  -2.9882  -2.9882  -2.8596  -2.4031   0.8141   3.2574
     3.2574

     occupation numbers 
     1.0000   1.0000   1.0000   1.0000   1.0000   1.0000   1.0000   1.0000
     1.0000

          k = 0.2828 0.1414 0.0000 ( 10192 PWs)   bands (ev):

    -5.8376  -3.1087  -3.0970  -2.9788  -2.8929  -2.8773   2.5997   4.0424
     4.5683

     occupation numbers 
     1.0000   1.0000   1.0000   1.0000   1.0000   1.0000   1.0000   1.0000
     1.0000

          k = 0.3536 0.2121-0.0707 ( 10186 PWs)   bands (ev):

    -5.7314  -3.0898  -3.0781  -2.9241  -2.8832  -2.7689   1.7932   3.6187
     4.3417

     occupation numbers 
     1.0000   1.0000   1.0000   1.0000   1.0000   1.0000   1.0000   1.0000
     1.0000

          k =-0.2828-0.4243 0.5657 ( 10192 PWs)   bands (ev):

    -5.6471  -3.0762  -3.0670  -2.9087  -2.8820  -2.5766   1.1077   3.4058
     4.1177

     occupation numbers 
     1.0000   1.0000   1.0000   1.0000   1.0000   1.0000   1.0000   1.0000
     1.0000

          k =-0.2121-0.3536 0.4950 ( 10210 PWs)   bands (ev):

    -5.6155  -3.0722  -3.0630  -2.9003  -2.8843  -2.4774   0.8297   3.3448
     4.0258

     occupation numbers 
     1.0000   1.0000   1.0000   1.0000   1.0000   1.0000   1.0000   1.0000
     1.0000

          k = 0.4243 0.1414-0.0000 ( 10195 PWs)   bands (ev):

    -5.6921  -3.0636  -3.0549  -2.9540  -2.8738  -2.7293   1.7582   3.5094
     3.9031

     occupation numbers 
     1.0000   1.0000   1.0000   1.0000   1.0000   1.0000   1.0000   1.0000
     1.0000

          k =-0.2121-0.4950 0.6364 ( 10199 PWs)   bands (ev):

    -5.6167  -3.0538  -3.0419  -2.9375  -2.8752  -2.5510   1.2426   3.1118
     3.7037

     occupation numbers 
     1.0000   1.0000   1.0000   1.0000   1.0000   1.0000   1.0000   1.0000
     1.0000

          k =-0.1414-0.4243 0.5657 ( 10200 PWs)   bands (ev):

    -5.5786  -3.0535  -3.0374  -2.9198  -2.8827  -2.4191   0.9471   2.8409
     3.6607

     occupation numbers 
     1.0000   1.0000   1.0000   1.0000   1.0000   1.0000   1.0000   1.0000
     1.0000

          k =-0.0707-0.3536 0.4950 ( 10204 PWs)   bands (ev):

    -5.5904  -3.0571  -3.0451  -2.9117  -2.8884  -2.4467   1.0277   2.7632
     3.8152

     occupation numbers 
     1.0000   1.0000   1.0000   1.0000   1.0000   1.0000   1.0000   1.0000
     1.0000

          k = 0.0000-0.2828 0.4243 ( 10208 PWs)   bands (ev):

    -5.6479  -3.0679  -3.0610  -2.9182  -2.8851  -2.6028   1.3867   3.0023
     4.0895

     occupation numbers 
     1.0000   1.0000   1.0000   1.0000   1.0000   1.0000   1.0000   1.0000
     1.0000

          k =-0.1414-0.5657 0.7071 ( 10195 PWs)   bands (ev):

    -5.5785  -3.0238  -3.0195  -2.9622  -2.8677  -2.4943   1.1131   3.1696
     3.3692

     occupation numbers 
     1.0000   1.0000   1.0000   1.0000   1.0000   1.0000   1.0000   1.0000
     1.0000

          k =-0.0707-0.4950 0.6364 ( 10207 PWs)   bands (ev):

    -5.5485  -3.0305  -3.0157  -2.9429  -2.8750  -2.3759   0.9369   2.7910
     3.3168

     occupation numbers 
     1.0000   1.0000   1.0000   1.0000   1.0000   1.0000   1.0000   1.0000
     1.0000

          k =-0.0000-0.4243 0.5657 ( 10193 PWs)   bands (ev):

    -5.5532  -3.0427  -3.0242  -2.9232  -2.8858  -2.3586   0.9541   2.5509
     3.5018

     occupation numbers 
     1.0000   1.0000   1.0000   1.0000   1.0000   1.0000   1.0000   1.0000
     1.0000

          k =-0.7071 0.1414 0.0000 ( 10224 PWs)   bands (ev):

    -5.5366  -3.0131  -3.0035  -2.9619  -2.8664  -2.3737   0.8525   3.0914
     3.1327

     occupation numbers 
     1.0000   1.0000   1.0000   1.0000   1.0000   1.0000   1.0000   1.0000
     1.0000

          k =-0.1414-0.4243 0.7071 ( 10230 PWs)   bands (ev):

    -5.5674  -3.0399  -3.0322  -2.9278  -2.8827  -2.4111   1.0379   2.7671
     3.3946

     occupation numbers 
     1.0000   1.0000   1.0000   1.0000   1.0000   1.0000   1.0000   1.0000
     1.0000

          k =-0.0707-0.3536 0.6364 ( 10214 PWs)   bands (ev):

    -5.5490  -3.0381  -3.0260  -2.9197  -2.8894  -2.3479   0.9526   2.6672
     3.2409

     occupation numbers 
     1.0000   1.0000   1.0000   1.0000   1.0000   1.0000   1.0000   1.0000
     1.0000

          k =-0.7071 0.2828 0.0000 ( 10200 PWs)   bands (ev):

    -5.5375  -3.0257  -3.0225  -2.9292  -2.8844  -2.3281   0.9228   2.8392
     2.9511

     occupation numbers 
     1.0000   1.0000   1.0000   1.0000   1.0000   1.0000   1.0000   1.0000
     1.0000

     highest occupied level (ev):     5.1232

!    total energy              =    -128.97766362 Ry
     estimated scf accuracy    <          4.4E-11 Ry

     The total energy is the sum of the following terms:
     one-electron contribution =     -48.73626546 Ry
     hartree contribution      =      36.05961575 Ry
     xc contribution           =     -39.49978697 Ry
     ewald contribution        =     -76.80122694 Ry

     convergence has been achieved in  34 iterations

     Forces acting on atoms (cartesian axes, Ry/au):

     atom    1 type  1   force =     0.00000000   -0.00000000   -0.00000000
     atom    2 type  2   force =    -0.00000000    0.00000000    0.00000000
     The non-local contrib.  to forces
     atom    1 type  1   force =     0.00000000    0.00000000    0.00000000
     atom    2 type  2   force =     0.00000000   -0.00000000    0.00000000
     The ionic contribution  to forces
     atom    1 type  1   force =     0.00000000   -0.00000000   -0.00000000
     atom    2 type  2   force =    -0.00000000    0.00000000    0.00000000
     The local contribution  to forces
     atom    1 type  1   force =     0.00000000    0.00000000   -0.00000000
     atom    2 type  2   force =     0.00000000    0.00000000    0.00000000
     The core correction contribution to forces
     atom    1 type  1   force =     0.00000000    0.00000000    0.00000000
     atom    2 type  2   force =     0.00000000   -0.00000000   -0.00000000
     The Hubbard contrib.    to forces
     atom    1 type  1   force =     0.00000000    0.00000000    0.00000000
     atom    2 type  2   force =     0.00000000    0.00000000    0.00000000
     The SCF correction term to forces
     atom    1 type  1   force =     0.00000000    0.00000000   -0.00000000
     atom    2 type  2   force =     0.00000000    0.00000000   -0.00000000

     Total force =     0.000000     Total SCF correction =     0.000000


     Computing stress (Cartesian axis) and pressure

          total   stress  (Ry/bohr**3)                   (kbar)     P=       26.68
   0.00018138   0.00000000  -0.00000000           26.68        0.00       -0.00
   0.00000000   0.00018138   0.00000000            0.00       26.68        0.00
  -0.00000000   0.00000000   0.00018138           -0.00        0.00       26.68

     kinetic stress (kbar)   9591.02      0.00      0.00
                                0.00   9591.02      0.00
                                0.00      0.00   9591.02

     local   stress (kbar)    726.91     -0.00     -0.00
                               -0.00    726.91      0.00
                               -0.00      0.00    726.91

     nonloc. stress (kbar)  -3596.54      0.00      0.00
                                0.00  -3596.54      0.00
                                0.00      0.00  -3596.54

     hartree stress (kbar)   3848.25     -0.00      0.00
                               -0.00   3848.25     -0.00
                                0.00     -0.00   3848.25

     exc-cor stress (kbar)   4484.56     -0.00      0.00
                               -0.00   4484.56     -0.00
                                0.00     -0.00   4484.56

     corecor stress (kbar)  -6831.35      0.00     -0.00
                                0.00  -6831.35      0.00
                               -0.00      0.00  -6831.35

     ewald   stress (kbar)  -8196.17      0.00     -0.00
                                0.00  -8196.17      0.00
                               -0.00      0.00  -8196.17

     hubbard stress (kbar)      0.00      0.00      0.00
                                0.00      0.00      0.00
                                0.00      0.00      0.00

     DFT-D   stress (kbar)      0.00      0.00      0.00
                                0.00      0.00      0.00
                                0.00      0.00      0.00

     XDM     stress (kbar)      0.00      0.00      0.00
                                0.00      0.00      0.00
                                0.00      0.00      0.00

     dft-nl  stress (kbar)      0.00      0.00      0.00
                                0.00      0.00      0.00
                                0.00      0.00      0.00

     TS-vdW  stress (kbar)      0.00      0.00      0.00
                                0.00      0.00      0.00
                                0.00      0.00      0.00

     MDB     stress (kbar)      0.00      0.00      0.00
                                0.00      0.00      0.00
                                0.00      0.00      0.00

     3D-RISM stress (kbar)      0.00      0.00      0.00
                                0.00      0.00      0.00
                                0.00      0.00      0.00


     BFGS Geometry Optimization
     Energy error            =      1.1E-03 Ry
     Gradient error          =      1.2E-32 Ry/Bohr
     Cell gradient error     =      2.7E+01 kbar

     number of scf cycles    =   1
     number of bfgs steps    =   0

     enthalpy           new  =    -128.9776636166 Ry

     new trust radius        =       0.0194396762 bohr
     new conv_thr            =            1.0E-10 Ry

     new unit-cell volume =    465.75576 a.u.^3 (    69.01788 Ang^3 )
     density =      5.77463 g/cm^3

CELL_PARAMETERS (angstrom)
   0.000000000   3.255696239   3.255696239
   3.255696239   0.000000000   3.255696239
   3.255696239   3.255696239   0.000000000

ATOMIC_POSITIONS (crystal)
Cd              -0.0000000000        0.0000000000        0.0000000000
Te               0.2500000000        0.2500000000        0.2500000000



     Writing config-only to output data dir /home/User/opencode_workspace/DFT/calculations/cdte/relax_nosoc/out/pwscf.save/ :
     XML data file
     NEW-OLD atomic charge density approx. for the potential
     New effective cutoffs (rho, wfc):  713.40  118.91

     total cpu time spent up to now is       74.3 secs

     per-process dynamical memory:    54.6 Mb

     Self-consistent Calculation

     iteration #  1     ecut=   120.00 Ry     beta= 0.30
     Davidson diagonalization with overlap

---- Real-time Memory Report at c_bands before calling an iterative solver
           171 MiB given to the printing process from OS
            53 MiB allocation reported by mallinfo(arena+hblkhd)
          1343 MiB available memory on the node where the printing process lives
------------------
     ethr =  1.00E-06,  avg # of iterations =  7.1

     Threshold (ethr) on eigenvalues was too large:
     Diagonalizing with lowered threshold

     Davidson diagonalization with overlap

---- Real-time Memory Report at c_bands before calling an iterative solver
           171 MiB given to the printing process from OS
            53 MiB allocation reported by mallinfo(arena+hblkhd)
          1329 MiB available memory on the node where the printing process lives
------------------
     ethr =  3.56E-08,  avg # of iterations =  6.0

     total cpu time spent up to now is       79.1 secs

     total energy              =    -128.97866676 Ry
     estimated scf accuracy    <       0.00000704 Ry

     iteration #  2     ecut=   120.00 Ry     beta= 0.30
     Davidson diagonalization with overlap

---- Real-time Memory Report at c_bands before calling an iterative solver
           171 MiB given to the printing process from OS
            58 MiB allocation reported by mallinfo(arena+hblkhd)
          1317 MiB available memory on the node where the printing process lives
------------------
     ethr =  3.91E-08,  avg # of iterations =  1.1

     total cpu time spent up to now is       80.5 secs

     total energy              =    -128.97866678 Ry
     estimated scf accuracy    <       0.00000254 Ry

     iteration #  3     ecut=   120.00 Ry     beta= 0.30
     Davidson diagonalization with overlap

---- Real-time Memory Report at c_bands before calling an iterative solver
           171 MiB given to the printing process from OS
            59 MiB allocation reported by mallinfo(arena+hblkhd)
          1302 MiB available memory on the node where the printing process lives
------------------
     ethr =  1.41E-08,  avg # of iterations =  2.3

     total cpu time spent up to now is       82.1 secs

     total energy              =    -128.97866755 Ry
     estimated scf accuracy    <       0.00000022 Ry

     iteration #  4     ecut=   120.00 Ry     beta= 0.30
     Davidson diagonalization with overlap

---- Real-time Memory Report at c_bands before calling an iterative solver
           171 MiB given to the printing process from OS
            59 MiB allocation reported by mallinfo(arena+hblkhd)
          1302 MiB available memory on the node where the printing process lives
------------------
     ethr =  1.24E-09,  avg # of iterations =  5.2

     total cpu time spent up to now is       84.0 secs

     total energy              =    -128.97866781 Ry
     estimated scf accuracy    <       0.00000004 Ry

     iteration #  5     ecut=   120.00 Ry     beta= 0.30
     Davidson diagonalization with overlap

---- Real-time Memory Report at c_bands before calling an iterative solver
           171 MiB given to the printing process from OS
            60 MiB allocation reported by mallinfo(arena+hblkhd)
          1293 MiB available memory on the node where the printing process lives
------------------
     ethr =  2.18E-10,  avg # of iterations =  4.4

     total cpu time spent up to now is       85.8 secs

     total energy              =    -128.97866790 Ry
     estimated scf accuracy    <       0.00000001 Ry

     iteration #  6     ecut=   120.00 Ry     beta= 0.30
     Davidson diagonalization with overlap

---- Real-time Memory Report at c_bands before calling an iterative solver
           171 MiB given to the printing process from OS
            60 MiB allocation reported by mallinfo(arena+hblkhd)
          1287 MiB available memory on the node where the printing process lives
------------------
     ethr =  5.89E-11,  avg # of iterations =  4.2

     total cpu time spent up to now is       88.0 secs

     total energy              =    -128.97866794 Ry
     estimated scf accuracy    <       0.00000001 Ry

     iteration #  7     ecut=   120.00 Ry     beta= 0.30
     Davidson diagonalization with overlap

---- Real-time Memory Report at c_bands before calling an iterative solver
           171 MiB given to the printing process from OS
            60 MiB allocation reported by mallinfo(arena+hblkhd)
          1286 MiB available memory on the node where the printing process lives
------------------
     ethr =  5.89E-11,  avg # of iterations =  1.3

     total cpu time spent up to now is       89.8 secs

     total energy              =    -128.97866796 Ry
     estimated scf accuracy    <          4.2E-09 Ry

     iteration #  8     ecut=   120.00 Ry     beta= 0.30
     Davidson diagonalization with overlap

---- Real-time Memory Report at c_bands before calling an iterative solver
           171 MiB given to the printing process from OS
            61 MiB allocation reported by mallinfo(arena+hblkhd)
          1280 MiB available memory on the node where the printing process lives
------------------
     ethr =  2.33E-11,  avg # of iterations =  5.4

     total cpu time spent up to now is       95.6 secs

     total energy              =    -128.97866796 Ry
     estimated scf accuracy    <       0.00000001 Ry

     iteration #  9     ecut=   120.00 Ry     beta= 0.30
     Davidson diagonalization with overlap

---- Real-time Memory Report at c_bands before calling an iterative solver
           171 MiB given to the printing process from OS
            61 MiB allocation reported by mallinfo(arena+hblkhd)
          1355 MiB available memory on the node where the printing process lives
------------------
     ethr =  2.33E-11,  avg # of iterations =  3.6

     total cpu time spent up to now is       98.0 secs

     total energy              =    -128.97866797 Ry
     estimated scf accuracy    <          1.4E-09 Ry

     iteration # 10     ecut=   120.00 Ry     beta= 0.30
     Davidson diagonalization with overlap

---- Real-time Memory Report at c_bands before calling an iterative solver
           171 MiB given to the printing process from OS
            62 MiB allocation reported by mallinfo(arena+hblkhd)
          1282 MiB available memory on the node where the printing process lives
------------------
     ethr =  7.93E-12,  avg # of iterations =  4.0

     total cpu time spent up to now is      100.1 secs

     total energy              =    -128.97866797 Ry
     estimated scf accuracy    <          1.9E-09 Ry

     iteration # 11     ecut=   120.00 Ry     beta= 0.30
     Davidson diagonalization with overlap

---- Real-time Memory Report at c_bands before calling an iterative solver
           171 MiB given to the printing process from OS
            62 MiB allocation reported by mallinfo(arena+hblkhd)
          1284 MiB available memory on the node where the printing process lives
------------------
     ethr =  7.93E-12,  avg # of iterations =  1.2

     total cpu time spent up to now is      101.9 secs

     total energy              =    -128.97866797 Ry
     estimated scf accuracy    <          2.6E-09 Ry

     iteration # 12     ecut=   120.00 Ry     beta= 0.30
     Davidson diagonalization with overlap

---- Real-time Memory Report at c_bands before calling an iterative solver
           171 MiB given to the printing process from OS
            62 MiB allocation reported by mallinfo(arena+hblkhd)
          1292 MiB available memory on the node where the printing process lives
------------------
     ethr =  7.93E-12,  avg # of iterations =  3.2

     total cpu time spent up to now is      103.7 secs

     total energy              =    -128.97866797 Ry
     estimated scf accuracy    <          6.4E-10 Ry

     iteration # 13     ecut=   120.00 Ry     beta= 0.30
     Davidson diagonalization with overlap

---- Real-time Memory Report at c_bands before calling an iterative solver
           171 MiB given to the printing process from OS
            62 MiB allocation reported by mallinfo(arena+hblkhd)
          1297 MiB available memory on the node where the printing process lives
------------------
     ethr =  3.58E-12,  avg # of iterations =  7.1

     total cpu time spent up to now is      106.5 secs

     total energy              =    -128.97866797 Ry
     estimated scf accuracy    <          3.2E-09 Ry

     iteration # 14     ecut=   120.00 Ry     beta= 0.30
     Davidson diagonalization with overlap

---- Real-time Memory Report at c_bands before calling an iterative solver
           171 MiB given to the printing process from OS
            62 MiB allocation reported by mallinfo(arena+hblkhd)
          1292 MiB available memory on the node where the printing process lives
------------------
     ethr =  3.58E-12,  avg # of iterations =  1.0

     total cpu time spent up to now is      107.9 secs

     total energy              =    -128.97866797 Ry
     estimated scf accuracy    <          2.9E-09 Ry

     iteration # 15     ecut=   120.00 Ry     beta= 0.30
     Davidson diagonalization with overlap

---- Real-time Memory Report at c_bands before calling an iterative solver
           171 MiB given to the printing process from OS
            62 MiB allocation reported by mallinfo(arena+hblkhd)
          1286 MiB available memory on the node where the printing process lives
------------------
     ethr =  3.58E-12,  avg # of iterations =  1.0

     total cpu time spent up to now is      109.3 secs

     total energy              =    -128.97866797 Ry
     estimated scf accuracy    <          2.7E-09 Ry

     iteration # 16     ecut=   120.00 Ry     beta= 0.30
     Davidson diagonalization with overlap

---- Real-time Memory Report at c_bands before calling an iterative solver
           171 MiB given to the printing process from OS
            62 MiB allocation reported by mallinfo(arena+hblkhd)
          1285 MiB available memory on the node where the printing process lives
------------------
     ethr =  3.58E-12,  avg # of iterations =  2.2

     total cpu time spent up to now is      111.0 secs

     total energy              =    -128.97866797 Ry
     estimated scf accuracy    <          1.2E-09 Ry

     iteration # 17     ecut=   120.00 Ry     beta= 0.30
     Davidson diagonalization with overlap

---- Real-time Memory Report at c_bands before calling an iterative solver
           171 MiB given to the printing process from OS
            62 MiB allocation reported by mallinfo(arena+hblkhd)
          1280 MiB available memory on the node where the printing process lives
------------------
     ethr =  3.58E-12,  avg # of iterations =  1.6

     total cpu time spent up to now is      112.5 secs

     total energy              =    -128.97866797 Ry
     estimated scf accuracy    <          9.9E-10 Ry

     iteration # 18     ecut=   120.00 Ry     beta= 0.30
     Davidson diagonalization with overlap

---- Real-time Memory Report at c_bands before calling an iterative solver
           171 MiB given to the printing process from OS
            62 MiB allocation reported by mallinfo(arena+hblkhd)
          1285 MiB available memory on the node where the printing process lives
------------------
     ethr =  3.58E-12,  avg # of iterations =  1.0

     total cpu time spent up to now is      113.9 secs

     total energy              =    -128.97866797 Ry
     estimated scf accuracy    <          1.8E-09 Ry

     iteration # 19     ecut=   120.00 Ry     beta= 0.30
     Davidson diagonalization with overlap

---- Real-time Memory Report at c_bands before calling an iterative solver
           171 MiB given to the printing process from OS
            62 MiB allocation reported by mallinfo(arena+hblkhd)
          1287 MiB available memory on the node where the printing process lives
------------------
     ethr =  3.58E-12,  avg # of iterations =  9.2

     total cpu time spent up to now is      117.3 secs

     total energy              =    -128.97866798 Ry
     estimated scf accuracy    <       0.00000001 Ry

     iteration # 20     ecut=   120.00 Ry     beta= 0.30
     Davidson diagonalization with overlap

---- Real-time Memory Report at c_bands before calling an iterative solver
           171 MiB given to the printing process from OS
            62 MiB allocation reported by mallinfo(arena+hblkhd)
          1269 MiB available memory on the node where the printing process lives
------------------
     ethr =  3.58E-12,  avg # of iterations =  1.5

     total cpu time spent up to now is      118.9 secs

     total energy              =    -128.97866797 Ry
     estimated scf accuracy    <       0.00000001 Ry

     iteration # 21     ecut=   120.00 Ry     beta= 0.30
     Davidson diagonalization with overlap

---- Real-time Memory Report at c_bands before calling an iterative solver
           171 MiB given to the printing process from OS
            62 MiB allocation reported by mallinfo(arena+hblkhd)
          1278 MiB available memory on the node where the printing process lives
------------------
     ethr =  3.58E-12,  avg # of iterations =  7.3

     total cpu time spent up to now is      121.8 secs

     total energy              =    -128.97866797 Ry
     estimated scf accuracy    <          8.6E-10 Ry

     iteration # 22     ecut=   120.00 Ry     beta= 0.30
     Davidson diagonalization with overlap

---- Real-time Memory Report at c_bands before calling an iterative solver
           171 MiB given to the printing process from OS
            62 MiB allocation reported by mallinfo(arena+hblkhd)
          1233 MiB available memory on the node where the printing process lives
------------------
     ethr =  3.58E-12,  avg # of iterations =  1.0

     total cpu time spent up to now is      123.3 secs

     total energy              =    -128.97866797 Ry
     estimated scf accuracy    <          9.2E-10 Ry

     iteration # 23     ecut=   120.00 Ry     beta= 0.30
     Davidson diagonalization with overlap

---- Real-time Memory Report at c_bands before calling an iterative solver
           171 MiB given to the printing process from OS
            62 MiB allocation reported by mallinfo(arena+hblkhd)
          1262 MiB available memory on the node where the printing process lives
------------------
     ethr =  3.58E-12,  avg # of iterations =  1.1

     total cpu time spent up to now is      124.7 secs

     total energy              =    -128.97866797 Ry
     estimated scf accuracy    <          5.0E-10 Ry

     iteration # 24     ecut=   120.00 Ry     beta= 0.30
     Davidson diagonalization with overlap

---- Real-time Memory Report at c_bands before calling an iterative solver
           171 MiB given to the printing process from OS
            62 MiB allocation reported by mallinfo(arena+hblkhd)
          1271 MiB available memory on the node where the printing process lives
------------------
     ethr =  2.76E-12,  avg # of iterations =  4.3

     total cpu time spent up to now is      126.5 secs

     End of self-consistent calculation

          k = 0.0000 0.0000 0.0000 ( 10177 PWs)   bands (ev):

    -6.1371  -3.2662  -3.2662  -3.2662  -3.0155  -3.0155   4.9634   4.9634
     4.9634

     occupation numbers 
     1.0000   1.0000   1.0000   1.0000   1.0000   1.0000   1.0000   1.0000
     1.0000

          k = 0.0704 0.0704-0.0704 ( 10168 PWs)   bands (ev):

    -6.1003  -3.2592  -3.2592  -3.2378  -3.0161  -3.0161   4.0499   4.8749
     4.8749

     occupation numbers 
     1.0000   1.0000   1.0000   1.0000   1.0000   1.0000   1.0000   1.0000
     1.0000

          k = 0.1408 0.1408-0.1408 ( 10141 PWs)   bands (ev):

    -6.0034  -3.2417  -3.2417  -3.1455  -3.0163  -3.0163   2.8433   4.6641
     4.6641

     occupation numbers 
     1.0000   1.0000   1.0000   1.0000   1.0000   1.0000   1.0000   1.0000
     1.0000

          k = 0.2112 0.2112-0.2112 ( 10180 PWs)   bands (ev):

    -5.8838  -3.2225  -3.2225  -3.0137  -3.0137  -2.9806   1.7464   4.4349
     4.4349

     occupation numbers 
     1.0000   1.0000   1.0000   1.0000   1.0000   1.0000   1.0000   1.0000
     1.0000

          k = 0.2816 0.2816-0.2816 ( 10197 PWs)   bands (ev):

    -5.7883  -3.2095  -3.2095  -3.0086  -3.0086  -2.7790   0.9307   4.2679
     4.2679

     occupation numbers 
     1.0000   1.0000   1.0000   1.0000   1.0000   1.0000   1.0000   1.0000
     1.0000

          k =-0.3520-0.3520 0.3520 ( 10200 PWs)   bands (ev):

    -5.7524  -3.2052  -3.2052  -3.0059  -3.0059  -2.6751   0.6129   4.2077
     4.2077

     occupation numbers 
     1.0000   1.0000   1.0000   1.0000   1.0000   1.0000   1.0000   1.0000
     1.0000

          k = 0.1408 0.0000 0.0000 ( 10161 PWs)   bands (ev):

    -6.0880  -3.2525  -3.2525  -3.2371  -3.0198  -3.0125   4.0086   4.7183
     4.7183

     occupation numbers 
     1.0000   1.0000   1.0000   1.0000   1.0000   1.0000   1.0000   1.0000
     1.0000

          k = 0.2112 0.0704-0.0704 ( 10180 PWs)   bands (ev):

    -6.0113  -3.2399  -3.2347  -3.1699  -3.0217  -3.0100   3.1057   4.4687
     4.5274

     occupation numbers 
     1.0000   1.0000   1.0000   1.0000   1.0000   1.0000   1.0000   1.0000
     1.0000

          k = 0.2816 0.1408-0.1408 ( 10192 PWs)   bands (ev):

    -5.8995  -3.2232  -3.2145  -3.0533  -3.0070  -2.9950   2.0585   4.2368
     4.2634

     occupation numbers 
     1.0000   1.0000   1.0000   1.0000   1.0000   1.0000   1.0000   1.0000
     1.0000

          k = 0.3520 0.2112-0.2112 ( 10195 PWs)   bands (ev):

    -5.7966  -3.2084  -3.2003  -3.0258  -3.0041  -2.8179   1.1797   3.9912
     4.0965

     occupation numbers 
     1.0000   1.0000   1.0000   1.0000   1.0000   1.0000   1.0000   1.0000
     1.0000

          k =-0.2816-0.4223 0.4223 ( 10176 PWs)   bands (ev):

    -5.7415  -3.2004  -3.1955  -3.0152  -3.0049  -2.6663   0.6955   3.7988
     4.0826

     occupation numbers 
     1.0000   1.0000   1.0000   1.0000   1.0000   1.0000   1.0000   1.0000
     1.0000

          k =-0.2112-0.3520 0.3520 ( 10191 PWs)   bands (ev):

    -5.7534  -3.2000  -3.1997  -3.0113  -3.0103  -2.7012   0.8006   3.7346
     4.1970

     occupation numbers 
     1.0000   1.0000   1.0000   1.0000   1.0000   1.0000   1.0000   1.0000
     1.0000

          k =-0.1408-0.2816 0.2816 ( 10197 PWs)   bands (ev):

    -5.8281  -3.2133  -3.2067  -3.0191  -3.0144  -2.8829   1.4430   3.8207
     4.4106

     occupation numbers 
     1.0000   1.0000   1.0000   1.0000   1.0000   1.0000   1.0000   1.0000
     1.0000

          k =-0.0704-0.2112 0.2112 ( 10181 PWs)   bands (ev):

    -5.9391  -3.2331  -3.2219  -3.0813  -3.0223  -3.0038   2.3882   4.0623
     4.6607

     occupation numbers 
     1.0000   1.0000   1.0000   1.0000   1.0000   1.0000   1.0000   1.0000
     1.0000

          k = 0.0000-0.1408 0.1408 ( 10145 PWs)   bands (ev):

    -6.0435  -3.2514  -3.2420  -3.1922  -3.0203  -3.0124   3.3753   4.4581
     4.8494

     occupation numbers 
     1.0000   1.0000   1.0000   1.0000   1.0000   1.0000   1.0000   1.0000
     1.0000

          k = 0.2816 0.0000 0.0000 ( 10197 PWs)   bands (ev):

    -5.9596  -3.2155  -3.2155  -3.1507  -3.0196  -3.0047   2.8567   4.1844
     4.1844

     occupation numbers 
     1.0000   1.0000   1.0000   1.0000   1.0000   1.0000   1.0000   1.0000
     1.0000

          k = 0.3520 0.0704-0.0704 ( 10207 PWs)   bands (ev):

    -5.8685  -3.1994  -3.1928  -3.0875  -3.0006  -2.9712   2.1509   3.8709
     3.9310

     occupation numbers 
     1.0000   1.0000   1.0000   1.0000   1.0000   1.0000   1.0000   1.0000
     1.0000

          k = 0.4223 0.1408-0.1408 ( 10199 PWs)   bands (ev):

    -5.7741  -3.1895  -3.1762  -3.0574  -2.9984  -2.8119   1.3995   3.4853
     3.7863

     occupation numbers 
     1.0000   1.0000   1.0000   1.0000   1.0000   1.0000   1.0000   1.0000
     1.0000

          k =-0.2112-0.4927 0.4927 ( 10212 PWs)   bands (ev):

    -5.7127  -3.1847  -3.1703  -3.0391  -3.0015  -2.6405   0.8793   3.1495
     3.7857

     occupation numbers 
     1.0000   1.0000   1.0000   1.0000   1.0000   1.0000   1.0000   1.0000
     1.0000

          k =-0.1408-0.4223 0.4223 ( 10205 PWs)   bands (ev):

    -5.7056  -3.1844  -3.1754  -3.0248  -3.0106  -2.6063   0.8086   2.9654
     3.9290

     occupation numbers 
     1.0000   1.0000   1.0000   1.0000   1.0000   1.0000   1.0000   1.0000
     1.0000

          k =-0.0704-0.3520 0.3520 ( 10196 PWs)   bands (ev):

    -5.7549  -3.1908  -3.1891  -3.0207  -3.0195  -2.7411   1.2062   3.0072
     4.1799

     occupation numbers 
     1.0000   1.0000   1.0000   1.0000   1.0000   1.0000   1.0000   1.0000
     1.0000

          k = 0.0000-0.2816 0.2816 ( 10157 PWs)   bands (ev):

    -5.8438  -3.2130  -3.2013  -3.0266  -3.0249  -2.9180   1.8224   3.3677
     4.4625

     occupation numbers 
     1.0000   1.0000   1.0000   1.0000   1.0000   1.0000   1.0000   1.0000
     1.0000

          k = 0.4223 0.0000 0.0000 ( 10213 PWs)   bands (ev):

    -5.8030  -3.1669  -3.1669  -3.0990  -2.9950  -2.9017   1.8256   3.6495
     3.6495

     occupation numbers 
     1.0000   1.0000   1.0000   1.0000   1.0000   1.0000   1.0000   1.0000
     1.0000

          k = 0.4927 0.0704-0.0704 ( 10197 PWs)   bands (ev):

    -5.7294  -3.1555  -3.1472  -3.0886  -2.9921  -2.7625   1.3328   3.3051
     3.4795

     occupation numbers 
     1.0000   1.0000   1.0000   1.0000   1.0000   1.0000   1.0000   1.0000
     1.0000

          k =-0.1408-0.5631 0.5631 ( 10221 PWs)   bands (ev):

    -5.6764  -3.1587  -3.1399  -3.0684  -2.9953  -2.6013   0.9529   2.8425
     3.4635

     occupation numbers 
     1.0000   1.0000   1.0000   1.0000   1.0000   1.0000   1.0000   1.0000
     1.0000

          k =-0.0704-0.4927 0.4927 ( 10211 PWs)   bands (ev):

    -5.6627  -3.1662  -3.1459  -3.0468  -3.0052  -2.5259   0.8450   2.5066
     3.6052

     occupation numbers 
     1.0000   1.0000   1.0000   1.0000   1.0000   1.0000   1.0000   1.0000
     1.0000

          k =-0.0000-0.4223 0.4223 ( 10221 PWs)   bands (ev):

    -5.6923  -3.1758  -3.1647  -3.0296  -3.0158  -2.5939   0.9928   2.5146
     3.8700

     occupation numbers 
     1.0000   1.0000   1.0000   1.0000   1.0000   1.0000   1.0000   1.0000
     1.0000

          k = 0.5631 0.0000 0.0000 ( 10218 PWs)   bands (ev):

    -5.6805  -3.1250  -3.1250  -3.1082  -2.9872  -2.6687   1.0373   3.2763
     3.2763

     occupation numbers 
     1.0000   1.0000   1.0000   1.0000   1.0000   1.0000   1.0000   1.0000
     1.0000

          k =-0.0704-0.6335 0.6335 ( 10234 PWs)   bands (ev):

    -5.6467  -3.1314  -3.1167  -3.0933  -2.9879  -2.5605   0.8135   2.9907
     3.2286

     occupation numbers 
     1.0000   1.0000   1.0000   1.0000   1.0000   1.0000   1.0000   1.0000
     1.0000

          k = 0.0000-0.5631 0.5631 ( 10215 PWs)   bands (ev):

    -5.6403  -3.1476  -3.1240  -3.0710  -2.9957  -2.5019   0.7892   2.5949
     3.3477

     occupation numbers 
     1.0000   1.0000   1.0000   1.0000   1.0000   1.0000   1.0000   1.0000
     1.0000

          k =-0.7039 0.0000 0.0000 ( 10190 PWs)   bands (ev):

    -5.6352  -3.1143  -3.1084  -3.1084  -2.9842  -2.5419   0.7199   3.1436
     3.1436

     occupation numbers 
     1.0000   1.0000   1.0000   1.0000   1.0000   1.0000   1.0000   1.0000
     1.0000

          k = 0.2816 0.1408 0.0000 ( 10192 PWs)   bands (ev):

    -5.9273  -3.2238  -3.2125  -3.0957  -3.0158  -3.0009   2.4665   3.9115
     4.4229

     occupation numbers 
     1.0000   1.0000   1.0000   1.0000   1.0000   1.0000   1.0000   1.0000
     1.0000

          k = 0.3520 0.2112-0.0704 ( 10186 PWs)   bands (ev):

    -5.8244  -3.2056  -3.1944  -3.0454  -3.0068  -2.8929   1.6778   3.4960
     4.2021

     occupation numbers 
     1.0000   1.0000   1.0000   1.0000   1.0000   1.0000   1.0000   1.0000
     1.0000

          k =-0.2816-0.4223 0.5631 ( 10192 PWs)   bands (ev):

    -5.7428  -3.1926  -3.1837  -3.0310  -3.0057  -2.7080   1.0113   3.2854
     3.9839

     occupation numbers 
     1.0000   1.0000   1.0000   1.0000   1.0000   1.0000   1.0000   1.0000
     1.0000

          k =-0.2112-0.3520 0.4927 ( 10210 PWs)   bands (ev):

    -5.7122  -3.1886  -3.1799  -3.0231  -3.0079  -2.6138   0.7424   3.2248
     3.8944

     occupation numbers 
     1.0000   1.0000   1.0000   1.0000   1.0000   1.0000   1.0000   1.0000
     1.0000

          k = 0.4223 0.1408-0.0000 ( 10195 PWs)   bands (ev):

    -5.7864  -3.1804  -3.1721  -3.0736  -2.9978  -2.8545   1.6398   3.3902
     3.7745

     occupation numbers 
     1.0000   1.0000   1.0000   1.0000   1.0000   1.0000   1.0000   1.0000
     1.0000

          k =-0.2112-0.4927 0.6335 ( 10199 PWs)   bands (ev):

    -5.7134  -3.1710  -3.1596  -3.0584  -2.9992  -2.6830   1.1387   3.0000
     3.5802

     occupation numbers 
     1.0000   1.0000   1.0000   1.0000   1.0000   1.0000   1.0000   1.0000
     1.0000

          k =-0.1408-0.4223 0.5631 ( 10200 PWs)   bands (ev):

    -5.6765  -3.1706  -3.1553  -3.0417  -3.0063  -2.5577   0.8539   2.7335
     3.5383

     occupation numbers 
     1.0000   1.0000   1.0000   1.0000   1.0000   1.0000   1.0000   1.0000
     1.0000

          k =-0.0704-0.3520 0.4927 ( 10204 PWs)   bands (ev):

    -5.6879  -3.1741  -3.1626  -3.0340  -3.0118  -2.5838   0.9319   2.6581
     3.6890

     occupation numbers 
     1.0000   1.0000   1.0000   1.0000   1.0000   1.0000   1.0000   1.0000
     1.0000

          k = 0.0000-0.2816 0.4223 ( 10208 PWs)   bands (ev):

    -5.7436  -3.1846  -3.1779  -3.0401  -3.0086  -2.7327   1.2797   2.8935
     3.9564

     occupation numbers 
     1.0000   1.0000   1.0000   1.0000   1.0000   1.0000   1.0000   1.0000
     1.0000

          k =-0.1408-0.5631 0.7039 ( 10195 PWs)   bands (ev):

    -5.6764  -3.1419  -3.1382  -3.0820  -2.9920  -2.6287   1.0103   3.0577
     3.2535

     occupation numbers 
     1.0000   1.0000   1.0000   1.0000   1.0000   1.0000   1.0000   1.0000
     1.0000

          k =-0.0704-0.4927 0.6335 ( 10207 PWs)   bands (ev):

    -5.6473  -3.1483  -3.1345  -3.0638  -2.9989  -2.5162   0.8411   2.6874
     3.2023

     occupation numbers 
     1.0000   1.0000   1.0000   1.0000   1.0000   1.0000   1.0000   1.0000
     1.0000

          k = 0.0000-0.4223 0.5631 ( 10193 PWs)   bands (ev):

    -5.6518  -3.1602  -3.1426  -3.0451  -3.0092  -2.4999   0.8590   2.4522
     3.3829

     occupation numbers 
     1.0000   1.0000   1.0000   1.0000   1.0000   1.0000   1.0000   1.0000
     1.0000

          k =-0.7039 0.1408 0.0000 ( 10224 PWs)   bands (ev):

    -5.6358  -3.1311  -3.1231  -3.0821  -2.9907  -2.5140   0.7580   2.9805
     3.0231

     occupation numbers 
     1.0000   1.0000   1.0000   1.0000   1.0000   1.0000   1.0000   1.0000
     1.0000

          k =-0.1408-0.4223 0.7039 ( 10230 PWs)   bands (ev):

    -5.6656  -3.1579  -3.1499  -3.0494  -3.0063  -2.5496   0.9397   2.6634
     3.2787

     occupation numbers 
     1.0000   1.0000   1.0000   1.0000   1.0000   1.0000   1.0000   1.0000
     1.0000

          k =-0.0704-0.3520 0.6335 ( 10214 PWs)   bands (ev):

    -5.6477  -3.1560  -3.1441  -3.0418  -3.0126  -2.4897   0.8576   2.5655
     3.1288

     occupation numbers 
     1.0000   1.0000   1.0000   1.0000   1.0000   1.0000   1.0000   1.0000
     1.0000

          k =-0.7039 0.2816 0.0000 ( 10200 PWs)   bands (ev):

    -5.6367  -3.1444  -3.1404  -3.0509  -3.0078  -2.4708   0.8279   2.7325
     2.8475

     occupation numbers 
     1.0000   1.0000   1.0000   1.0000   1.0000   1.0000   1.0000   1.0000
     1.0000

     highest occupied level (ev):     4.9634

!    total energy              =    -128.97866797 Ry
     estimated scf accuracy    <          5.8E-11 Ry

     The total energy is the sum of the following terms:
     one-electron contribution =     -49.28377255 Ry
     hartree contribution      =      36.24782628 Ry
     xc contribution           =     -39.48817613 Ry
     ewald contribution        =     -76.45454557 Ry

     convergence has been achieved in  24 iterations

     Forces acting on atoms (cartesian axes, Ry/au):

     atom    1 type  1   force =     0.00000000    0.00000000    0.00000000
     atom    2 type  2   force =    -0.00000000    0.00000000   -0.00000000
     The non-local contrib.  to forces
     atom    1 type  1   force =     0.00000000    0.00000000    0.00000000
     atom    2 type  2   force =     0.00000000   -0.00000000   -0.00000000
     The ionic contribution  to forces
     atom    1 type  1   force =    -0.00000000    0.00000000   -0.00000000
     atom    2 type  2   force =     0.00000000    0.00000000    0.00000000
     The local contribution  to forces
     atom    1 type  1   force =    -0.00000000    0.00000000    0.00000000
     atom    2 type  2   force =    -0.00000000    0.00000000    0.00000000
     The core correction contribution to forces
     atom    1 type  1   force =     0.00000000   -0.00000000   -0.00000000
     atom    2 type  2   force =     0.00000000   -0.00000000    0.00000000
     The Hubbard contrib.    to forces
     atom    1 type  1   force =     0.00000000    0.00000000    0.00000000
     atom    2 type  2   force =     0.00000000    0.00000000    0.00000000
     The SCF correction term to forces
     atom    1 type  1   force =    -0.00000000   -0.00000000    0.00000000
     atom    2 type  2   force =    -0.00000000   -0.00000000   -0.00000000

     Total force =     0.000000     Total SCF correction =     0.000000


     Computing stress (Cartesian axis) and pressure

          total   stress  (Ry/bohr**3)                   (kbar)     P=       20.45
   0.00013902   0.00000000   0.00000000           20.45        0.00        0.00
   0.00000000   0.00013902   0.00000000            0.00       20.45        0.00
  -0.00000000   0.00000000   0.00013902           -0.00        0.00       20.45

     kinetic stress (kbar)   9459.75      0.00     -0.00
                                0.00   9459.75     -0.00
                               -0.00     -0.00   9459.75

     local   stress (kbar)    661.32      0.00     -0.00
                                0.00    661.32     -0.00
                               -0.00     -0.00    661.32

     nonloc. stress (kbar)  -3553.70      0.00      0.00
                                0.00  -3553.70     -0.00
                                0.00     -0.00  -3553.70

     hartree stress (kbar)   3816.19     -0.00     -0.00
                               -0.00   3816.19     -0.00
                               -0.00     -0.00   3816.19

     exc-cor stress (kbar)   4424.91      0.00      0.00
                                0.00   4424.91      0.00
                                0.00      0.00   4424.91

     corecor stress (kbar)  -6738.85      0.00      0.00
                                0.00  -6738.85      0.00
                                0.00      0.00  -6738.85

     ewald   stress (kbar)  -8049.18      0.00      0.00
                                0.00  -8049.18     -0.00
                                0.00     -0.00  -8049.18

     hubbard stress (kbar)      0.00      0.00      0.00
                                0.00      0.00      0.00
                                0.00      0.00      0.00

     DFT-D   stress (kbar)      0.00      0.00      0.00
                                0.00      0.00      0.00
                                0.00      0.00      0.00

     XDM     stress (kbar)      0.00      0.00      0.00
                                0.00      0.00      0.00
                                0.00      0.00      0.00

     dft-nl  stress (kbar)      0.00      0.00      0.00
                                0.00      0.00      0.00
                                0.00      0.00      0.00

     TS-vdW  stress (kbar)      0.00      0.00      0.00
                                0.00      0.00      0.00
                                0.00      0.00      0.00

     MDB     stress (kbar)      0.00      0.00      0.00
                                0.00      0.00      0.00
                                0.00      0.00      0.00

     3D-RISM stress (kbar)      0.00      0.00      0.00
                                0.00      0.00      0.00
                                0.00      0.00      0.00

     Energy error            =      1.0E-03 Ry
     Gradient error          =      4.6E-32 Ry/Bohr
     Cell gradient error     =      2.0E+01 kbar

     number of scf cycles    =   2
     number of bfgs steps    =   1

     enthalpy           old  =    -128.9776636166 Ry
     enthalpy           new  =    -128.9786679734 Ry

     CASE: enthalpy          _new < enthalpy          _old

     new trust radius        =       0.0214320708 bohr
     new conv_thr            =            1.0E-12 Ry

     new unit-cell volume =    472.72827 a.u.^3 (    70.05110 Ang^3 )
     density =      5.68946 g/cm^3

CELL_PARAMETERS (angstrom)
   0.000000000   3.271862103   3.271862103
   3.271862103   0.000000000   3.271862103
   3.271862103   3.271862103   0.000000000

ATOMIC_POSITIONS (crystal)
Cd              -0.0000000000        0.0000000000        0.0000000000
Te               0.2500000000        0.2500000000        0.2500000000



     Writing config-only to output data dir /home/User/opencode_workspace/DFT/calculations/cdte/relax_nosoc/out/pwscf.save/ :
     XML data file
     NEW-OLD atomic charge density approx. for the potential
     New effective cutoffs (rho, wfc):  706.36  117.74

     total cpu time spent up to now is      129.4 secs

     per-process dynamical memory:    54.6 Mb

     Self-consistent Calculation

     iteration #  1     ecut=   120.00 Ry     beta= 0.30
     Davidson diagonalization with overlap

---- Real-time Memory Report at c_bands before calling an iterative solver
           171 MiB given to the printing process from OS
            53 MiB allocation reported by mallinfo(arena+hblkhd)
          1336 MiB available memory on the node where the printing process lives
------------------
     ethr =  1.00E-06,  avg # of iterations =  7.3

     Threshold (ethr) on eigenvalues was too large:
     Diagonalizing with lowered threshold

     Davidson diagonalization with overlap

---- Real-time Memory Report at c_bands before calling an iterative solver
           171 MiB given to the printing process from OS
            53 MiB allocation reported by mallinfo(arena+hblkhd)
          1324 MiB available memory on the node where the printing process lives
------------------
     ethr =  3.34E-08,  avg # of iterations =  5.9

     total cpu time spent up to now is      135.1 secs

     total energy              =    -128.97947958 Ry
     estimated scf accuracy    <       0.00000847 Ry

     iteration #  2     ecut=   120.00 Ry     beta= 0.30
     Davidson diagonalization with overlap

---- Real-time Memory Report at c_bands before calling an iterative solver
           171 MiB given to the printing process from OS
            58 MiB allocation reported by mallinfo(arena+hblkhd)
          1305 MiB available memory on the node where the printing process lives
------------------
     ethr =  4.70E-08,  avg # of iterations =  1.0

     total cpu time spent up to now is      136.6 secs

     total energy              =    -128.97947944 Ry
     estimated scf accuracy    <       0.00000306 Ry

     iteration #  3     ecut=   120.00 Ry     beta= 0.30
     Davidson diagonalization with overlap

---- Real-time Memory Report at c_bands before calling an iterative solver
           171 MiB given to the printing process from OS
            59 MiB allocation reported by mallinfo(arena+hblkhd)
          1353 MiB available memory on the node where the printing process lives
------------------
     ethr =  1.70E-08,  avg # of iterations =  2.2

     total cpu time spent up to now is      138.4 secs

     total energy              =    -128.97948030 Ry
     estimated scf accuracy    <       0.00000026 Ry

     iteration #  4     ecut=   120.00 Ry     beta= 0.30
     Davidson diagonalization with overlap

---- Real-time Memory Report at c_bands before calling an iterative solver
           171 MiB given to the printing process from OS
            59 MiB allocation reported by mallinfo(arena+hblkhd)
          1299 MiB available memory on the node where the printing process lives
------------------
     ethr =  1.47E-09,  avg # of iterations =  5.6

     total cpu time spent up to now is      140.9 secs

     total energy              =    -128.97948061 Ry
     estimated scf accuracy    <       0.00000005 Ry

     iteration #  5     ecut=   120.00 Ry     beta= 0.30
     Davidson diagonalization with overlap

---- Real-time Memory Report at c_bands before calling an iterative solver
           171 MiB given to the printing process from OS
            60 MiB allocation reported by mallinfo(arena+hblkhd)
          1299 MiB available memory on the node where the printing process lives
------------------
     ethr =  2.75E-10,  avg # of iterations =  3.3

     total cpu time spent up to now is      142.9 secs

     total energy              =    -128.97948069 Ry
     estimated scf accuracy    <       0.00000002 Ry

     iteration #  6     ecut=   120.00 Ry     beta= 0.30
     Davidson diagonalization with overlap

---- Real-time Memory Report at c_bands before calling an iterative solver
           171 MiB given to the printing process from OS
            60 MiB allocation reported by mallinfo(arena+hblkhd)
          1288 MiB available memory on the node where the printing process lives
------------------
     ethr =  1.16E-10,  avg # of iterations =  4.2

     total cpu time spent up to now is      145.3 secs

     total energy              =    -128.97948074 Ry
     estimated scf accuracy    <          3.0E-09 Ry

     iteration #  7     ecut=   120.00 Ry     beta= 0.30
     Davidson diagonalization with overlap

---- Real-time Memory Report at c_bands before calling an iterative solver
           171 MiB given to the printing process from OS
            60 MiB allocation reported by mallinfo(arena+hblkhd)
          1285 MiB available memory on the node where the printing process lives
------------------
     ethr =  1.67E-11,  avg # of iterations =  4.7

     total cpu time spent up to now is      147.5 secs

     total energy              =    -128.97948076 Ry
     estimated scf accuracy    <          8.0E-09 Ry

     iteration #  8     ecut=   120.00 Ry     beta= 0.30
     Davidson diagonalization with overlap

---- Real-time Memory Report at c_bands before calling an iterative solver
           171 MiB given to the printing process from OS
            61 MiB allocation reported by mallinfo(arena+hblkhd)
          1291 MiB available memory on the node where the printing process lives
------------------
     ethr =  1.67E-11,  avg # of iterations =  1.9

     total cpu time spent up to now is      149.0 secs

     total energy              =    -128.97948077 Ry
     estimated scf accuracy    <          5.4E-09 Ry

     iteration #  9     ecut=   120.00 Ry     beta= 0.30
     Davidson diagonalization with overlap

---- Real-time Memory Report at c_bands before calling an iterative solver
           171 MiB given to the printing process from OS
            61 MiB allocation reported by mallinfo(arena+hblkhd)
          1289 MiB available memory on the node where the printing process lives
------------------
     ethr =  1.67E-11,  avg # of iterations =  2.4

     total cpu time spent up to now is      151.2 secs

     total energy              =    -128.97948077 Ry
     estimated scf accuracy    <          1.2E-09 Ry

     iteration # 10     ecut=   120.00 Ry     beta= 0.30
     Davidson diagonalization with overlap

---- Real-time Memory Report at c_bands before calling an iterative solver
           171 MiB given to the printing process from OS
            62 MiB allocation reported by mallinfo(arena+hblkhd)
          1288 MiB available memory on the node where the printing process lives
------------------
     ethr =  6.54E-12,  avg # of iterations =  3.6

     total cpu time spent up to now is      153.6 secs

     total energy              =    -128.97948077 Ry
     estimated scf accuracy    <          5.7E-10 Ry

     iteration # 11     ecut=   120.00 Ry     beta= 0.30
     Davidson diagonalization with overlap

---- Real-time Memory Report at c_bands before calling an iterative solver
           171 MiB given to the printing process from OS
            62 MiB allocation reported by mallinfo(arena+hblkhd)
          1361 MiB available memory on the node where the printing process lives
------------------
     ethr =  3.19E-12,  avg # of iterations =  2.5

     total cpu time spent up to now is      155.4 secs

     total energy              =    -128.97948077 Ry
     estimated scf accuracy    <          5.5E-10 Ry

     iteration # 12     ecut=   120.00 Ry     beta= 0.30
     Davidson diagonalization with overlap

---- Real-time Memory Report at c_bands before calling an iterative solver
           171 MiB given to the printing process from OS
            62 MiB allocation reported by mallinfo(arena+hblkhd)
          1283 MiB available memory on the node where the printing process lives
------------------
     ethr =  3.04E-12,  avg # of iterations =  3.6

     total cpu time spent up to now is      157.3 secs

     total energy              =    -128.97948077 Ry
     estimated scf accuracy    <          4.2E-11 Ry

     iteration # 13     ecut=   120.00 Ry     beta= 0.30
     Davidson diagonalization with overlap

---- Real-time Memory Report at c_bands before calling an iterative solver
           171 MiB given to the printing process from OS
            62 MiB allocation reported by mallinfo(arena+hblkhd)
          1275 MiB available memory on the node where the printing process lives
------------------
     ethr =  2.33E-13,  avg # of iterations =  6.9

     total cpu time spent up to now is      160.0 secs

     total energy              =    -128.97948077 Ry
     estimated scf accuracy    <          1.1E-10 Ry

     iteration # 14     ecut=   120.00 Ry     beta= 0.30
     Davidson diagonalization with overlap

---- Real-time Memory Report at c_bands before calling an iterative solver
           171 MiB given to the printing process from OS
            62 MiB allocation reported by mallinfo(arena+hblkhd)
          1250 MiB available memory on the node where the printing process lives
------------------
     ethr =  2.33E-13,  avg # of iterations =  2.4

     total cpu time spent up to now is      161.8 secs

     total energy              =    -128.97948077 Ry
     estimated scf accuracy    <          3.3E-11 Ry

     iteration # 15     ecut=   120.00 Ry     beta= 0.30
     Davidson diagonalization with overlap

---- Real-time Memory Report at c_bands before calling an iterative solver
           171 MiB given to the printing process from OS
            62 MiB allocation reported by mallinfo(arena+hblkhd)
          1268 MiB available memory on the node where the printing process lives
------------------
     ethr =  1.84E-13,  avg # of iterations =  3.4

     total cpu time spent up to now is      163.8 secs

     total energy              =    -128.97948077 Ry
     estimated scf accuracy    <          7.5E-12 Ry

     iteration # 16     ecut=   120.00 Ry     beta= 0.30
     Davidson diagonalization with overlap

---- Real-time Memory Report at c_bands before calling an iterative solver
           171 MiB given to the printing process from OS
            62 MiB allocation reported by mallinfo(arena+hblkhd)
          1271 MiB available memory on the node where the printing process lives
------------------
     ethr =  1.00E-13,  avg # of iterations =  7.2

     total cpu time spent up to now is      167.0 secs

     total energy              =    -128.97948077 Ry
     estimated scf accuracy    <          5.7E-11 Ry

     iteration # 17     ecut=   120.00 Ry     beta= 0.30
     Davidson diagonalization with overlap

---- Real-time Memory Report at c_bands before calling an iterative solver
           171 MiB given to the printing process from OS
            62 MiB allocation reported by mallinfo(arena+hblkhd)
          1267 MiB available memory on the node where the printing process lives
------------------
     ethr =  1.00E-13,  avg # of iterations =  1.0

     total cpu time spent up to now is      168.5 secs

     total energy              =    -128.97948077 Ry
     estimated scf accuracy    <          6.5E-11 Ry

     iteration # 18     ecut=   120.00 Ry     beta= 0.30
     Davidson diagonalization with overlap

---- Real-time Memory Report at c_bands before calling an iterative solver
           171 MiB given to the printing process from OS
            62 MiB allocation reported by mallinfo(arena+hblkhd)
          1276 MiB available memory on the node where the printing process lives
------------------
     ethr =  1.00E-13,  avg # of iterations =  1.1

     total cpu time spent up to now is      170.1 secs

     total energy              =    -128.97948077 Ry
     estimated scf accuracy    <          7.6E-11 Ry

     iteration # 19     ecut=   120.00 Ry     beta= 0.30
     Davidson diagonalization with overlap

---- Real-time Memory Report at c_bands before calling an iterative solver
           171 MiB given to the printing process from OS
            62 MiB allocation reported by mallinfo(arena+hblkhd)
          1262 MiB available memory on the node where the printing process lives
------------------
     ethr =  1.00E-13,  avg # of iterations =  3.7

     total cpu time spent up to now is      172.3 secs

     total energy              =    -128.97948077 Ry
     estimated scf accuracy    <          9.9E-12 Ry

     iteration # 20     ecut=   120.00 Ry     beta= 0.30
     Davidson diagonalization with overlap

---- Real-time Memory Report at c_bands before calling an iterative solver
           171 MiB given to the printing process from OS
            62 MiB allocation reported by mallinfo(arena+hblkhd)
          1283 MiB available memory on the node where the printing process lives
------------------
     ethr =  1.00E-13,  avg # of iterations =  5.0

     total cpu time spent up to now is      174.7 secs

     total energy              =    -128.97948077 Ry
     estimated scf accuracy    <          9.8E-12 Ry

     iteration # 21     ecut=   120.00 Ry     beta= 0.30
     Davidson diagonalization with overlap

---- Real-time Memory Report at c_bands before calling an iterative solver
           171 MiB given to the printing process from OS
            62 MiB allocation reported by mallinfo(arena+hblkhd)
          1288 MiB available memory on the node where the printing process lives
------------------
     ethr =  1.00E-13,  avg # of iterations =  1.0

     total cpu time spent up to now is      176.1 secs

     total energy              =    -128.97948077 Ry
     estimated scf accuracy    <          5.5E-12 Ry

     iteration # 22     ecut=   120.00 Ry     beta= 0.30
     Davidson diagonalization with overlap

---- Real-time Memory Report at c_bands before calling an iterative solver
           171 MiB given to the printing process from OS
            62 MiB allocation reported by mallinfo(arena+hblkhd)
          1281 MiB available memory on the node where the printing process lives
------------------
     ethr =  1.00E-13,  avg # of iterations =  1.9

     total cpu time spent up to now is      177.6 secs

     End of self-consistent calculation

          k = 0.0000 0.0000 0.0000 ( 10177 PWs)   bands (ev):

    -6.2270  -3.3895  -3.3895  -3.3895  -3.1494  -3.1494   4.7916   4.7916
     4.7916

     occupation numbers 
     1.0000   1.0000   1.0000   1.0000   1.0000   1.0000   1.0000   1.0000
     1.0000

          k = 0.0700 0.0700-0.0700 ( 10168 PWs)   bands (ev):

    -6.1914  -3.3828  -3.3828  -3.3616  -3.1499  -3.1499   3.8828   4.7059
     4.7059

     occupation numbers 
     1.0000   1.0000   1.0000   1.0000   1.0000   1.0000   1.0000   1.0000
     1.0000

          k = 0.1401 0.1401-0.1401 ( 10141 PWs)   bands (ev):

    -6.0979  -3.3661  -3.3661  -3.2712  -3.1501  -3.1501   2.6980   4.5013
     4.5013

     occupation numbers 
     1.0000   1.0000   1.0000   1.0000   1.0000   1.0000   1.0000   1.0000
     1.0000

          k = 0.2101 0.2101-0.2101 ( 10180 PWs)   bands (ev):

    -5.9826  -3.3477  -3.3477  -3.1476  -3.1476  -3.1115   1.6251   4.2784
     4.2784

     occupation numbers 
     1.0000   1.0000   1.0000   1.0000   1.0000   1.0000   1.0000   1.0000
     1.0000

          k = 0.2802 0.2802-0.2802 ( 10197 PWs)   bands (ev):

    -5.8905  -3.3352  -3.3352  -3.1428  -3.1428  -2.9188   0.8312   4.1159
     4.1159

     occupation numbers 
     1.0000   1.0000   1.0000   1.0000   1.0000   1.0000   1.0000   1.0000
     1.0000

          k =-0.3502-0.3502 0.3502 ( 10200 PWs)   bands (ev):

    -5.8558  -3.3311  -3.3311  -3.1402  -3.1402  -2.8207   0.5238   4.0571
     4.0571

     occupation numbers 
     1.0000   1.0000   1.0000   1.0000   1.0000   1.0000   1.0000   1.0000
     1.0000

          k = 0.1401 0.0000 0.0000 ( 10161 PWs)   bands (ev):

    -6.1796  -3.3765  -3.3765  -3.3607  -3.1535  -3.1466   3.8377   4.5544
     4.5544

     occupation numbers 
     1.0000   1.0000   1.0000   1.0000   1.0000   1.0000   1.0000   1.0000
     1.0000

          k = 0.2101 0.0700-0.0700 ( 10180 PWs)   bands (ev):

    -6.1055  -3.3643  -3.3594  -3.2948  -3.1552  -3.1441   2.9518   4.3122
     4.3681

     occupation numbers 
     1.0000   1.0000   1.0000   1.0000   1.0000   1.0000   1.0000   1.0000
     1.0000

          k = 0.2802 0.1401-0.1401 ( 10192 PWs)   bands (ev):

    -5.9977  -3.3483  -3.3400  -3.1833  -3.1412  -3.1275   1.9279   4.0863
     4.1104

     occupation numbers 
     1.0000   1.0000   1.0000   1.0000   1.0000   1.0000   1.0000   1.0000
     1.0000

          k = 0.3502 0.2101-0.2101 ( 10195 PWs)   bands (ev):

    -5.8984  -3.3342  -3.3265  -3.1589  -3.1385  -2.9557   1.0722   3.8446
     3.9494

     occupation numbers 
     1.0000   1.0000   1.0000   1.0000   1.0000   1.0000   1.0000   1.0000
     1.0000

          k =-0.2802-0.4203 0.4203 ( 10176 PWs)   bands (ev):

    -5.8453  -3.3265  -3.3219  -3.1490  -3.1392  -2.8119   0.6034   3.6568
     3.9356

     occupation numbers 
     1.0000   1.0000   1.0000   1.0000   1.0000   1.0000   1.0000   1.0000
     1.0000

          k =-0.2101-0.3502 0.3502 ( 10191 PWs)   bands (ev):

    -5.8567  -3.3261  -3.3258  -3.1453  -3.1444  -2.8449   0.7049   3.5946
     4.0468

     occupation numbers 
     1.0000   1.0000   1.0000   1.0000   1.0000   1.0000   1.0000   1.0000
     1.0000

          k =-0.1401-0.2802 0.2802 ( 10197 PWs)   bands (ev):

    -5.9289  -3.3390  -3.3325  -3.1527  -3.1479  -3.0178   1.3282   3.6796
     4.2546

     occupation numbers 
     1.0000   1.0000   1.0000   1.0000   1.0000   1.0000   1.0000   1.0000
     1.0000

          k =-0.0700-0.2101 0.2101 ( 10181 PWs)   bands (ev):

    -6.0359  -3.3579  -3.3471  -3.2089  -3.1558  -3.1379   2.2501   3.9166
     4.4976

     occupation numbers 
     1.0000   1.0000   1.0000   1.0000   1.0000   1.0000   1.0000   1.0000
     1.0000

          k = 0.0000-0.1401 0.1401 ( 10145 PWs)   bands (ev):

    -6.1366  -3.3754  -3.3664  -3.3168  -3.1539  -3.1464   3.2173   4.3024
     4.6808

     occupation numbers 
     1.0000   1.0000   1.0000   1.0000   1.0000   1.0000   1.0000   1.0000
     1.0000

          k = 0.2802 0.0000 0.0000 ( 10197 PWs)   bands (ev):

    -6.0556  -3.3410  -3.3410  -3.2756  -3.1529  -3.1391   2.7024   4.0358
     4.0358

     occupation numbers 
     1.0000   1.0000   1.0000   1.0000   1.0000   1.0000   1.0000   1.0000
     1.0000

          k = 0.3502 0.0700-0.0700 ( 10207 PWs)   bands (ev):

    -5.9677  -3.3255  -3.3193  -3.2158  -3.1351  -3.1042   2.0125   3.7295
     3.7889

     occupation numbers 
     1.0000   1.0000   1.0000   1.0000   1.0000   1.0000   1.0000   1.0000
     1.0000

          k = 0.4203 0.1401-0.1401 ( 10199 PWs)   bands (ev):

    -5.8767  -3.3160  -3.3035  -3.1886  -3.1330  -2.9497   1.2819   3.3519
     3.6476

     occupation numbers 
     1.0000   1.0000   1.0000   1.0000   1.0000   1.0000   1.0000   1.0000
     1.0000

          k =-0.2101-0.4903 0.4903 ( 10212 PWs)   bands (ev):

    -5.8174  -3.3113  -3.2978  -3.1716  -3.1359  -2.7866   0.7794   3.0228
     3.6469

     occupation numbers 
     1.0000   1.0000   1.0000   1.0000   1.0000   1.0000   1.0000   1.0000
     1.0000

          k =-0.1401-0.4203 0.4203 ( 10205 PWs)   bands (ev):

    -5.8106  -3.3111  -3.3027  -3.1581  -3.1446  -2.7543   0.7117   2.8430
     3.7862

     occupation numbers 
     1.0000   1.0000   1.0000   1.0000   1.0000   1.0000   1.0000   1.0000
     1.0000

          k =-0.0700-0.3502 0.3502 ( 10196 PWs)   bands (ev):

    -5.8582  -3.3174  -3.3156  -3.1542  -3.1529  -2.8820   1.0955   2.8859
     4.0304

     occupation numbers 
     1.0000   1.0000   1.0000   1.0000   1.0000   1.0000   1.0000   1.0000
     1.0000

          k = 0.0000-0.2802 0.2802 ( 10157 PWs)   bands (ev):

    -5.9440  -3.3387  -3.3273  -3.1589  -3.1582  -3.0520   1.6944   3.2399
     4.3050

     occupation numbers 
     1.0000   1.0000   1.0000   1.0000   1.0000   1.0000   1.0000   1.0000
     1.0000

          k = 0.4203 0.0000 0.0000 ( 10213 PWs)   bands (ev):

    -5.9046  -3.2946  -3.2946  -3.2270  -3.1298  -3.0362   1.6919   3.5145
     3.5145

     occupation numbers 
     1.0000   1.0000   1.0000   1.0000   1.0000   1.0000   1.0000   1.0000
     1.0000

          k = 0.4903 0.0700-0.0700 ( 10197 PWs)   bands (ev):

    -5.8336  -3.2834  -3.2759  -3.2180  -3.1270  -2.9020   1.2126   3.1785
     3.3487

     occupation numbers 
     1.0000   1.0000   1.0000   1.0000   1.0000   1.0000   1.0000   1.0000
     1.0000

          k =-0.1401-0.5603 0.5603 ( 10221 PWs)   bands (ev):

    -5.7825  -3.2863  -3.2688  -3.1993  -3.1300  -2.7487   0.8463   2.7265
     3.3330

     occupation numbers 
     1.0000   1.0000   1.0000   1.0000   1.0000   1.0000   1.0000   1.0000
     1.0000

          k =-0.0700-0.4903 0.4903 ( 10211 PWs)   bands (ev):

    -5.7692  -3.2935  -3.2746  -3.1790  -3.1394  -2.6777   0.7440   2.3980
     3.4709

     occupation numbers 
     1.0000   1.0000   1.0000   1.0000   1.0000   1.0000   1.0000   1.0000
     1.0000

          k =-0.0000-0.4203 0.4203 ( 10221 PWs)   bands (ev):

    -5.7977  -3.3028  -3.2925  -3.1626  -3.1495  -2.7419   0.8871   2.4059
     3.7288

     occupation numbers 
     1.0000   1.0000   1.0000   1.0000   1.0000   1.0000   1.0000   1.0000
     1.0000

          k = 0.5603 0.0000 0.0000 ( 10218 PWs)   bands (ev):

    -5.7864  -3.2547  -3.2547  -3.2362  -3.1223  -2.8124   0.9250   3.1504
     3.1504

     occupation numbers 
     1.0000   1.0000   1.0000   1.0000   1.0000   1.0000   1.0000   1.0000
     1.0000

          k =-0.0700-0.6304 0.6304 ( 10234 PWs)   bands (ev):

    -5.7537  -3.2600  -3.2468  -3.2231  -3.1229  -2.7099   0.7094   2.8721
     3.1039

     occupation numbers 
     1.0000   1.0000   1.0000   1.0000   1.0000   1.0000   1.0000   1.0000
     1.0000

          k = 0.0000-0.5603 0.5603 ( 10215 PWs)   bands (ev):

    -5.7476  -3.2755  -3.2537  -3.2020  -3.1303  -2.6547   0.6875   2.4859
     3.2200

     occupation numbers 
     1.0000   1.0000   1.0000   1.0000   1.0000   1.0000   1.0000   1.0000
     1.0000

          k =-0.7004 0.0000 0.0000 ( 10190 PWs)   bands (ev):

    -5.7427  -3.2421  -3.2389  -3.2389  -3.1194  -2.6924   0.6186   3.0210
     3.0210

     occupation numbers 
     1.0000   1.0000   1.0000   1.0000   1.0000   1.0000   1.0000   1.0000
     1.0000

          k = 0.2802 0.1401 0.0000 ( 10192 PWs)   bands (ev):

    -6.0244  -3.3489  -3.3382  -3.2229  -3.1492  -3.1350   2.3234   3.7706
     4.2665

     occupation numbers 
     1.0000   1.0000   1.0000   1.0000   1.0000   1.0000   1.0000   1.0000
     1.0000

          k = 0.3502 0.2101-0.0700 ( 10186 PWs)   bands (ev):

    -5.9252  -3.3315  -3.3208  -3.1771  -3.1409  -3.0276   1.5538   3.3639
     4.0519

     occupation numbers 
     1.0000   1.0000   1.0000   1.0000   1.0000   1.0000   1.0000   1.0000
     1.0000

          k =-0.2802-0.4203 0.5603 ( 10192 PWs)   bands (ev):

    -5.8465  -3.3190  -3.3105  -3.1639  -3.1400  -2.8507   0.9076   3.1559
     3.8398

     occupation numbers 
     1.0000   1.0000   1.0000   1.0000   1.0000   1.0000   1.0000   1.0000
     1.0000

          k =-0.2101-0.3502 0.4903 ( 10210 PWs)   bands (ev):

    -5.8170  -3.3151  -3.3069  -3.1565  -3.1420  -2.7617   0.6483   3.0956
     3.7529

     occupation numbers 
     1.0000   1.0000   1.0000   1.0000   1.0000   1.0000   1.0000   1.0000
     1.0000

          k = 0.4203 0.1401-0.0000 ( 10195 PWs)   bands (ev):

    -5.8885  -3.3074  -3.2995  -3.2037  -3.1324  -2.9905   1.5128   3.2618
     3.6359

     occupation numbers 
     1.0000   1.0000   1.0000   1.0000   1.0000   1.0000   1.0000   1.0000
     1.0000

          k =-0.2101-0.4903 0.6304 ( 10199 PWs)   bands (ev):

    -5.8181  -3.2983  -3.2875  -3.1897  -3.1337  -2.8264   1.0270   2.8796
     3.4470

     occupation numbers 
     1.0000   1.0000   1.0000   1.0000   1.0000   1.0000   1.0000   1.0000
     1.0000

          k =-0.1401-0.4203 0.5603 ( 10200 PWs)   bands (ev):

    -5.7825  -3.2978  -3.2834  -3.1741  -3.1404  -2.7078   0.7535   2.6179
     3.4064

     occupation numbers 
     1.0000   1.0000   1.0000   1.0000   1.0000   1.0000   1.0000   1.0000
     1.0000

          k =-0.0700-0.3502 0.4903 ( 10204 PWs)   bands (ev):

    -5.7935  -3.3013  -3.2904  -3.1668  -3.1457  -2.7324   0.8289   2.5449
     3.5529

     occupation numbers 
     1.0000   1.0000   1.0000   1.0000   1.0000   1.0000   1.0000   1.0000
     1.0000

          k = 0.0000-0.2802 0.4203 ( 10208 PWs)   bands (ev):

    -5.8473  -3.3115  -3.3048  -3.1724  -3.1427  -2.8737   1.1647   2.7763
     3.8131

     occupation numbers 
     1.0000   1.0000   1.0000   1.0000   1.0000   1.0000   1.0000   1.0000
     1.0000

          k =-0.1401-0.5603 0.7004 ( 10195 PWs)   bands (ev):

    -5.7824  -3.2703  -3.2671  -3.2122  -3.1268  -2.7744   0.9001   2.9370
     3.1288

     occupation numbers 
     1.0000   1.0000   1.0000   1.0000   1.0000   1.0000   1.0000   1.0000
     1.0000

          k =-0.0700-0.4903 0.6304 ( 10207 PWs)   bands (ev):

    -5.7544  -3.2764  -3.2635  -3.1952  -3.1334  -2.6681   0.7380   2.5757
     3.0789

     occupation numbers 
     1.0000   1.0000   1.0000   1.0000   1.0000   1.0000   1.0000   1.0000
     1.0000

          k = 0.0000-0.4203 0.5603 ( 10193 PWs)   bands (ev):

    -5.7587  -3.2878  -3.2713  -3.1774  -3.1431  -2.6529   0.7567   2.3458
     3.2548

     occupation numbers 
     1.0000   1.0000   1.0000   1.0000   1.0000   1.0000   1.0000   1.0000
     1.0000

          k =-0.7004 0.1401 0.0000 ( 10224 PWs)   bands (ev):

    -5.7432  -3.2594  -3.2529  -3.2127  -3.1256  -2.6660   0.6565   2.8611
     2.9050

     occupation numbers 
     1.0000   1.0000   1.0000   1.0000   1.0000   1.0000   1.0000   1.0000
     1.0000

          k =-0.1401-0.4203 0.7004 ( 10230 PWs)   bands (ev):

    -5.7720  -3.2861  -3.2779  -3.1815  -3.1404  -2.6997   0.8341   2.5516
     3.1537

     occupation numbers 
     1.0000   1.0000   1.0000   1.0000   1.0000   1.0000   1.0000   1.0000
     1.0000

          k =-0.0700-0.3502 0.6304 ( 10214 PWs)   bands (ev):

    -5.7547  -3.2841  -3.2724  -3.1744  -3.1463  -2.6432   0.7553   2.4559
     3.0079

     occupation numbers 
     1.0000   1.0000   1.0000   1.0000   1.0000   1.0000   1.0000   1.0000
     1.0000

          k =-0.7004 0.2802 0.0000 ( 10200 PWs)   bands (ev):

    -5.7440  -3.2734  -3.2685  -3.1831  -3.1417  -2.6253   0.7257   2.6175
     2.7356

     occupation numbers 
     1.0000   1.0000   1.0000   1.0000   1.0000   1.0000   1.0000   1.0000
     1.0000

     highest occupied level (ev):     4.7916

!    total energy              =    -128.97948077 Ry
     estimated scf accuracy    <          2.4E-13 Ry

     The total energy is the sum of the following terms:
     one-electron contribution =     -49.88056384 Ry
     hartree contribution      =      36.45356682 Ry
     xc contribution           =     -39.47569057 Ry
     ewald contribution        =     -76.07679318 Ry

     convergence has been achieved in  22 iterations

     Forces acting on atoms (cartesian axes, Ry/au):

     atom    1 type  1   force =    -0.00000000    0.00000000    0.00000000
     atom    2 type  2   force =     0.00000000   -0.00000000   -0.00000000
     The non-local contrib.  to forces
     atom    1 type  1   force =     0.00000000    0.00000000   -0.00000000
     atom    2 type  2   force =    -0.00000000   -0.00000000   -0.00000000
     The ionic contribution  to forces
     atom    1 type  1   force =     0.00000000   -0.00000000    0.00000000
     atom    2 type  2   force =    -0.00000000    0.00000000   -0.00000000
     The local contribution  to forces
     atom    1 type  1   force =     0.00000000   -0.00000000   -0.00000000
     atom    2 type  2   force =    -0.00000000   -0.00000000   -0.00000000
     The core correction contribution to forces
     atom    1 type  1   force =     0.00000000   -0.00000000    0.00000000
     atom    2 type  2   force =    -0.00000000   -0.00000000    0.00000000
     The Hubbard contrib.    to forces
     atom    1 type  1   force =     0.00000000    0.00000000    0.00000000
     atom    2 type  2   force =     0.00000000    0.00000000    0.00000000
     The SCF correction term to forces
     atom    1 type  1   force =     0.00000000    0.00000000   -0.00000000
     atom    2 type  2   force =    -0.00000000    0.00000000    0.00000000

     Total force =     0.000000     Total SCF correction =     0.000000


     Computing stress (Cartesian axis) and pressure

          total   stress  (Ry/bohr**3)                   (kbar)     P=       13.96
   0.00009493   0.00000000  -0.00000000           13.96        0.00       -0.00
   0.00000000   0.00009493  -0.00000000            0.00       13.96       -0.00
  -0.00000000  -0.00000000   0.00009493           -0.00       -0.00       13.96

     kinetic stress (kbar)   9318.16      0.00      0.00
                                0.00   9318.16      0.00
                                0.00      0.00   9318.16

     local   stress (kbar)    591.60     -0.00      0.00
                               -0.00    591.60      0.00
                                0.00      0.00    591.60

     nonloc. stress (kbar)  -3507.26      0.00      0.00
                                0.00  -3507.26     -0.00
                                0.00      0.00  -3507.26

     hartree stress (kbar)   3781.25      0.00      0.00
                                0.00   3781.25     -0.00
                                0.00     -0.00   3781.25

     exc-cor stress (kbar)   4360.52     -0.00      0.00
                               -0.00   4360.52     -0.00
                                0.00     -0.00   4360.52

     corecor stress (kbar)  -6639.03      0.00     -0.00
                                0.00  -6639.03     -0.00
                               -0.00     -0.00  -6639.03

     ewald   stress (kbar)  -7891.27      0.00      0.00
                                0.00  -7891.27      0.00
                                0.00      0.00  -7891.27

     hubbard stress (kbar)      0.00      0.00      0.00
                                0.00      0.00      0.00
                                0.00      0.00      0.00

     DFT-D   stress (kbar)      0.00      0.00      0.00
                                0.00      0.00      0.00
                                0.00      0.00      0.00

     XDM     stress (kbar)      0.00      0.00      0.00
                                0.00      0.00      0.00
                                0.00      0.00      0.00

     dft-nl  stress (kbar)      0.00      0.00      0.00
                                0.00      0.00      0.00
                                0.00      0.00      0.00

     TS-vdW  stress (kbar)      0.00      0.00      0.00
                                0.00      0.00      0.00
                                0.00      0.00      0.00

     MDB     stress (kbar)      0.00      0.00      0.00
                                0.00      0.00      0.00
                                0.00      0.00      0.00

     3D-RISM stress (kbar)      0.00      0.00      0.00
                                0.00      0.00      0.00
                                0.00      0.00      0.00

     Energy error            =      8.1E-04 Ry
     Gradient error          =      5.5E-31 Ry/Bohr
     Cell gradient error     =      1.4E+01 kbar

     number of scf cycles    =   3
     number of bfgs steps    =   2

     enthalpy           old  =    -128.9786679734 Ry
     enthalpy           new  =    -128.9794807747 Ry

     CASE: enthalpy          _new < enthalpy          _old

     new trust radius        =       0.0322278216 bohr
     new conv_thr            =            1.0E-12 Ry

     new unit-cell volume =    483.31697 a.u.^3 (    71.62019 Ang^3 )
     density =      5.56481 g/cm^3

CELL_PARAMETERS (angstrom)
   0.000000000   3.296110898   3.296110898
   3.296110898   0.000000000   3.296110898
   3.296110898   3.296110898   0.000000000

ATOMIC_POSITIONS (crystal)
Cd               0.0000000000       -0.0000000000       -0.0000000000
Te               0.2500000000        0.2500000000        0.2500000000



     Writing config-only to output data dir /home/User/opencode_workspace/DFT/calculations/cdte/relax_nosoc/out/pwscf.save/ :
     XML data file
     NEW-OLD atomic charge density approx. for the potential
     New effective cutoffs (rho, wfc):  696.01  116.01

     total cpu time spent up to now is      180.2 secs

     per-process dynamical memory:    54.6 Mb

     Self-consistent Calculation

     iteration #  1     ecut=   120.00 Ry     beta= 0.30
     Davidson diagonalization with overlap

---- Real-time Memory Report at c_bands before calling an iterative solver
           171 MiB given to the printing process from OS
            53 MiB allocation reported by mallinfo(arena+hblkhd)
          1304 MiB available memory on the node where the printing process lives
------------------
     ethr =  1.00E-06,  avg # of iterations =  8.3

     Threshold (ethr) on eigenvalues was too large:
     Diagonalizing with lowered threshold

     Davidson diagonalization with overlap

---- Real-time Memory Report at c_bands before calling an iterative solver
           171 MiB given to the printing process from OS
            53 MiB allocation reported by mallinfo(arena+hblkhd)
          1322 MiB available memory on the node where the printing process lives
------------------
     ethr =  8.54E-08,  avg # of iterations =  3.8

     total cpu time spent up to now is      185.0 secs

     total energy              =    -128.98015925 Ry
     estimated scf accuracy    <       0.00001873 Ry

     iteration #  2     ecut=   120.00 Ry     beta= 0.30
     Davidson diagonalization with overlap

---- Real-time Memory Report at c_bands before calling an iterative solver
           171 MiB given to the printing process from OS
            58 MiB allocation reported by mallinfo(arena+hblkhd)
          1304 MiB available memory on the node where the printing process lives
------------------
     ethr =  1.04E-07,  avg # of iterations =  1.1

     total cpu time spent up to now is      186.5 secs

     total energy              =    -128.98015844 Ry
     estimated scf accuracy    <       0.00000705 Ry

     iteration #  3     ecut=   120.00 Ry     beta= 0.30
     Davidson diagonalization with overlap

---- Real-time Memory Report at c_bands before calling an iterative solver
           171 MiB given to the printing process from OS
            59 MiB allocation reported by mallinfo(arena+hblkhd)
          1294 MiB available memory on the node where the printing process lives
------------------
     ethr =  3.91E-08,  avg # of iterations =  2.5

     total cpu time spent up to now is      188.2 secs

     total energy              =    -128.98016040 Ry
     estimated scf accuracy    <       0.00000049 Ry

     iteration #  4     ecut=   120.00 Ry     beta= 0.30
     Davidson diagonalization with overlap

---- Real-time Memory Report at c_bands before calling an iterative solver
           171 MiB given to the printing process from OS
            59 MiB allocation reported by mallinfo(arena+hblkhd)
          1289 MiB available memory on the node where the printing process lives
------------------
     ethr =  2.71E-09,  avg # of iterations =  6.1

     total cpu time spent up to now is      190.2 secs

     total energy              =    -128.98016099 Ry
     estimated scf accuracy    <       0.00000014 Ry

     iteration #  5     ecut=   120.00 Ry     beta= 0.30
     Davidson diagonalization with overlap

---- Real-time Memory Report at c_bands before calling an iterative solver
           171 MiB given to the printing process from OS
            60 MiB allocation reported by mallinfo(arena+hblkhd)
          1285 MiB available memory on the node where the printing process lives
------------------
     ethr =  7.71E-10,  avg # of iterations =  2.9

     total cpu time spent up to now is      191.8 secs

     total energy              =    -128.98016115 Ry
     estimated scf accuracy    <       0.00000005 Ry

     iteration #  6     ecut=   120.00 Ry     beta= 0.30
     Davidson diagonalization with overlap

---- Real-time Memory Report at c_bands before calling an iterative solver
           171 MiB given to the printing process from OS
            60 MiB allocation reported by mallinfo(arena+hblkhd)
          1268 MiB available memory on the node where the printing process lives
------------------
     ethr =  3.03E-10,  avg # of iterations =  4.1

     total cpu time spent up to now is      193.8 secs

     total energy              =    -128.98016124 Ry
     estimated scf accuracy    <          9.8E-09 Ry

     iteration #  7     ecut=   120.00 Ry     beta= 0.30
     Davidson diagonalization with overlap

---- Real-time Memory Report at c_bands before calling an iterative solver
           171 MiB given to the printing process from OS
            60 MiB allocation reported by mallinfo(arena+hblkhd)
          1211 MiB available memory on the node where the printing process lives
------------------
     ethr =  5.43E-11,  avg # of iterations =  5.1

     total cpu time spent up to now is      196.4 secs

     total energy              =    -128.98016127 Ry
     estimated scf accuracy    <       0.00000005 Ry

     iteration #  8     ecut=   120.00 Ry     beta= 0.30
     Davidson diagonalization with overlap

---- Real-time Memory Report at c_bands before calling an iterative solver
           171 MiB given to the printing process from OS
            61 MiB allocation reported by mallinfo(arena+hblkhd)
          1266 MiB available memory on the node where the printing process lives
------------------
     ethr =  5.43E-11,  avg # of iterations =  1.9

     total cpu time spent up to now is      198.2 secs

     total energy              =    -128.98016127 Ry
     estimated scf accuracy    <       0.00000003 Ry

     iteration #  9     ecut=   120.00 Ry     beta= 0.30
     Davidson diagonalization with overlap

---- Real-time Memory Report at c_bands before calling an iterative solver
           171 MiB given to the printing process from OS
            61 MiB allocation reported by mallinfo(arena+hblkhd)
          1260 MiB available memory on the node where the printing process lives
------------------
     ethr =  5.43E-11,  avg # of iterations =  6.1

     total cpu time spent up to now is      201.2 secs

     total energy              =    -128.98016129 Ry
     estimated scf accuracy    <          5.2E-10 Ry

     iteration # 10     ecut=   120.00 Ry     beta= 0.30
     Davidson diagonalization with overlap

---- Real-time Memory Report at c_bands before calling an iterative solver
           171 MiB given to the printing process from OS
            62 MiB allocation reported by mallinfo(arena+hblkhd)
          1264 MiB available memory on the node where the printing process lives
------------------
     ethr =  2.90E-12,  avg # of iterations =  7.3

     total cpu time spent up to now is      203.8 secs

     total energy              =    -128.98016129 Ry
     estimated scf accuracy    <          1.9E-09 Ry

     iteration # 11     ecut=   120.00 Ry     beta= 0.30
     Davidson diagonalization with overlap

---- Real-time Memory Report at c_bands before calling an iterative solver
           171 MiB given to the printing process from OS
            62 MiB allocation reported by mallinfo(arena+hblkhd)
          1264 MiB available memory on the node where the printing process lives
------------------
     ethr =  2.90E-12,  avg # of iterations =  5.0

     total cpu time spent up to now is      206.2 secs

     total energy              =    -128.98016130 Ry
     estimated scf accuracy    <          4.8E-09 Ry

     iteration # 12     ecut=   120.00 Ry     beta= 0.30
     Davidson diagonalization with overlap

---- Real-time Memory Report at c_bands before calling an iterative solver
           171 MiB given to the printing process from OS
            62 MiB allocation reported by mallinfo(arena+hblkhd)
          1279 MiB available memory on the node where the printing process lives
------------------
     ethr =  2.90E-12,  avg # of iterations =  3.3

     total cpu time spent up to now is      208.3 secs

     total energy              =    -128.98016130 Ry
     estimated scf accuracy    <          5.7E-09 Ry

     iteration # 13     ecut=   120.00 Ry     beta= 0.30
     Davidson diagonalization with overlap

---- Real-time Memory Report at c_bands before calling an iterative solver
           171 MiB given to the printing process from OS
            62 MiB allocation reported by mallinfo(arena+hblkhd)
          1278 MiB available memory on the node where the printing process lives
------------------
     ethr =  2.90E-12,  avg # of iterations =  1.2

     total cpu time spent up to now is      209.9 secs

     total energy              =    -128.98016130 Ry
     estimated scf accuracy    <          4.8E-09 Ry

     iteration # 14     ecut=   120.00 Ry     beta= 0.30
     Davidson diagonalization with overlap

---- Real-time Memory Report at c_bands before calling an iterative solver
           171 MiB given to the printing process from OS
            62 MiB allocation reported by mallinfo(arena+hblkhd)
          1269 MiB available memory on the node where the printing process lives
------------------
     ethr =  2.90E-12,  avg # of iterations =  1.0

     total cpu time spent up to now is      212.1 secs

     total energy              =    -128.98016130 Ry
     estimated scf accuracy    <          4.5E-09 Ry

     iteration # 15     ecut=   120.00 Ry     beta= 0.30
     Davidson diagonalization with overlap

---- Real-time Memory Report at c_bands before calling an iterative solver
           171 MiB given to the printing process from OS
            62 MiB allocation reported by mallinfo(arena+hblkhd)
          1266 MiB available memory on the node where the printing process lives
------------------
     ethr =  2.90E-12,  avg # of iterations =  1.0

     total cpu time spent up to now is      214.0 secs

     total energy              =    -128.98016130 Ry
     estimated scf accuracy    <          4.3E-09 Ry

     iteration # 16     ecut=   120.00 Ry     beta= 0.30
     Davidson diagonalization with overlap

---- Real-time Memory Report at c_bands before calling an iterative solver
           171 MiB given to the printing process from OS
            62 MiB allocation reported by mallinfo(arena+hblkhd)
          1268 MiB available memory on the node where the printing process lives
------------------
     ethr =  2.90E-12,  avg # of iterations =  1.0

     total cpu time spent up to now is      215.5 secs

     total energy              =    -128.98016130 Ry
     estimated scf accuracy    <          4.2E-09 Ry

     iteration # 17     ecut=   120.00 Ry     beta= 0.30
     Davidson diagonalization with overlap

---- Real-time Memory Report at c_bands before calling an iterative solver
           171 MiB given to the printing process from OS
            62 MiB allocation reported by mallinfo(arena+hblkhd)
          1280 MiB available memory on the node where the printing process lives
------------------
     ethr =  2.90E-12,  avg # of iterations =  1.3

     total cpu time spent up to now is      217.0 secs

     total energy              =    -128.98016130 Ry
     estimated scf accuracy    <          3.8E-09 Ry

     iteration # 18     ecut=   120.00 Ry     beta= 0.30
     Davidson diagonalization with overlap

---- Real-time Memory Report at c_bands before calling an iterative solver
           171 MiB given to the printing process from OS
            62 MiB allocation reported by mallinfo(arena+hblkhd)
          1280 MiB available memory on the node where the printing process lives
------------------
     ethr =  2.90E-12,  avg # of iterations =  1.0

     total cpu time spent up to now is      218.7 secs

     total energy              =    -128.98016129 Ry
     estimated scf accuracy    <          3.7E-09 Ry

     iteration # 19     ecut=   120.00 Ry     beta= 0.30
     Davidson diagonalization with overlap

---- Real-time Memory Report at c_bands before calling an iterative solver
           171 MiB given to the printing process from OS
            62 MiB allocation reported by mallinfo(arena+hblkhd)
          1280 MiB available memory on the node where the printing process lives
------------------
     ethr =  2.90E-12,  avg # of iterations =  7.4

     total cpu time spent up to now is      222.1 secs

     total energy              =    -128.98016130 Ry
     estimated scf accuracy    <          1.4E-10 Ry

     iteration # 20     ecut=   120.00 Ry     beta= 0.30
     Davidson diagonalization with overlap

---- Real-time Memory Report at c_bands before calling an iterative solver
           171 MiB given to the printing process from OS
            62 MiB allocation reported by mallinfo(arena+hblkhd)
          1266 MiB available memory on the node where the printing process lives
------------------
     ethr =  7.67E-13,  avg # of iterations =  2.4

     total cpu time spent up to now is      223.9 secs

     total energy              =    -128.98016130 Ry
     estimated scf accuracy    <          2.5E-10 Ry

     iteration # 21     ecut=   120.00 Ry     beta= 0.30
     Davidson diagonalization with overlap

---- Real-time Memory Report at c_bands before calling an iterative solver
           171 MiB given to the printing process from OS
            62 MiB allocation reported by mallinfo(arena+hblkhd)
          1260 MiB available memory on the node where the printing process lives
------------------
     ethr =  7.67E-13,  avg # of iterations =  2.0

     total cpu time spent up to now is      225.8 secs

     total energy              =    -128.98016130 Ry
     estimated scf accuracy    <          2.9E-10 Ry

     iteration # 22     ecut=   120.00 Ry     beta= 0.30
     Davidson diagonalization with overlap

---- Real-time Memory Report at c_bands before calling an iterative solver
           171 MiB given to the printing process from OS
            62 MiB allocation reported by mallinfo(arena+hblkhd)
          1302 MiB available memory on the node where the printing process lives
------------------
     ethr =  7.67E-13,  avg # of iterations =  1.2

     total cpu time spent up to now is      227.5 secs

     total energy              =    -128.98016130 Ry
     estimated scf accuracy    <          2.9E-10 Ry

     iteration # 23     ecut=   120.00 Ry     beta= 0.30
     Davidson diagonalization with overlap

---- Real-time Memory Report at c_bands before calling an iterative solver
           171 MiB given to the printing process from OS
            62 MiB allocation reported by mallinfo(arena+hblkhd)
          1266 MiB available memory on the node where the printing process lives
------------------
     ethr =  7.67E-13,  avg # of iterations =  1.6

     total cpu time spent up to now is      229.2 secs

     total energy              =    -128.98016129 Ry
     estimated scf accuracy    <          4.9E-10 Ry

     iteration # 24     ecut=   120.00 Ry     beta= 0.30
     Davidson diagonalization with overlap

---- Real-time Memory Report at c_bands before calling an iterative solver
           171 MiB given to the printing process from OS
            62 MiB allocation reported by mallinfo(arena+hblkhd)
          1266 MiB available memory on the node where the printing process lives
------------------
     ethr =  7.67E-13,  avg # of iterations =  3.0

     total cpu time spent up to now is      231.6 secs

     total energy              =    -128.98016130 Ry
     estimated scf accuracy    <          7.8E-11 Ry

     iteration # 25     ecut=   120.00 Ry     beta= 0.30
     Davidson diagonalization with overlap

---- Real-time Memory Report at c_bands before calling an iterative solver
           171 MiB given to the printing process from OS
            62 MiB allocation reported by mallinfo(arena+hblkhd)
          1341 MiB available memory on the node where the printing process lives
------------------
     ethr =  4.34E-13,  avg # of iterations =  4.9

     total cpu time spent up to now is      233.9 secs

     total energy              =    -128.98016130 Ry
     estimated scf accuracy    <          1.7E-10 Ry

     iteration # 26     ecut=   120.00 Ry     beta= 0.30
     Davidson diagonalization with overlap

---- Real-time Memory Report at c_bands before calling an iterative solver
           171 MiB given to the printing process from OS
            62 MiB allocation reported by mallinfo(arena+hblkhd)
          1267 MiB available memory on the node where the printing process lives
------------------
     ethr =  4.34E-13,  avg # of iterations =  6.2

     total cpu time spent up to now is      237.0 secs

     total energy              =    -128.98016130 Ry
     estimated scf accuracy    <          1.6E-09 Ry

     iteration # 27     ecut=   120.00 Ry     beta= 0.30
     Davidson diagonalization with overlap

---- Real-time Memory Report at c_bands before calling an iterative solver
           171 MiB given to the printing process from OS
            62 MiB allocation reported by mallinfo(arena+hblkhd)
          1278 MiB available memory on the node where the printing process lives
------------------
     ethr =  4.34E-13,  avg # of iterations =  5.1

     total cpu time spent up to now is      239.9 secs

     total energy              =    -128.98016130 Ry
     estimated scf accuracy    <          6.8E-10 Ry

     iteration # 28     ecut=   120.00 Ry     beta= 0.30
     Davidson diagonalization with overlap

---- Real-time Memory Report at c_bands before calling an iterative solver
           171 MiB given to the printing process from OS
            62 MiB allocation reported by mallinfo(arena+hblkhd)
          1271 MiB available memory on the node where the printing process lives
------------------
     ethr =  4.34E-13,  avg # of iterations =  2.0

     total cpu time spent up to now is      241.6 secs

     total energy              =    -128.98016129 Ry
     estimated scf accuracy    <          5.2E-10 Ry

     iteration # 29     ecut=   120.00 Ry     beta= 0.30
     Davidson diagonalization with overlap

---- Real-time Memory Report at c_bands before calling an iterative solver
           171 MiB given to the printing process from OS
            62 MiB allocation reported by mallinfo(arena+hblkhd)
          1287 MiB available memory on the node where the printing process lives
------------------
     ethr =  4.34E-13,  avg # of iterations =  7.4

     total cpu time spent up to now is      244.4 secs

     total energy              =    -128.98016129 Ry
     estimated scf accuracy    <          2.0E-10 Ry

     iteration # 30     ecut=   120.00 Ry     beta= 0.30
     Davidson diagonalization with overlap

---- Real-time Memory Report at c_bands before calling an iterative solver
           171 MiB given to the printing process from OS
            62 MiB allocation reported by mallinfo(arena+hblkhd)
          1267 MiB available memory on the node where the printing process lives
------------------
     ethr =  4.34E-13,  avg # of iterations =  5.4

     total cpu time spent up to now is      246.7 secs

     total energy              =    -128.98016130 Ry
     estimated scf accuracy    <          4.0E-11 Ry

     iteration # 31     ecut=   120.00 Ry     beta= 0.30
     Davidson diagonalization with overlap

---- Real-time Memory Report at c_bands before calling an iterative solver
           171 MiB given to the printing process from OS
            62 MiB allocation reported by mallinfo(arena+hblkhd)
          1288 MiB available memory on the node where the printing process lives
------------------
     ethr =  2.21E-13,  avg # of iterations =  1.6

     total cpu time spent up to now is      248.5 secs

     total energy              =    -128.98016130 Ry
     estimated scf accuracy    <          8.9E-12 Ry

     iteration # 32     ecut=   120.00 Ry     beta= 0.30
     Davidson diagonalization with overlap

---- Real-time Memory Report at c_bands before calling an iterative solver
           171 MiB given to the printing process from OS
            62 MiB allocation reported by mallinfo(arena+hblkhd)
          1267 MiB available memory on the node where the printing process lives
------------------
     ethr =  1.00E-13,  avg # of iterations =  2.1

     total cpu time spent up to now is      250.3 secs

     total energy              =    -128.98016130 Ry
     estimated scf accuracy    <          2.4E-12 Ry

     iteration # 33     ecut=   120.00 Ry     beta= 0.30
     Davidson diagonalization with overlap

---- Real-time Memory Report at c_bands before calling an iterative solver
           171 MiB given to the printing process from OS
            62 MiB allocation reported by mallinfo(arena+hblkhd)
          1265 MiB available memory on the node where the printing process lives
------------------
     ethr =  1.00E-13,  avg # of iterations =  1.2

     total cpu time spent up to now is      251.8 secs

     total energy              =    -128.98016130 Ry
     estimated scf accuracy    <          1.7E-12 Ry

     iteration # 34     ecut=   120.00 Ry     beta= 0.30
     Davidson diagonalization with overlap

---- Real-time Memory Report at c_bands before calling an iterative solver
           171 MiB given to the printing process from OS
            62 MiB allocation reported by mallinfo(arena+hblkhd)
          1259 MiB available memory on the node where the printing process lives
------------------
     ethr =  1.00E-13,  avg # of iterations =  1.3

     total cpu time spent up to now is      253.2 secs

     total energy              =    -128.98016130 Ry
     estimated scf accuracy    <          2.4E-12 Ry

     iteration # 35     ecut=   120.00 Ry     beta= 0.30
     Davidson diagonalization with overlap

---- Real-time Memory Report at c_bands before calling an iterative solver
           171 MiB given to the printing process from OS
            62 MiB allocation reported by mallinfo(arena+hblkhd)
          1275 MiB available memory on the node where the printing process lives
------------------
     ethr =  1.00E-13,  avg # of iterations =  1.0

     total cpu time spent up to now is      254.7 secs

     total energy              =    -128.98016130 Ry
     estimated scf accuracy    <          3.8E-12 Ry

     iteration # 36     ecut=   120.00 Ry     beta= 0.30
     Davidson diagonalization with overlap

---- Real-time Memory Report at c_bands before calling an iterative solver
           171 MiB given to the printing process from OS
            62 MiB allocation reported by mallinfo(arena+hblkhd)
          1289 MiB available memory on the node where the printing process lives
------------------
     ethr =  1.00E-13,  avg # of iterations =  1.0

     total cpu time spent up to now is      256.2 secs

     total energy              =    -128.98016130 Ry
     estimated scf accuracy    <          1.6E-12 Ry

     iteration # 37     ecut=   120.00 Ry     beta= 0.30
     Davidson diagonalization with overlap

---- Real-time Memory Report at c_bands before calling an iterative solver
           171 MiB given to the printing process from OS
            62 MiB allocation reported by mallinfo(arena+hblkhd)
          1285 MiB available memory on the node where the printing process lives
------------------
     ethr =  1.00E-13,  avg # of iterations =  1.0

     total cpu time spent up to now is      257.6 secs

     End of self-consistent calculation

          k = 0.0000 0.0000 0.0000 ( 10177 PWs)   bands (ev):

    -6.3595  -3.5720  -3.5720  -3.5720  -3.3469  -3.3469   4.5412   4.5412
     4.5412

     occupation numbers 
     1.0000   1.0000   1.0000   1.0000   1.0000   1.0000   1.0000   1.0000
     1.0000

          k = 0.0695 0.0695-0.0695 ( 10168 PWs)   bands (ev):

    -6.3257  -3.5657  -3.5657  -3.5447  -3.3474  -3.3474   3.6389   4.4596
     4.4596

     occupation numbers 
     1.0000   1.0000   1.0000   1.0000   1.0000   1.0000   1.0000   1.0000
     1.0000

          k = 0.1391 0.1391-0.1391 ( 10141 PWs)   bands (ev):

    -6.2371  -3.5500  -3.5500  -3.4573  -3.3475  -3.3475   2.4862   4.2641
     4.2641

     occupation numbers 
     1.0000   1.0000   1.0000   1.0000   1.0000   1.0000   1.0000   1.0000
     1.0000

          k = 0.2086 0.2086-0.2086 ( 10180 PWs)   bands (ev):

    -6.1279  -3.5328  -3.5328  -3.3452  -3.3452  -3.3052   1.4484   4.0503
     4.0503

     occupation numbers 
     1.0000   1.0000   1.0000   1.0000   1.0000   1.0000   1.0000   1.0000
     1.0000

          k = 0.2781 0.2781-0.2781 ( 10197 PWs)   bands (ev):

    -6.0407  -3.5211  -3.5211  -3.3407  -3.3407  -3.1253   0.6861   3.8940
     3.8940

     occupation numbers 
     1.0000   1.0000   1.0000   1.0000   1.0000   1.0000   1.0000   1.0000
     1.0000

          k =-0.3476-0.3476 0.3476 ( 10200 PWs)   bands (ev):

    -6.0079  -3.5172  -3.5172  -3.3383  -3.3383  -3.0351   0.3934   3.8376
     3.8376

     occupation numbers 
     1.0000   1.0000   1.0000   1.0000   1.0000   1.0000   1.0000   1.0000
     1.0000

          k = 0.1391 0.0000 0.0000 ( 10161 PWs)   bands (ev):

    -6.3145  -3.5597  -3.5597  -3.5435  -3.3507  -3.3443   3.5884   4.3155
     4.3155

     occupation numbers 
     1.0000   1.0000   1.0000   1.0000   1.0000   1.0000   1.0000   1.0000
     1.0000

          k = 0.2086 0.0695-0.0695 ( 10180 PWs)   bands (ev):

    -6.2443  -3.5483  -3.5438  -3.4797  -3.3522  -3.3419   2.7275   4.0838
     4.1358

     occupation numbers 
     1.0000   1.0000   1.0000   1.0000   1.0000   1.0000   1.0000   1.0000
     1.0000

          k = 0.2781 0.1391-0.1391 ( 10192 PWs)   bands (ev):

    -6.1422  -3.5333  -3.5256  -3.3758  -3.3393  -3.3231   1.7379   3.8668
     3.8874

     occupation numbers 
     1.0000   1.0000   1.0000   1.0000   1.0000   1.0000   1.0000   1.0000
     1.0000

          k = 0.3476 0.2086-0.2086 ( 10195 PWs)   bands (ev):

    -6.0482  -3.5200  -3.5129  -3.3554  -3.3367  -3.1591   0.9155   3.6308
     3.7349

     occupation numbers 
     1.0000   1.0000   1.0000   1.0000   1.0000   1.0000   1.0000   1.0000
     1.0000

          k =-0.2781-0.4172 0.4172 ( 10176 PWs)   bands (ev):

    -5.9979  -3.5128  -3.5086  -3.3463  -3.3374  -3.0265   0.4688   3.4497
     3.7212

     occupation numbers 
     1.0000   1.0000   1.0000   1.0000   1.0000   1.0000   1.0000   1.0000
     1.0000

          k =-0.2086-0.3476 0.3476 ( 10191 PWs)   bands (ev):

    -6.0087  -3.5126  -3.5122  -3.3430  -3.3421  -3.0567   0.5653   3.3903
     3.8278

     occupation numbers 
     1.0000   1.0000   1.0000   1.0000   1.0000   1.0000   1.0000   1.0000
     1.0000

          k =-0.1391-0.2781 0.2781 ( 10197 PWs)   bands (ev):

    -6.0770  -3.5247  -3.5185  -3.3499  -3.3451  -3.2173   1.1609   3.4738
     4.0270

     occupation numbers 
     1.0000   1.0000   1.0000   1.0000   1.0000   1.0000   1.0000   1.0000
     1.0000

          k =-0.0695-0.2086 0.2086 ( 10181 PWs)   bands (ev):

    -6.1784  -3.5424  -3.5322  -3.3977  -3.3528  -3.3357   2.0489   3.7040
     4.2599

     occupation numbers 
     1.0000   1.0000   1.0000   1.0000   1.0000   1.0000   1.0000   1.0000
     1.0000

          k = 0.0000-0.1391 0.1391 ( 10145 PWs)   bands (ev):

    -6.2737  -3.5587  -3.5503  -3.5011  -3.3510  -3.3441   2.9870   4.0751
     4.4351

     occupation numbers 
     1.0000   1.0000   1.0000   1.0000   1.0000   1.0000   1.0000   1.0000
     1.0000

          k = 0.2781 0.0000 0.0000 ( 10197 PWs)   bands (ev):

    -6.1970  -3.5266  -3.5266  -3.4605  -3.3496  -3.3372   2.4780   3.8189
     3.8189

     occupation numbers 
     1.0000   1.0000   1.0000   1.0000   1.0000   1.0000   1.0000   1.0000
     1.0000

          k = 0.3476 0.0695-0.0695 ( 10207 PWs)   bands (ev):

    -6.1138  -3.5119  -3.5063  -3.4058  -3.3335  -3.3006   1.8112   3.5233
     3.5815

     occupation numbers 
     1.0000   1.0000   1.0000   1.0000   1.0000   1.0000   1.0000   1.0000
     1.0000

          k = 0.4172 0.1391-0.1391 ( 10199 PWs)   bands (ev):

    -6.0277  -3.5029  -3.4915  -3.3824  -3.3316  -3.1531   1.1109   3.1574
     3.4452

     occupation numbers 
     1.0000   1.0000   1.0000   1.0000   1.0000   1.0000   1.0000   1.0000
     1.0000

          k =-0.2086-0.4867 0.4867 ( 10212 PWs)   bands (ev):

    -5.9715  -3.4984  -3.4862  -3.3671  -3.3343  -3.0019   0.6335   2.8381
     3.4442

     occupation numbers 
     1.0000   1.0000   1.0000   1.0000   1.0000   1.0000   1.0000   1.0000
     1.0000

          k =-0.1391-0.4172 0.4172 ( 10205 PWs)   bands (ev):

    -5.9650  -3.4982  -3.4907  -3.3547  -3.3423  -2.9723   0.5701   2.6647
     3.5779

     occupation numbers 
     1.0000   1.0000   1.0000   1.0000   1.0000   1.0000   1.0000   1.0000
     1.0000

          k =-0.0695-0.3476 0.3476 ( 10196 PWs)   bands (ev):

    -6.0101  -3.5046  -3.5026  -3.3512  -3.3497  -3.0899   0.9343   2.7088
     3.8122

     occupation numbers 
     1.0000   1.0000   1.0000   1.0000   1.0000   1.0000   1.0000   1.0000
     1.0000

          k = 0.0000-0.2781 0.2781 ( 10157 PWs)   bands (ev):

    -6.0913  -3.5244  -3.5136  -3.3550  -3.3545  -3.2499   1.5082   3.0533
     4.0754

     occupation numbers 
     1.0000   1.0000   1.0000   1.0000   1.0000   1.0000   1.0000   1.0000
     1.0000

          k = 0.4172 0.0000 0.0000 ( 10213 PWs)   bands (ev):

    -6.0540  -3.4833  -3.4833  -3.4165  -3.3285  -3.2348   1.4978   3.3175
     3.3175

     occupation numbers 
     1.0000   1.0000   1.0000   1.0000   1.0000   1.0000   1.0000   1.0000
     1.0000

          k = 0.4867 0.0695-0.0695 ( 10197 PWs)   bands (ev):

    -5.9868  -3.4725  -3.4658  -3.4092  -3.3259  -3.1080   1.0381   2.9937
     3.1576

     occupation numbers 
     1.0000   1.0000   1.0000   1.0000   1.0000   1.0000   1.0000   1.0000
     1.0000

          k =-0.1391-0.5562 0.5562 ( 10221 PWs)   bands (ev):

    -5.9384  -3.4749  -3.4592  -3.3926  -3.3287  -2.9659   0.6910   2.5571
     3.1423

     occupation numbers 
     1.0000   1.0000   1.0000   1.0000   1.0000   1.0000   1.0000   1.0000
     1.0000

          k =-0.0695-0.4867 0.4867 ( 10211 PWs)   bands (ev):

    -5.9258  -3.4816  -3.4647  -3.3740  -3.3374  -2.9009   0.5965   2.2394
     3.2749

     occupation numbers 
     1.0000   1.0000   1.0000   1.0000   1.0000   1.0000   1.0000   1.0000
     1.0000

          k =-0.0000-0.4172 0.4172 ( 10221 PWs)   bands (ev):

    -5.9528  -3.4904  -3.4813  -3.3589  -3.3468  -2.9599   0.7331   2.2472
     3.5227

     occupation numbers 
     1.0000   1.0000   1.0000   1.0000   1.0000   1.0000   1.0000   1.0000
     1.0000

          k = 0.5562 0.0000 0.0000 ( 10218 PWs)   bands (ev):

    -5.9421  -3.4462  -3.4462  -3.4257  -3.3215  -3.0244   0.7619   2.9666
     2.9666

     occupation numbers 
     1.0000   1.0000   1.0000   1.0000   1.0000   1.0000   1.0000   1.0000
     1.0000

          k =-0.0695-0.6258 0.6258 ( 10234 PWs)   bands (ev):

    -5.9111  -3.4500  -3.4388  -3.4148  -3.3220  -2.9298   0.5578   2.6988
     2.9217

     occupation numbers 
     1.0000   1.0000   1.0000   1.0000   1.0000   1.0000   1.0000   1.0000
     1.0000

          k = 0.0000-0.5562 0.5562 ( 10215 PWs)   bands (ev):

    -5.9052  -3.4645  -3.4453  -3.3953  -3.3289  -2.8794   0.5393   2.3267
     3.0334

     occupation numbers 
     1.0000   1.0000   1.0000   1.0000   1.0000   1.0000   1.0000   1.0000
     1.0000

          k =-0.6953 0.0000 0.0000 ( 10190 PWs)   bands (ev):

    -5.9007  -3.4315  -3.4315  -3.4313  -3.3188  -2.9138   0.4710   2.8418
     2.8418

     occupation numbers 
     1.0000   1.0000   1.0000   1.0000   1.0000   1.0000   1.0000   1.0000
     1.0000

          k = 0.2781 0.1391 0.0000 ( 10192 PWs)   bands (ev):

    -6.1675  -3.5339  -3.5238  -3.4113  -3.3461  -3.3328   2.1152   3.5648
     4.0383

     occupation numbers 
     1.0000   1.0000   1.0000   1.0000   1.0000   1.0000   1.0000   1.0000
     1.0000

          k = 0.3476 0.2086-0.0695 ( 10186 PWs)   bands (ev):

    -6.0736  -3.5176  -3.5075  -3.3717  -3.3388  -3.2266   1.3734   3.1711
     3.8327

     occupation numbers 
     1.0000   1.0000   1.0000   1.0000   1.0000   1.0000   1.0000   1.0000
     1.0000

          k =-0.2781-0.4172 0.5562 ( 10192 PWs)   bands (ev):

    -5.9991  -3.5058  -3.4980  -3.3600  -3.3380  -3.0612   0.7563   2.9671
     3.6295

     occupation numbers 
     1.0000   1.0000   1.0000   1.0000   1.0000   1.0000   1.0000   1.0000
     1.0000

          k =-0.2086-0.3476 0.4867 ( 10210 PWs)   bands (ev):

    -5.9711  -3.5021  -3.4946  -3.3533  -3.3399  -2.9795   0.5106   2.9074
     3.5463

     occupation numbers 
     1.0000   1.0000   1.0000   1.0000   1.0000   1.0000   1.0000   1.0000
     1.0000

          k = 0.4172 0.1391-0.0000 ( 10195 PWs)   bands (ev):

    -6.0388  -3.4950  -3.4877  -3.3959  -3.3310  -3.1914   1.3282   3.0743
     3.4337

     occupation numbers 
     1.0000   1.0000   1.0000   1.0000   1.0000   1.0000   1.0000   1.0000
     1.0000

          k =-0.2086-0.4867 0.6258 ( 10199 PWs)   bands (ev):

    -5.9722  -3.4865  -3.4764  -3.3837  -3.3322  -3.0378   0.8646   2.7039
     3.2526

     occupation numbers 
     1.0000   1.0000   1.0000   1.0000   1.0000   1.0000   1.0000   1.0000
     1.0000

          k =-0.1391-0.4172 0.5562 ( 10200 PWs)   bands (ev):

    -5.9384  -3.4859  -3.4726  -3.3696  -3.3383  -2.9287   0.6069   2.4494
     3.2137

     occupation numbers 
     1.0000   1.0000   1.0000   1.0000   1.0000   1.0000   1.0000   1.0000
     1.0000

          k =-0.0695-0.3476 0.4867 ( 10204 PWs)   bands (ev):

    -5.9488  -3.4892  -3.4791  -3.3628  -3.3432  -2.9513   0.6785   2.3798
     3.3544

     occupation numbers 
     1.0000   1.0000   1.0000   1.0000   1.0000   1.0000   1.0000   1.0000
     1.0000

          k = 0.0000-0.2781 0.4172 ( 10208 PWs)   bands (ev):

    -5.9998  -3.4990  -3.4925  -3.3678  -3.3404  -3.0820   0.9974   2.6051
     3.6040

     occupation numbers 
     1.0000   1.0000   1.0000   1.0000   1.0000   1.0000   1.0000   1.0000
     1.0000

          k =-0.1391-0.5562 0.6953 ( 10195 PWs)   bands (ev):

    -5.9384  -3.4601  -3.4574  -3.4045  -3.3257  -2.9893   0.7397   2.7608
     2.9466

     occupation numbers 
     1.0000   1.0000   1.0000   1.0000   1.0000   1.0000   1.0000   1.0000
     1.0000

          k =-0.0695-0.4867 0.6258 ( 10207 PWs)   bands (ev):

    -5.9117  -3.4658  -3.4541  -3.3891  -3.3318  -2.8916   0.5876   2.4125
     2.8986

     occupation numbers 
     1.0000   1.0000   1.0000   1.0000   1.0000   1.0000   1.0000   1.0000
     1.0000

          k = 0.0000-0.4172 0.5562 ( 10193 PWs)   bands (ev):

    -5.9158  -3.4765  -3.4613  -3.3727  -3.3407  -2.8779   0.6074   2.1904
     3.0678

     occupation numbers 
     1.0000   1.0000   1.0000   1.0000   1.0000   1.0000   1.0000   1.0000
     1.0000

          k =-0.6953 0.1391 0.0000 ( 10224 PWs)   bands (ev):

    -5.9011  -3.4492  -3.4446  -3.4055  -3.3245  -2.8897   0.5085   2.6865
     2.7323

     occupation numbers 
     1.0000   1.0000   1.0000   1.0000   1.0000   1.0000   1.0000   1.0000
     1.0000

          k =-0.1391-0.4172 0.6953 ( 10230 PWs)   bands (ev):

    -5.9284  -3.4754  -3.4669  -3.3764  -3.3382  -2.9207   0.6803   2.3884
     2.9712

     occupation numbers 
     1.0000   1.0000   1.0000   1.0000   1.0000   1.0000   1.0000   1.0000
     1.0000

          k =-0.0695-0.3476 0.6258 ( 10214 PWs)   bands (ev):

    -5.9120  -3.4734  -3.4619  -3.3701  -3.3435  -2.8689   0.6061   2.2957
     2.8312

     occupation numbers 
     1.0000   1.0000   1.0000   1.0000   1.0000   1.0000   1.0000   1.0000
     1.0000

          k =-0.6953 0.2781 0.0000 ( 10200 PWs)   bands (ev):

    -5.9019  -3.4637  -3.4578  -3.3781  -3.3394  -2.8523   0.5767   2.4497
     2.5719

     occupation numbers 
     1.0000   1.0000   1.0000   1.0000   1.0000   1.0000   1.0000   1.0000
     1.0000

     highest occupied level (ev):     4.5412

!    total energy              =    -128.98016130 Ry
     estimated scf accuracy    <          2.8E-13 Ry

     The total energy is the sum of the following terms:
     one-electron contribution =     -50.76549114 Ry
     hartree contribution      =      36.75997116 Ry
     xc contribution           =     -39.45752910 Ry
     ewald contribution        =     -75.51711221 Ry

     convergence has been achieved in  37 iterations

     Forces acting on atoms (cartesian axes, Ry/au):

     atom    1 type  1   force =    -0.00000000    0.00000000    0.00000000
     atom    2 type  2   force =     0.00000000   -0.00000000    0.00000000
     The non-local contrib.  to forces
     atom    1 type  1   force =    -0.00000000   -0.00000000    0.00000000
     atom    2 type  2   force =     0.00000000   -0.00000000   -0.00000000
     The ionic contribution  to forces
     atom    1 type  1   force =     0.00000000   -0.00000000   -0.00000000
     atom    2 type  2   force =    -0.00000000   -0.00000000   -0.00000000
     The local contribution  to forces
     atom    1 type  1   force =    -0.00000000   -0.00000000   -0.00000000
     atom    2 type  2   force =     0.00000000    0.00000000   -0.00000000
     The core correction contribution to forces
     atom    1 type  1   force =    -0.00000000    0.00000000    0.00000000
     atom    2 type  2   force =     0.00000000    0.00000000    0.00000000
     The Hubbard contrib.    to forces
     atom    1 type  1   force =     0.00000000    0.00000000    0.00000000
     atom    2 type  2   force =     0.00000000    0.00000000    0.00000000
     The SCF correction term to forces
     atom    1 type  1   force =     0.00000000    0.00000000    0.00000000
     atom    2 type  2   force =    -0.00000000    0.00000000   -0.00000000

     Total force =     0.000000     Total SCF correction =     0.000000


     Computing stress (Cartesian axis) and pressure

          total   stress  (Ry/bohr**3)                   (kbar)     P=        5.13
   0.00003487   0.00000000   0.00000000            5.13        0.00        0.00
   0.00000000   0.00003487  -0.00000000            0.00        5.13       -0.00
   0.00000000   0.00000000   0.00003487            0.00        0.00        5.13

     kinetic stress (kbar)   9111.12      0.00      0.00
                                0.00   9111.12      0.00
                                0.00      0.00   9111.12

     local   stress (kbar)    491.64      0.00     -0.00
                                0.00    491.64     -0.00
                               -0.00     -0.00    491.64

     nonloc. stress (kbar)  -3438.76     -0.00      0.00
                               -0.00  -3438.76      0.00
                                0.00      0.00  -3438.76

     hartree stress (kbar)   3729.49      0.00     -0.00
                                0.00   3729.49     -0.00
                               -0.00     -0.00   3729.49

     exc-cor stress (kbar)   4266.23      0.00     -0.00
                                0.00   4266.23     -0.00
                               -0.00     -0.00   4266.23

     corecor stress (kbar)  -6493.00      0.00      0.00
                                0.00  -6493.00      0.00
                                0.00      0.00  -6493.00

     ewald   stress (kbar)  -7661.60     -0.00      0.00
                               -0.00  -7661.60      0.00
                                0.00      0.00  -7661.60

     hubbard stress (kbar)      0.00      0.00      0.00
                                0.00      0.00      0.00
                                0.00      0.00      0.00

     DFT-D   stress (kbar)      0.00      0.00      0.00
                                0.00      0.00      0.00
                                0.00      0.00      0.00

     XDM     stress (kbar)      0.00      0.00      0.00
                                0.00      0.00      0.00
                                0.00      0.00      0.00

     dft-nl  stress (kbar)      0.00      0.00      0.00
                                0.00      0.00      0.00
                                0.00      0.00      0.00

     TS-vdW  stress (kbar)      0.00      0.00      0.00
                                0.00      0.00      0.00
                                0.00      0.00      0.00

     MDB     stress (kbar)      0.00      0.00      0.00
                                0.00      0.00      0.00
                                0.00      0.00      0.00

     3D-RISM stress (kbar)      0.00      0.00      0.00
                                0.00      0.00      0.00
                                0.00      0.00      0.00

     Energy error            =      6.8E-04 Ry
     Gradient error          =      3.4E-31 Ry/Bohr
     Cell gradient error     =      5.1E+00 kbar

     number of scf cycles    =   4
     number of bfgs steps    =   3

     enthalpy           old  =    -128.9794807747 Ry
     enthalpy           new  =    -128.9801612950 Ry

     CASE: enthalpy          _new < enthalpy          _old

     new trust radius        =       0.0192236997 bohr
     new conv_thr            =            1.0E-12 Ry

     new unit-cell volume =    489.68407 a.u.^3 (    72.56369 Ang^3 )
     density =      5.49245 g/cm^3

CELL_PARAMETERS (angstrom)
   0.000000000   3.310521853   3.310521853
   3.310521853   0.000000000   3.310521853
   3.310521853   3.310521853   0.000000000

ATOMIC_POSITIONS (crystal)
Cd               0.0000000000       -0.0000000000       -0.0000000000
Te               0.2500000000        0.2500000000        0.2500000000



     Writing config-only to output data dir /home/User/opencode_workspace/DFT/calculations/cdte/relax_nosoc/out/pwscf.save/ :
     XML data file
     NEW-OLD atomic charge density approx. for the potential
     New effective cutoffs (rho, wfc):  689.96  115.00

     total cpu time spent up to now is      260.2 secs

     per-process dynamical memory:    54.6 Mb

     Self-consistent Calculation

     iteration #  1     ecut=   120.00 Ry     beta= 0.30
     Davidson diagonalization with overlap

---- Real-time Memory Report at c_bands before calling an iterative solver
           171 MiB given to the printing process from OS
            53 MiB allocation reported by mallinfo(arena+hblkhd)
          1337 MiB available memory on the node where the printing process lives
------------------
     ethr =  1.00E-06,  avg # of iterations =  7.1

     Threshold (ethr) on eigenvalues was too large:
     Diagonalizing with lowered threshold

     Davidson diagonalization with overlap

---- Real-time Memory Report at c_bands before calling an iterative solver
           171 MiB given to the printing process from OS
            53 MiB allocation reported by mallinfo(arena+hblkhd)
          1336 MiB available memory on the node where the printing process lives
------------------
     ethr =  3.27E-08,  avg # of iterations =  6.0

     total cpu time spent up to now is      265.1 secs

     total energy              =    -128.98027750 Ry
     estimated scf accuracy    <       0.00000637 Ry

     iteration #  2     ecut=   120.00 Ry     beta= 0.30
     Davidson diagonalization with overlap

---- Real-time Memory Report at c_bands before calling an iterative solver
           171 MiB given to the printing process from OS
            58 MiB allocation reported by mallinfo(arena+hblkhd)
          1304 MiB available memory on the node where the printing process lives
------------------
     ethr =  3.54E-08,  avg # of iterations =  1.2

     total cpu time spent up to now is      266.8 secs

     total energy              =    -128.98027729 Ry
     estimated scf accuracy    <       0.00000240 Ry

     iteration #  3     ecut=   120.00 Ry     beta= 0.30
     Davidson diagonalization with overlap

---- Real-time Memory Report at c_bands before calling an iterative solver
           171 MiB given to the printing process from OS
            59 MiB allocation reported by mallinfo(arena+hblkhd)
          1287 MiB available memory on the node where the printing process lives
------------------
     ethr =  1.34E-08,  avg # of iterations =  2.3

     total cpu time spent up to now is      268.7 secs

     total energy              =    -128.98027792 Ry
     estimated scf accuracy    <       0.00000017 Ry

     iteration #  4     ecut=   120.00 Ry     beta= 0.30
     Davidson diagonalization with overlap

---- Real-time Memory Report at c_bands before calling an iterative solver
           171 MiB given to the printing process from OS
            59 MiB allocation reported by mallinfo(arena+hblkhd)
          1298 MiB available memory on the node where the printing process lives
------------------
     ethr =  9.56E-10,  avg # of iterations =  6.5

     total cpu time spent up to now is      271.0 secs

     total energy              =    -128.98027815 Ry
     estimated scf accuracy    <       0.00000005 Ry

     iteration #  5     ecut=   120.00 Ry     beta= 0.30
     Davidson diagonalization with overlap

---- Real-time Memory Report at c_bands before calling an iterative solver
           171 MiB given to the printing process from OS
            60 MiB allocation reported by mallinfo(arena+hblkhd)
          1285 MiB available memory on the node where the printing process lives
------------------
     ethr =  2.63E-10,  avg # of iterations =  1.8

     total cpu time spent up to now is      272.8 secs

     total energy              =    -128.98027820 Ry
     estimated scf accuracy    <       0.00000002 Ry

     iteration #  6     ecut=   120.00 Ry     beta= 0.30
     Davidson diagonalization with overlap

---- Real-time Memory Report at c_bands before calling an iterative solver
           171 MiB given to the printing process from OS
            60 MiB allocation reported by mallinfo(arena+hblkhd)
          1309 MiB available memory on the node where the printing process lives
------------------
     ethr =  1.26E-10,  avg # of iterations =  4.6

     total cpu time spent up to now is      275.0 secs

     total energy              =    -128.98027825 Ry
     estimated scf accuracy    <          9.5E-09 Ry

     iteration #  7     ecut=   120.00 Ry     beta= 0.30
     Davidson diagonalization with overlap

---- Real-time Memory Report at c_bands before calling an iterative solver
           171 MiB given to the printing process from OS
            60 MiB allocation reported by mallinfo(arena+hblkhd)
          1286 MiB available memory on the node where the printing process lives
------------------
     ethr =  5.30E-11,  avg # of iterations =  5.7

     total cpu time spent up to now is      277.1 secs

     total energy              =    -128.98027824 Ry
     estimated scf accuracy    <       0.00000008 Ry

     iteration #  8     ecut=   120.00 Ry     beta= 0.30
     Davidson diagonalization with overlap

---- Real-time Memory Report at c_bands before calling an iterative solver
           171 MiB given to the printing process from OS
            61 MiB allocation reported by mallinfo(arena+hblkhd)
          1283 MiB available memory on the node where the printing process lives
------------------
     ethr =  5.30E-11,  avg # of iterations =  4.9

     total cpu time spent up to now is      279.0 secs

     total energy              =    -128.98027825 Ry
     estimated scf accuracy    <       0.00000001 Ry

     iteration #  9     ecut=   120.00 Ry     beta= 0.30
     Davidson diagonalization with overlap

---- Real-time Memory Report at c_bands before calling an iterative solver
           171 MiB given to the printing process from OS
            61 MiB allocation reported by mallinfo(arena+hblkhd)
          1276 MiB available memory on the node where the printing process lives
------------------
     ethr =  5.30E-11,  avg # of iterations =  2.0

     total cpu time spent up to now is      280.5 secs

     total energy              =    -128.98027825 Ry
     estimated scf accuracy    <          4.6E-09 Ry

     iteration # 10     ecut=   120.00 Ry     beta= 0.30
     Davidson diagonalization with overlap

---- Real-time Memory Report at c_bands before calling an iterative solver
           171 MiB given to the printing process from OS
            62 MiB allocation reported by mallinfo(arena+hblkhd)
          1285 MiB available memory on the node where the printing process lives
------------------
     ethr =  2.54E-11,  avg # of iterations =  5.2

     total cpu time spent up to now is      282.7 secs

     total energy              =    -128.98027826 Ry
     estimated scf accuracy    <          2.9E-09 Ry

     iteration # 11     ecut=   120.00 Ry     beta= 0.30
     Davidson diagonalization with overlap

---- Real-time Memory Report at c_bands before calling an iterative solver
           171 MiB given to the printing process from OS
            62 MiB allocation reported by mallinfo(arena+hblkhd)
          1296 MiB available memory on the node where the printing process lives
------------------
     ethr =  1.61E-11,  avg # of iterations =  1.2

     total cpu time spent up to now is      284.1 secs

     total energy              =    -128.98027826 Ry
     estimated scf accuracy    <          2.1E-09 Ry

     iteration # 12     ecut=   120.00 Ry     beta= 0.30
     Davidson diagonalization with overlap

---- Real-time Memory Report at c_bands before calling an iterative solver
           171 MiB given to the printing process from OS
            62 MiB allocation reported by mallinfo(arena+hblkhd)
          1288 MiB available memory on the node where the printing process lives
------------------
     ethr =  1.16E-11,  avg # of iterations =  3.8

     total cpu time spent up to now is      285.9 secs

     total energy              =    -128.98027826 Ry
     estimated scf accuracy    <          4.5E-11 Ry

     iteration # 13     ecut=   120.00 Ry     beta= 0.30
     Davidson diagonalization with overlap

---- Real-time Memory Report at c_bands before calling an iterative solver
           171 MiB given to the printing process from OS
            62 MiB allocation reported by mallinfo(arena+hblkhd)
          1272 MiB available memory on the node where the printing process lives
------------------
     ethr =  2.52E-13,  avg # of iterations =  7.0

     total cpu time spent up to now is      288.3 secs

     total energy              =    -128.98027826 Ry
     estimated scf accuracy    <          6.7E-11 Ry

     iteration # 14     ecut=   120.00 Ry     beta= 0.30
     Davidson diagonalization with overlap

---- Real-time Memory Report at c_bands before calling an iterative solver
           171 MiB given to the printing process from OS
            62 MiB allocation reported by mallinfo(arena+hblkhd)
          1282 MiB available memory on the node where the printing process lives
------------------
     ethr =  2.52E-13,  avg # of iterations =  3.2

     total cpu time spent up to now is      290.2 secs

     total energy              =    -128.98027826 Ry
     estimated scf accuracy    <          5.4E-11 Ry

     iteration # 15     ecut=   120.00 Ry     beta= 0.30
     Davidson diagonalization with overlap

---- Real-time Memory Report at c_bands before calling an iterative solver
           171 MiB given to the printing process from OS
            62 MiB allocation reported by mallinfo(arena+hblkhd)
          1279 MiB available memory on the node where the printing process lives
------------------
     ethr =  2.52E-13,  avg # of iterations =  2.9

     total cpu time spent up to now is      292.1 secs

     total energy              =    -128.98027826 Ry
     estimated scf accuracy    <          7.7E-12 Ry

     iteration # 16     ecut=   120.00 Ry     beta= 0.30
     Davidson diagonalization with overlap

---- Real-time Memory Report at c_bands before calling an iterative solver
           171 MiB given to the printing process from OS
            62 MiB allocation reported by mallinfo(arena+hblkhd)
          1276 MiB available memory on the node where the printing process lives
------------------
     ethr =  1.00E-13,  avg # of iterations =  6.0

     total cpu time spent up to now is      294.3 secs

     total energy              =    -128.98027826 Ry
     estimated scf accuracy    <          1.2E-10 Ry

     iteration # 17     ecut=   120.00 Ry     beta= 0.30
     Davidson diagonalization with overlap

---- Real-time Memory Report at c_bands before calling an iterative solver
           171 MiB given to the printing process from OS
            62 MiB allocation reported by mallinfo(arena+hblkhd)
          1276 MiB available memory on the node where the printing process lives
------------------
     ethr =  1.00E-13,  avg # of iterations =  1.9

     total cpu time spent up to now is      295.8 secs

     total energy              =    -128.98027826 Ry
     estimated scf accuracy    <          8.7E-11 Ry

     iteration # 18     ecut=   120.00 Ry     beta= 0.30
     Davidson diagonalization with overlap

---- Real-time Memory Report at c_bands before calling an iterative solver
           171 MiB given to the printing process from OS
            62 MiB allocation reported by mallinfo(arena+hblkhd)
          1274 MiB available memory on the node where the printing process lives
------------------
     ethr =  1.00E-13,  avg # of iterations =  3.1

     total cpu time spent up to now is      297.5 secs

     total energy              =    -128.98027826 Ry
     estimated scf accuracy    <          5.1E-11 Ry

     iteration # 19     ecut=   120.00 Ry     beta= 0.30
     Davidson diagonalization with overlap

---- Real-time Memory Report at c_bands before calling an iterative solver
           171 MiB given to the printing process from OS
            62 MiB allocation reported by mallinfo(arena+hblkhd)
          1271 MiB available memory on the node where the printing process lives
------------------
     ethr =  1.00E-13,  avg # of iterations =  2.4

     total cpu time spent up to now is      299.2 secs

     total energy              =    -128.98027826 Ry
     estimated scf accuracy    <          4.5E-11 Ry

     iteration # 20     ecut=   120.00 Ry     beta= 0.30
     Davidson diagonalization with overlap

---- Real-time Memory Report at c_bands before calling an iterative solver
           171 MiB given to the printing process from OS
            62 MiB allocation reported by mallinfo(arena+hblkhd)
          1261 MiB available memory on the node where the printing process lives
------------------
     ethr =  1.00E-13,  avg # of iterations =  2.0

     total cpu time spent up to now is      300.8 secs

     total energy              =    -128.98027826 Ry
     estimated scf accuracy    <          1.9E-11 Ry

     iteration # 21     ecut=   120.00 Ry     beta= 0.30
     Davidson diagonalization with overlap

---- Real-time Memory Report at c_bands before calling an iterative solver
           171 MiB given to the printing process from OS
            62 MiB allocation reported by mallinfo(arena+hblkhd)
          1262 MiB available memory on the node where the printing process lives
------------------
     ethr =  1.00E-13,  avg # of iterations =  6.1

     total cpu time spent up to now is      302.9 secs

     total energy              =    -128.98027826 Ry
     estimated scf accuracy    <          6.9E-12 Ry

     iteration # 22     ecut=   120.00 Ry     beta= 0.30
     Davidson diagonalization with overlap

---- Real-time Memory Report at c_bands before calling an iterative solver
           171 MiB given to the printing process from OS
            62 MiB allocation reported by mallinfo(arena+hblkhd)
          1274 MiB available memory on the node where the printing process lives
------------------
     ethr =  1.00E-13,  avg # of iterations =  1.0

     total cpu time spent up to now is      304.3 secs

     End of self-consistent calculation

          k = 0.0000 0.0000 0.0000 ( 10177 PWs)   bands (ev):

    -6.4370  -3.6789  -3.6789  -3.6789  -3.4625  -3.4625   4.3966   4.3966
     4.3966

     occupation numbers 
     1.0000   1.0000   1.0000   1.0000   1.0000   1.0000   1.0000   1.0000
     1.0000

          k = 0.0692 0.0692-0.0692 ( 10168 PWs)   bands (ev):

    -6.4043  -3.6728  -3.6728  -3.6521  -3.4629  -3.4629   3.4977   4.3172
     4.3172

     occupation numbers 
     1.0000   1.0000   1.0000   1.0000   1.0000   1.0000   1.0000   1.0000
     1.0000

          k = 0.1385 0.1385-0.1385 ( 10141 PWs)   bands (ev):

    -6.3184  -3.6578  -3.6578  -3.5665  -3.4630  -3.4630   2.3637   4.1268
     4.1268

     occupation numbers 
     1.0000   1.0000   1.0000   1.0000   1.0000   1.0000   1.0000   1.0000
     1.0000

          k = 0.2077 0.2077-0.2077 ( 10180 PWs)   bands (ev):

    -6.2127  -3.6413  -3.6413  -3.4607  -3.4607  -3.4188   1.3463   3.9183
     3.9183

     occupation numbers 
     1.0000   1.0000   1.0000   1.0000   1.0000   1.0000   1.0000   1.0000
     1.0000

          k = 0.2769 0.2769-0.2769 ( 10197 PWs)   bands (ev):

    -6.1284  -3.6300  -3.6300  -3.4565  -3.4565  -3.2460   0.6021   3.7657
     3.7657

     occupation numbers 
     1.0000   1.0000   1.0000   1.0000   1.0000   1.0000   1.0000   1.0000
     1.0000

          k =-0.3461-0.3461 0.3461 ( 10200 PWs)   bands (ev):

    -6.0966  -3.6263  -3.6263  -3.4542  -3.4542  -3.1603   0.3177   3.7105
     3.7105

     occupation numbers 
     1.0000   1.0000   1.0000   1.0000   1.0000   1.0000   1.0000   1.0000
     1.0000

          k = 0.1385 0.0000 0.0000 ( 10161 PWs)   bands (ev):

    -6.3934  -3.6671  -3.6671  -3.6507  -3.4660  -3.4599   3.4443   4.1773
     4.1773

     occupation numbers 
     1.0000   1.0000   1.0000   1.0000   1.0000   1.0000   1.0000   1.0000
     1.0000

          k = 0.2077 0.0692-0.0692 ( 10180 PWs)   bands (ev):

    -6.3254  -3.6561  -3.6518  -3.5882  -3.4674  -3.4576   2.5978   3.9516
     4.0015

     occupation numbers 
     1.0000   1.0000   1.0000   1.0000   1.0000   1.0000   1.0000   1.0000
     1.0000

          k = 0.2769 0.1385-0.1385 ( 10192 PWs)   bands (ev):

    -6.2266  -3.6417  -3.6344  -3.4887  -3.4551  -3.4374   1.6280   3.7397
     3.7584

     occupation numbers 
     1.0000   1.0000   1.0000   1.0000   1.0000   1.0000   1.0000   1.0000
     1.0000

          k = 0.3461 0.2077-0.2077 ( 10195 PWs)   bands (ev):

    -6.1357  -3.6289  -3.6221  -3.4704  -3.4526  -3.2783   0.8249   3.5072
     3.6107

     occupation numbers 
     1.0000   1.0000   1.0000   1.0000   1.0000   1.0000   1.0000   1.0000
     1.0000

          k =-0.2769-0.4154 0.4154 ( 10176 PWs)   bands (ev):

    -6.0870  -3.6220  -3.6180  -3.4618  -3.4532  -3.1518   0.3907   3.3299
     3.5971

     occupation numbers 
     1.0000   1.0000   1.0000   1.0000   1.0000   1.0000   1.0000   1.0000
     1.0000

          k =-0.2077-0.3461 0.3461 ( 10191 PWs)   bands (ev):

    -6.0974  -3.6219  -3.6213  -3.4586  -3.4577  -3.1804   0.4843   3.2721
     3.7010

     occupation numbers 
     1.0000   1.0000   1.0000   1.0000   1.0000   1.0000   1.0000   1.0000
     1.0000

          k =-0.1385-0.2769 0.2769 ( 10197 PWs)   bands (ev):

    -6.1635  -3.6334  -3.6275  -3.4652  -3.4605  -3.3342   1.0642   3.3546
     3.8954

     occupation numbers 
     1.0000   1.0000   1.0000   1.0000   1.0000   1.0000   1.0000   1.0000
     1.0000

          k =-0.0692-0.2077 0.2077 ( 10181 PWs)   bands (ev):

    -6.2616  -3.6505  -3.6406  -3.5086  -3.4680  -3.4514   1.9326   3.5809
     4.1224

     occupation numbers 
     1.0000   1.0000   1.0000   1.0000   1.0000   1.0000   1.0000   1.0000
     1.0000

          k = 0.0000-0.1385 0.1385 ( 10145 PWs)   bands (ev):

    -6.3539  -3.6662  -3.6580  -3.6092  -3.4664  -3.4597   2.8539   3.9436
     4.2931

     occupation numbers 
     1.0000   1.0000   1.0000   1.0000   1.0000   1.0000   1.0000   1.0000
     1.0000

          k = 0.2769 0.0000 0.0000 ( 10197 PWs)   bands (ev):

    -6.2796  -3.6353  -3.6353  -3.5690  -3.4647  -3.4531   2.3485   3.6933
     3.6933

     occupation numbers 
     1.0000   1.0000   1.0000   1.0000   1.0000   1.0000   1.0000   1.0000
     1.0000

          k = 0.3461 0.0692-0.0692 ( 10207 PWs)   bands (ev):

    -6.1991  -3.6211  -3.6158  -3.5172  -3.4495  -3.4156   1.6951   3.4039
     3.4614

     occupation numbers 
     1.0000   1.0000   1.0000   1.0000   1.0000   1.0000   1.0000   1.0000
     1.0000

          k = 0.4154 0.1385-0.1385 ( 10199 PWs)   bands (ev):

    -6.1157  -3.6124  -3.6016  -3.4959  -3.4477  -3.2722   1.0122   3.0449
     3.3280

     occupation numbers 
     1.0000   1.0000   1.0000   1.0000   1.0000   1.0000   1.0000   1.0000
     1.0000

          k =-0.2077-0.4846 0.4846 ( 10212 PWs)   bands (ev):

    -6.0614  -3.6080  -3.5965  -3.4815  -3.4502  -3.1276   0.5490   2.7313
     3.3268

     occupation numbers 
     1.0000   1.0000   1.0000   1.0000   1.0000   1.0000   1.0000   1.0000
     1.0000

          k =-0.1385-0.4154 0.4154 ( 10205 PWs)   bands (ev):

    -6.0551  -3.6079  -3.6009  -3.4698  -3.4580  -3.0995   0.4880   2.5616
     3.4572

     occupation numbers 
     1.0000   1.0000   1.0000   1.0000   1.0000   1.0000   1.0000   1.0000
     1.0000

          k =-0.0692-0.3461 0.3461 ( 10196 PWs)   bands (ev):

    -6.0987  -3.6142  -3.6121  -3.4665  -3.4649  -3.2116   0.8411   2.6064
     3.6859

     occupation numbers 
     1.0000   1.0000   1.0000   1.0000   1.0000   1.0000   1.0000   1.0000
     1.0000

          k = 0.0000-0.2769 0.2769 ( 10157 PWs)   bands (ev):

    -6.1773  -3.6332  -3.6228  -3.4701  -3.4690  -3.3658   1.4007   2.9452
     3.9426

     occupation numbers 
     1.0000   1.0000   1.0000   1.0000   1.0000   1.0000   1.0000   1.0000
     1.0000

          k = 0.4154 0.0000 0.0000 ( 10213 PWs)   bands (ev):

    -6.1412  -3.5937  -3.5937  -3.5277  -3.4448  -3.3511   1.3860   3.2033
     3.2033

     occupation numbers 
     1.0000   1.0000   1.0000   1.0000   1.0000   1.0000   1.0000   1.0000
     1.0000

          k = 0.4846 0.0692-0.0692 ( 10197 PWs)   bands (ev):

    -6.0762  -3.5832  -3.5770  -3.5213  -3.4422  -3.2286   0.9374   2.8866
     3.0469

     occupation numbers 
     1.0000   1.0000   1.0000   1.0000   1.0000   1.0000   1.0000   1.0000
     1.0000

          k =-0.1385-0.5538 0.5538 ( 10221 PWs)   bands (ev):

    -6.0293  -3.5854  -3.5707  -3.5058  -3.4449  -3.0927   0.6013   2.4589
     3.0318

     occupation numbers 
     1.0000   1.0000   1.0000   1.0000   1.0000   1.0000   1.0000   1.0000
     1.0000

          k =-0.0692-0.4846 0.4846 ( 10211 PWs)   bands (ev):

    -6.0171  -3.5918  -3.5759  -3.4882  -3.4532  -3.0311   0.5110   2.1476
     3.1613

     occupation numbers 
     1.0000   1.0000   1.0000   1.0000   1.0000   1.0000   1.0000   1.0000
     1.0000

          k =-0.0000-0.4154 0.4154 ( 10221 PWs)   bands (ev):

    -6.0433  -3.6003  -3.5919  -3.4738  -3.4622  -3.0872   0.6441   2.1553
     3.4034

     occupation numbers 
     1.0000   1.0000   1.0000   1.0000   1.0000   1.0000   1.0000   1.0000
     1.0000

          k = 0.5538 0.0000 0.0000 ( 10218 PWs)   bands (ev):

    -6.0329  -3.5582  -3.5582  -3.5368  -3.4380  -3.1483   0.6678   2.8601
     2.8601

     occupation numbers 
     1.0000   1.0000   1.0000   1.0000   1.0000   1.0000   1.0000   1.0000
     1.0000

          k =-0.0692-0.6230 0.6230 ( 10234 PWs)   bands (ev):

    -6.0029  -3.5613  -3.5512  -3.5270  -3.4385  -3.0583   0.4702   2.5984
     2.8161

     occupation numbers 
     1.0000   1.0000   1.0000   1.0000   1.0000   1.0000   1.0000   1.0000
     1.0000

          k = 0.0000-0.5538 0.5538 ( 10215 PWs)   bands (ev):

    -5.9972  -3.5753  -3.5574  -3.5085  -3.4451  -3.0105   0.4536   2.2343
     2.9253

     occupation numbers 
     1.0000   1.0000   1.0000   1.0000   1.0000   1.0000   1.0000   1.0000
     1.0000

          k =-0.6923 0.0000 0.0000 ( 10190 PWs)   bands (ev):

    -5.9928  -3.5442  -3.5442  -3.5422  -3.4354  -3.0430   0.3858   2.7380
     2.7380

     occupation numbers 
     1.0000   1.0000   1.0000   1.0000   1.0000   1.0000   1.0000   1.0000
     1.0000

          k = 0.2769 0.1385 0.0000 ( 10192 PWs)   bands (ev):

    -6.2511  -3.6423  -3.6326  -3.5218  -3.4612  -3.4485   1.9950   3.4455
     3.9064

     occupation numbers 
     1.0000   1.0000   1.0000   1.0000   1.0000   1.0000   1.0000   1.0000
     1.0000

          k = 0.3461 0.2077-0.0692 ( 10186 PWs)   bands (ev):

    -6.1602  -3.6266  -3.6169  -3.4856  -3.4545  -3.3432   1.2693   3.0594
     3.7058

     occupation numbers 
     1.0000   1.0000   1.0000   1.0000   1.0000   1.0000   1.0000   1.0000
     1.0000

          k =-0.2769-0.4154 0.5538 ( 10192 PWs)   bands (ev):

    -6.0881  -3.6152  -3.6078  -3.4748  -3.4538  -3.1843   0.6688   2.8578
     3.5077

     occupation numbers 
     1.0000   1.0000   1.0000   1.0000   1.0000   1.0000   1.0000   1.0000
     1.0000

          k =-0.2077-0.3461 0.4846 ( 10210 PWs)   bands (ev):

    -6.0610  -3.6117  -3.6045  -3.4684  -3.4557  -3.1066   0.4308   2.7986
     3.4266

     occupation numbers 
     1.0000   1.0000   1.0000   1.0000   1.0000   1.0000   1.0000   1.0000
     1.0000

          k = 0.4154 0.1385-0.0000 ( 10195 PWs)   bands (ev):

    -6.1266  -3.6049  -3.5979  -3.5086  -3.4471  -3.3091   1.2218   2.9656
     3.3166

     occupation numbers 
     1.0000   1.0000   1.0000   1.0000   1.0000   1.0000   1.0000   1.0000
     1.0000

          k =-0.2077-0.4846 0.6230 ( 10199 PWs)   bands (ev):

    -6.0620  -3.5967  -3.5870  -3.4973  -3.4482  -3.1615   0.7707   2.6021
     3.1400

     occupation numbers 
     1.0000   1.0000   1.0000   1.0000   1.0000   1.0000   1.0000   1.0000
     1.0000

          k =-0.1385-0.4154 0.5538 ( 10200 PWs)   bands (ev):

    -6.0293  -3.5961  -3.5834  -3.4839  -3.4541  -3.0576   0.5220   2.3518
     3.1021

     occupation numbers 
     1.0000   1.0000   1.0000   1.0000   1.0000   1.0000   1.0000   1.0000
     1.0000

          k =-0.0692-0.3461 0.4846 ( 10204 PWs)   bands (ev):

    -6.0394  -3.5993  -3.5896  -3.4775  -3.4587  -3.0790   0.5914   2.2842
     3.2394

     occupation numbers 
     1.0000   1.0000   1.0000   1.0000   1.0000   1.0000   1.0000   1.0000
     1.0000

          k = 0.0000-0.2769 0.4154 ( 10208 PWs)   bands (ev):

    -6.0888  -3.6088  -3.6024  -3.4821  -3.4561  -3.2038   0.9009   2.5060
     3.4829

     occupation numbers 
     1.0000   1.0000   1.0000   1.0000   1.0000   1.0000   1.0000   1.0000
     1.0000

          k =-0.1385-0.5538 0.6923 ( 10195 PWs)   bands (ev):

    -6.0293  -3.5714  -3.5687  -3.5171  -3.4420  -3.1149   0.6472   2.6587
     2.8411

     occupation numbers 
     1.0000   1.0000   1.0000   1.0000   1.0000   1.0000   1.0000   1.0000
     1.0000

          k =-0.0692-0.4846 0.6230 ( 10207 PWs)   bands (ev):

    -6.0034  -3.5767  -3.5656  -3.5026  -3.4478  -3.0220   0.5007   2.3179
     2.7941

     occupation numbers 
     1.0000   1.0000   1.0000   1.0000   1.0000   1.0000   1.0000   1.0000
     1.0000

          k = 0.0000-0.4154 0.5538 ( 10193 PWs)   bands (ev):

    -6.0074  -3.5870  -3.5726  -3.4870  -3.4563  -3.0091   0.5210   2.1003
     2.9594

     occupation numbers 
     1.0000   1.0000   1.0000   1.0000   1.0000   1.0000   1.0000   1.0000
     1.0000

          k =-0.6923 0.1385 0.0000 ( 10224 PWs)   bands (ev):

    -5.9932  -3.5604  -3.5567  -3.5183  -3.4408  -3.0201   0.4229   2.5854
     2.6321

     occupation numbers 
     1.0000   1.0000   1.0000   1.0000   1.0000   1.0000   1.0000   1.0000
     1.0000

          k =-0.1385-0.4154 0.6923 ( 10230 PWs)   bands (ev):

    -6.0196  -3.5862  -3.5777  -3.4905  -3.4539  -3.0497   0.5913   2.2938
     2.8654

     occupation numbers 
     1.0000   1.0000   1.0000   1.0000   1.0000   1.0000   1.0000   1.0000
     1.0000

          k =-0.0692-0.3461 0.6230 ( 10214 PWs)   bands (ev):

    -6.0038  -3.5843  -3.5729  -3.4846  -3.4590  -3.0005   0.5197   2.2029
     2.7288

     occupation numbers 
     1.0000   1.0000   1.0000   1.0000   1.0000   1.0000   1.0000   1.0000
     1.0000

          k =-0.6923 0.2769 0.0000 ( 10200 PWs)   bands (ev):

    -5.9939  -3.5752  -3.5687  -3.4922  -3.4550  -2.9847   0.4905   2.3526
     2.4769

     occupation numbers 
     1.0000   1.0000   1.0000   1.0000   1.0000   1.0000   1.0000   1.0000
     1.0000

     highest occupied level (ev):     4.3966

!    total energy              =    -128.98027826 Ry
     estimated scf accuracy    <          9.3E-13 Ry

     The total energy is the sum of the following terms:
     one-electron contribution =     -51.28564953 Ry
     hartree contribution      =      36.94079676 Ry
     xc contribution           =     -39.44704506 Ry
     ewald contribution        =     -75.18838043 Ry

     convergence has been achieved in  22 iterations

     Forces acting on atoms (cartesian axes, Ry/au):

     atom    1 type  1   force =     0.00000000    0.00000000    0.00000000
     atom    2 type  2   force =     0.00000000    0.00000000    0.00000000
     The non-local contrib.  to forces
     atom    1 type  1   force =     0.00000000    0.00000000   -0.00000000
     atom    2 type  2   force =     0.00000000   -0.00000000    0.00000000
     The ionic contribution  to forces
     atom    1 type  1   force =     0.00000000    0.00000000   -0.00000000
     atom    2 type  2   force =    -0.00000000   -0.00000000   -0.00000000
     The local contribution  to forces
     atom    1 type  1   force =     0.00000000    0.00000000   -0.00000000
     atom    2 type  2   force =    -0.00000000    0.00000000    0.00000000
     The core correction contribution to forces
     atom    1 type  1   force =    -0.00000000    0.00000000    0.00000000
     atom    2 type  2   force =     0.00000000    0.00000000    0.00000000
     The Hubbard contrib.    to forces
     atom    1 type  1   force =     0.00000000    0.00000000    0.00000000
     atom    2 type  2   force =     0.00000000    0.00000000    0.00000000
     The SCF correction term to forces
     atom    1 type  1   force =    -0.00000000   -0.00000000    0.00000000
     atom    2 type  2   force =     0.00000000    0.00000000   -0.00000000

     Total force =     0.000000     Total SCF correction =     0.000000


     Computing stress (Cartesian axis) and pressure

          total   stress  (Ry/bohr**3)                   (kbar)     P=        0.33
   0.00000224  -0.00000000  -0.00000000            0.33       -0.00       -0.00
  -0.00000000   0.00000224  -0.00000000           -0.00        0.33       -0.00
   0.00000000  -0.00000000   0.00000224            0.00       -0.00        0.33

     kinetic stress (kbar)   8991.03     -0.00      0.00
                               -0.00   8991.03      0.00
                                0.00      0.00   8991.03

     local   stress (kbar)    434.75     -0.00      0.00
                               -0.00    434.75      0.00
                                0.00      0.00    434.75

     nonloc. stress (kbar)  -3398.71     -0.00     -0.00
                               -0.00  -3398.71     -0.00
                                0.00     -0.00  -3398.71

     hartree stress (kbar)   3699.11     -0.00      0.00
                               -0.00   3699.11      0.00
                                0.00      0.00   3699.11

     exc-cor stress (kbar)   4211.47      0.00     -0.00
                                0.00   4211.47     -0.00
                               -0.00     -0.00   4211.47

     corecor stress (kbar)  -6408.25     -0.00     -0.00
                               -0.00  -6408.25     -0.00
                               -0.00     -0.00  -6408.25

     ewald   stress (kbar)  -7529.07      0.00      0.00
                                0.00  -7529.07      0.00
                                0.00      0.00  -7529.07

     hubbard stress (kbar)      0.00      0.00      0.00
                                0.00      0.00      0.00
                                0.00      0.00      0.00

     DFT-D   stress (kbar)      0.00      0.00      0.00
                                0.00      0.00      0.00
                                0.00      0.00      0.00

     XDM     stress (kbar)      0.00      0.00      0.00
                                0.00      0.00      0.00
                                0.00      0.00      0.00

     dft-nl  stress (kbar)      0.00      0.00      0.00
                                0.00      0.00      0.00
                                0.00      0.00      0.00

     TS-vdW  stress (kbar)      0.00      0.00      0.00
                                0.00      0.00      0.00
                                0.00      0.00      0.00

     MDB     stress (kbar)      0.00      0.00      0.00
                                0.00      0.00      0.00
                                0.00      0.00      0.00

     3D-RISM stress (kbar)      0.00      0.00      0.00
                                0.00      0.00      0.00
                                0.00      0.00      0.00

     Energy error            =      1.2E-04 Ry
     Gradient error          =      0.0E+00 Ry/Bohr
     Cell gradient error     =      3.3E-01 kbar

     number of scf cycles    =   5
     number of bfgs steps    =   4

     enthalpy           old  =    -128.9801612950 Ry
     enthalpy           new  =    -128.9802782576 Ry

     CASE: enthalpy          _new < enthalpy          _old

     new trust radius        =       0.0013373044 bohr
     new conv_thr            =            1.0E-12 Ry

     new unit-cell volume =    490.12810 a.u.^3 (    72.62949 Ang^3 )
     density =      5.48748 g/cm^3

CELL_PARAMETERS (angstrom)
   0.000000000   3.311522172   3.311522172
   3.311522172   0.000000000   3.311522172
   3.311522172   3.311522172   0.000000000

ATOMIC_POSITIONS (crystal)
Cd               0.0000000000       -0.0000000000       -0.0000000000
Te               0.2500000000        0.2500000000        0.2500000000



     Writing config-only to output data dir /home/User/opencode_workspace/DFT/calculations/cdte/relax_nosoc/out/pwscf.save/ :
     XML data file
     NEW-OLD atomic charge density approx. for the potential
     New effective cutoffs (rho, wfc):  689.55  114.93

     total cpu time spent up to now is      306.9 secs

     per-process dynamical memory:    54.6 Mb

     Self-consistent Calculation

     iteration #  1     ecut=   120.00 Ry     beta= 0.30
     Davidson diagonalization with overlap

---- Real-time Memory Report at c_bands before calling an iterative solver
           171 MiB given to the printing process from OS
            53 MiB allocation reported by mallinfo(arena+hblkhd)
          1306 MiB available memory on the node where the printing process lives
------------------
     ethr =  1.00E-06,  avg # of iterations =  2.0

     Threshold (ethr) on eigenvalues was too large:
     Diagonalizing with lowered threshold

     Davidson diagonalization with overlap

---- Real-time Memory Report at c_bands before calling an iterative solver
           171 MiB given to the printing process from OS
            53 MiB allocation reported by mallinfo(arena+hblkhd)
          1306 MiB available memory on the node where the printing process lives
------------------
     ethr =  1.20E-09,  avg # of iterations =  6.7

     total cpu time spent up to now is      311.2 secs

     total energy              =    -128.98027878 Ry
     estimated scf accuracy    <       0.00000003 Ry

     iteration #  2     ecut=   120.00 Ry     beta= 0.30
     Davidson diagonalization with overlap

---- Real-time Memory Report at c_bands before calling an iterative solver
           171 MiB given to the printing process from OS
            58 MiB allocation reported by mallinfo(arena+hblkhd)
          1302 MiB available memory on the node where the printing process lives
------------------
     ethr =  1.68E-10,  avg # of iterations =  2.6

     total cpu time spent up to now is      312.8 secs

     total energy              =    -128.98027878 Ry
     estimated scf accuracy    <       0.00000001 Ry

     iteration #  3     ecut=   120.00 Ry     beta= 0.30
     Davidson diagonalization with overlap

---- Real-time Memory Report at c_bands before calling an iterative solver
           171 MiB given to the printing process from OS
            59 MiB allocation reported by mallinfo(arena+hblkhd)
          1284 MiB available memory on the node where the printing process lives
------------------
     ethr =  6.22E-11,  avg # of iterations =  3.0

     total cpu time spent up to now is      314.8 secs

     total energy              =    -128.98027878 Ry
     estimated scf accuracy    <          5.0E-10 Ry

     iteration #  4     ecut=   120.00 Ry     beta= 0.30
     Davidson diagonalization with overlap

---- Real-time Memory Report at c_bands before calling an iterative solver
           171 MiB given to the printing process from OS
            59 MiB allocation reported by mallinfo(arena+hblkhd)
          1277 MiB available memory on the node where the printing process lives
------------------
     ethr =  2.77E-12,  avg # of iterations =  7.6

     total cpu time spent up to now is      317.3 secs

     total energy              =    -128.98027878 Ry
     estimated scf accuracy    <          3.5E-10 Ry

     iteration #  5     ecut=   120.00 Ry     beta= 0.30
     Davidson diagonalization with overlap

---- Real-time Memory Report at c_bands before calling an iterative solver
           171 MiB given to the printing process from OS
            60 MiB allocation reported by mallinfo(arena+hblkhd)
          1273 MiB available memory on the node where the printing process lives
------------------
     ethr =  1.95E-12,  avg # of iterations =  1.3

     total cpu time spent up to now is      318.7 secs

     total energy              =    -128.98027878 Ry
     estimated scf accuracy    <          1.6E-10 Ry

     iteration #  6     ecut=   120.00 Ry     beta= 0.30
     Davidson diagonalization with overlap

---- Real-time Memory Report at c_bands before calling an iterative solver
           171 MiB given to the printing process from OS
            60 MiB allocation reported by mallinfo(arena+hblkhd)
          1286 MiB available memory on the node where the printing process lives
------------------
     ethr =  8.73E-13,  avg # of iterations =  5.0

     total cpu time spent up to now is      320.9 secs

     total energy              =    -128.98027878 Ry
     estimated scf accuracy    <          6.3E-11 Ry

     iteration #  7     ecut=   120.00 Ry     beta= 0.30
     Davidson diagonalization with overlap

---- Real-time Memory Report at c_bands before calling an iterative solver
           171 MiB given to the printing process from OS
            60 MiB allocation reported by mallinfo(arena+hblkhd)
          1271 MiB available memory on the node where the printing process lives
------------------
     ethr =  3.50E-13,  avg # of iterations =  3.9

     total cpu time spent up to now is      322.6 secs

     total energy              =    -128.98027878 Ry
     estimated scf accuracy    <          1.5E-10 Ry

     iteration #  8     ecut=   120.00 Ry     beta= 0.30
     Davidson diagonalization with overlap

---- Real-time Memory Report at c_bands before calling an iterative solver
           171 MiB given to the printing process from OS
            61 MiB allocation reported by mallinfo(arena+hblkhd)
          1272 MiB available memory on the node where the printing process lives
------------------
     ethr =  3.50E-13,  avg # of iterations =  6.2

     total cpu time spent up to now is      324.8 secs

     total energy              =    -128.98027878 Ry
     estimated scf accuracy    <          1.4E-10 Ry

     iteration #  9     ecut=   120.00 Ry     beta= 0.30
     Davidson diagonalization with overlap

---- Real-time Memory Report at c_bands before calling an iterative solver
           171 MiB given to the printing process from OS
            61 MiB allocation reported by mallinfo(arena+hblkhd)
          1264 MiB available memory on the node where the printing process lives
------------------
     ethr =  3.50E-13,  avg # of iterations =  4.3

     total cpu time spent up to now is      326.7 secs

     total energy              =    -128.98027878 Ry
     estimated scf accuracy    <          2.3E-12 Ry

     iteration # 10     ecut=   120.00 Ry     beta= 0.30
     Davidson diagonalization with overlap

---- Real-time Memory Report at c_bands before calling an iterative solver
           171 MiB given to the printing process from OS
            62 MiB allocation reported by mallinfo(arena+hblkhd)
          1290 MiB available memory on the node where the printing process lives
------------------
     ethr =  1.00E-13,  avg # of iterations =  4.6

     total cpu time spent up to now is      328.5 secs

     total energy              =    -128.98027878 Ry
     estimated scf accuracy    <          4.5E-12 Ry

     iteration # 11     ecut=   120.00 Ry     beta= 0.30
     Davidson diagonalization with overlap

---- Real-time Memory Report at c_bands before calling an iterative solver
           171 MiB given to the printing process from OS
            62 MiB allocation reported by mallinfo(arena+hblkhd)
          1285 MiB available memory on the node where the printing process lives
------------------
     ethr =  1.00E-13,  avg # of iterations =  1.1

     total cpu time spent up to now is      330.1 secs

     total energy              =    -128.98027878 Ry
     estimated scf accuracy    <          1.5E-12 Ry

     iteration # 12     ecut=   120.00 Ry     beta= 0.30
     Davidson diagonalization with overlap

---- Real-time Memory Report at c_bands before calling an iterative solver
           171 MiB given to the printing process from OS
            62 MiB allocation reported by mallinfo(arena+hblkhd)
          1272 MiB available memory on the node where the printing process lives
------------------
     ethr =  1.00E-13,  avg # of iterations =  1.0

     total cpu time spent up to now is      332.4 secs

     total energy              =    -128.98027878 Ry
     estimated scf accuracy    <          1.0E-12 Ry

     iteration # 13     ecut=   120.00 Ry     beta= 0.30
     Davidson diagonalization with overlap

---- Real-time Memory Report at c_bands before calling an iterative solver
           171 MiB given to the printing process from OS
            62 MiB allocation reported by mallinfo(arena+hblkhd)
          1270 MiB available memory on the node where the printing process lives
------------------
     ethr =  1.00E-13,  avg # of iterations =  1.0

     total cpu time spent up to now is      333.9 secs

     End of self-consistent calculation

          k = 0.0000 0.0000 0.0000 ( 10177 PWs)   bands (ev):

    -6.4423  -3.6863  -3.6863  -3.6863  -3.4704  -3.4704   4.3866   4.3866
     4.3866

     occupation numbers 
     1.0000   1.0000   1.0000   1.0000   1.0000   1.0000   1.0000   1.0000
     1.0000

          k = 0.0692 0.0692-0.0692 ( 10168 PWs)   bands (ev):

    -6.4097  -3.6802  -3.6802  -3.6595  -3.4709  -3.4709   3.4880   4.3074
     4.3074

     occupation numbers 
     1.0000   1.0000   1.0000   1.0000   1.0000   1.0000   1.0000   1.0000
     1.0000

          k = 0.1384 0.1384-0.1384 ( 10141 PWs)   bands (ev):

    -6.3240  -3.6653  -3.6653  -3.5740  -3.4710  -3.4710   2.3552   4.1174
     4.1174

     occupation numbers 
     1.0000   1.0000   1.0000   1.0000   1.0000   1.0000   1.0000   1.0000
     1.0000

          k = 0.2076 0.2076-0.2076 ( 10180 PWs)   bands (ev):

    -6.2186  -3.6488  -3.6488  -3.4687  -3.4687  -3.4267   1.3393   3.9092
     3.9092

     occupation numbers 
     1.0000   1.0000   1.0000   1.0000   1.0000   1.0000   1.0000   1.0000
     1.0000

          k = 0.2768 0.2768-0.2768 ( 10197 PWs)   bands (ev):

    -6.1344  -3.6375  -3.6375  -3.4644  -3.4644  -3.2544   0.5964   3.7569
     3.7569

     occupation numbers 
     1.0000   1.0000   1.0000   1.0000   1.0000   1.0000   1.0000   1.0000
     1.0000

          k =-0.3460-0.3460 0.3460 ( 10200 PWs)   bands (ev):

    -6.1027  -3.6338  -3.6338  -3.4622  -3.4622  -3.1690   0.3125   3.7018
     3.7018

     occupation numbers 
     1.0000   1.0000   1.0000   1.0000   1.0000   1.0000   1.0000   1.0000
     1.0000

          k = 0.1384 0.0000 0.0000 ( 10161 PWs)   bands (ev):

    -6.3988  -3.6745  -3.6745  -3.6581  -3.4740  -3.4679   3.4344   4.1678
     4.1678

     occupation numbers 
     1.0000   1.0000   1.0000   1.0000   1.0000   1.0000   1.0000   1.0000
     1.0000

          k = 0.2076 0.0692-0.0692 ( 10180 PWs)   bands (ev):

    -6.3310  -3.6635  -3.6593  -3.5957  -3.4754  -3.4656   2.5889   3.9425
     3.9922

     occupation numbers 
     1.0000   1.0000   1.0000   1.0000   1.0000   1.0000   1.0000   1.0000
     1.0000

          k = 0.2768 0.1384-0.1384 ( 10192 PWs)   bands (ev):

    -6.2324  -3.6492  -3.6419  -3.4965  -3.4631  -3.4453   1.6205   3.7310
     3.7496

     occupation numbers 
     1.0000   1.0000   1.0000   1.0000   1.0000   1.0000   1.0000   1.0000
     1.0000

          k = 0.3460 0.2076-0.2076 ( 10195 PWs)   bands (ev):

    -6.1417  -3.6365  -3.6297  -3.4783  -3.4606  -3.2865   0.8187   3.4987
     3.6022

     occupation numbers 
     1.0000   1.0000   1.0000   1.0000   1.0000   1.0000   1.0000   1.0000
     1.0000

          k =-0.2768-0.4152 0.4152 ( 10176 PWs)   bands (ev):

    -6.0931  -3.6295  -3.6255  -3.4698  -3.4612  -3.1604   0.3853   3.3216
     3.5886

     occupation numbers 
     1.0000   1.0000   1.0000   1.0000   1.0000   1.0000   1.0000   1.0000
     1.0000

          k =-0.2076-0.3460 0.3460 ( 10191 PWs)   bands (ev):

    -6.1035  -3.6294  -3.6289  -3.4666  -3.4657  -3.1890   0.4787   3.2640
     3.6923

     occupation numbers 
     1.0000   1.0000   1.0000   1.0000   1.0000   1.0000   1.0000   1.0000
     1.0000

          k =-0.1384-0.2768 0.2768 ( 10197 PWs)   bands (ev):

    -6.1695  -3.6410  -3.6350  -3.4732  -3.4684  -3.3422   1.0576   3.3465
     3.8864

     occupation numbers 
     1.0000   1.0000   1.0000   1.0000   1.0000   1.0000   1.0000   1.0000
     1.0000

          k =-0.0692-0.2076 0.2076 ( 10181 PWs)   bands (ev):

    -6.2673  -3.6580  -3.6481  -3.5162  -3.4760  -3.4594   1.9246   3.5724
     4.1129

     occupation numbers 
     1.0000   1.0000   1.0000   1.0000   1.0000   1.0000   1.0000   1.0000
     1.0000

          k = 0.0000-0.1384 0.1384 ( 10145 PWs)   bands (ev):

    -6.3594  -3.6736  -3.6655  -3.6167  -3.4743  -3.4677   2.8447   3.9346
     4.2834

     occupation numbers 
     1.0000   1.0000   1.0000   1.0000   1.0000   1.0000   1.0000   1.0000
     1.0000

          k = 0.2768 0.0000 0.0000 ( 10197 PWs)   bands (ev):

    -6.2853  -3.6428  -3.6428  -3.5765  -3.4726  -3.4611   2.3397   3.6847
     3.6847

     occupation numbers 
     1.0000   1.0000   1.0000   1.0000   1.0000   1.0000   1.0000   1.0000
     1.0000

          k = 0.3460 0.0692-0.0692 ( 10207 PWs)   bands (ev):

    -6.2050  -3.6286  -3.6234  -3.5249  -3.4575  -3.4235   1.6872   3.3957
     3.4531

     occupation numbers 
     1.0000   1.0000   1.0000   1.0000   1.0000   1.0000   1.0000   1.0000
     1.0000

          k = 0.4152 0.1384-0.1384 ( 10199 PWs)   bands (ev):

    -6.1218  -3.6199  -3.6092  -3.5037  -3.4557  -3.2805   1.0054   3.0372
     3.3200

     occupation numbers 
     1.0000   1.0000   1.0000   1.0000   1.0000   1.0000   1.0000   1.0000
     1.0000

          k =-0.2076-0.4844 0.4844 ( 10212 PWs)   bands (ev):

    -6.0676  -3.6156  -3.6041  -3.4894  -3.4582  -3.1363   0.5432   2.7240
     3.3187

     occupation numbers 
     1.0000   1.0000   1.0000   1.0000   1.0000   1.0000   1.0000   1.0000
     1.0000

          k =-0.1384-0.4152 0.4152 ( 10205 PWs)   bands (ev):

    -6.0613  -3.6155  -3.6085  -3.4777  -3.4660  -3.1083   0.4824   2.5545
     3.4490

     occupation numbers 
     1.0000   1.0000   1.0000   1.0000   1.0000   1.0000   1.0000   1.0000
     1.0000

          k =-0.0692-0.3460 0.3460 ( 10196 PWs)   bands (ev):

    -6.1048  -3.6217  -3.6196  -3.4744  -3.4729  -3.2200   0.8347   2.5993
     3.6772

     occupation numbers 
     1.0000   1.0000   1.0000   1.0000   1.0000   1.0000   1.0000   1.0000
     1.0000

          k = 0.0000-0.2768 0.2768 ( 10157 PWs)   bands (ev):

    -6.1833  -3.6408  -3.6303  -3.4780  -3.4769  -3.3738   1.3933   2.9378
     3.9335

     occupation numbers 
     1.0000   1.0000   1.0000   1.0000   1.0000   1.0000   1.0000   1.0000
     1.0000

          k = 0.4152 0.0000 0.0000 ( 10213 PWs)   bands (ev):

    -6.1472  -3.6014  -3.6014  -3.5354  -3.4528  -3.3591   1.3783   3.1955
     3.1955

     occupation numbers 
     1.0000   1.0000   1.0000   1.0000   1.0000   1.0000   1.0000   1.0000
     1.0000

          k = 0.4844 0.0692-0.0692 ( 10197 PWs)   bands (ev):

    -6.0824  -3.5908  -3.5847  -3.5290  -3.4503  -3.2369   0.9305   2.8793
     3.0393

     occupation numbers 
     1.0000   1.0000   1.0000   1.0000   1.0000   1.0000   1.0000   1.0000
     1.0000

          k =-0.1384-0.5536 0.5536 ( 10221 PWs)   bands (ev):

    -6.0355  -3.5930  -3.5784  -3.5136  -3.4529  -3.1015   0.5951   2.4521
     3.0242

     occupation numbers 
     1.0000   1.0000   1.0000   1.0000   1.0000   1.0000   1.0000   1.0000
     1.0000

          k =-0.0692-0.4844 0.4844 ( 10211 PWs)   bands (ev):

    -6.0234  -3.5994  -3.5836  -3.4961  -3.4612  -3.0400   0.5052   2.1412
     3.1535

     occupation numbers 
     1.0000   1.0000   1.0000   1.0000   1.0000   1.0000   1.0000   1.0000
     1.0000

          k =-0.0000-0.4152 0.4152 ( 10221 PWs)   bands (ev):

    -6.0495  -3.6079  -3.5995  -3.4817  -3.4702  -3.0960   0.6379   2.1490
     3.3952

     occupation numbers 
     1.0000   1.0000   1.0000   1.0000   1.0000   1.0000   1.0000   1.0000
     1.0000

          k = 0.5536 0.0000 0.0000 ( 10218 PWs)   bands (ev):

    -6.0391  -3.5660  -3.5660  -3.5445  -3.4460  -3.1569   0.6614   2.8528
     2.8528

     occupation numbers 
     1.0000   1.0000   1.0000   1.0000   1.0000   1.0000   1.0000   1.0000
     1.0000

          k =-0.0692-0.6228 0.6228 ( 10234 PWs)   bands (ev):

    -6.0092  -3.5690  -3.5589  -3.5348  -3.4465  -3.0671   0.4642   2.5915
     2.8088

     occupation numbers 
     1.0000   1.0000   1.0000   1.0000   1.0000   1.0000   1.0000   1.0000
     1.0000

          k = 0.0000-0.5536 0.5536 ( 10215 PWs)   bands (ev):

    -6.0035  -3.5830  -3.5651  -3.5163  -3.4531  -3.0195   0.4477   2.2280
     2.9178

     occupation numbers 
     1.0000   1.0000   1.0000   1.0000   1.0000   1.0000   1.0000   1.0000
     1.0000

          k =-0.6920 0.0000 0.0000 ( 10190 PWs)   bands (ev):

    -5.9991  -3.5519  -3.5519  -3.5498  -3.4434  -3.0519   0.3799   2.7309
     2.7309

     occupation numbers 
     1.0000   1.0000   1.0000   1.0000   1.0000   1.0000   1.0000   1.0000
     1.0000

          k = 0.2768 0.1384-0.0000 ( 10192 PWs)   bands (ev):

    -6.2568  -3.6497  -3.6401  -3.5294  -3.4692  -3.4564   1.9867   3.4374
     3.8973

     occupation numbers 
     1.0000   1.0000   1.0000   1.0000   1.0000   1.0000   1.0000   1.0000
     1.0000

          k = 0.3460 0.2076-0.0692 ( 10186 PWs)   bands (ev):

    -6.1661  -3.6341  -3.6245  -3.4935  -3.4625  -3.3512   1.2621   3.0518
     3.6971

     occupation numbers 
     1.0000   1.0000   1.0000   1.0000   1.0000   1.0000   1.0000   1.0000
     1.0000

          k =-0.2768-0.4152 0.5536 ( 10192 PWs)   bands (ev):

    -6.0942  -3.6228  -3.6153  -3.4827  -3.4618  -3.1928   0.6628   2.8503
     3.4993

     occupation numbers 
     1.0000   1.0000   1.0000   1.0000   1.0000   1.0000   1.0000   1.0000
     1.0000

          k =-0.2076-0.3460 0.4844 ( 10210 PWs)   bands (ev):

    -6.0672  -3.6193  -3.6121  -3.4763  -3.4637  -3.1154   0.4253   2.7911
     3.4184

     occupation numbers 
     1.0000   1.0000   1.0000   1.0000   1.0000   1.0000   1.0000   1.0000
     1.0000

          k = 0.4152 0.1384-0.0000 ( 10195 PWs)   bands (ev):

    -6.1326  -3.6125  -3.6055  -3.5163  -3.4551  -3.3172   1.2145   2.9582
     3.3085

     occupation numbers 
     1.0000   1.0000   1.0000   1.0000   1.0000   1.0000   1.0000   1.0000
     1.0000

          k =-0.2076-0.4844 0.6228 ( 10199 PWs)   bands (ev):

    -6.0682  -3.6043  -3.5946  -3.5051  -3.4562  -3.1700   0.7643   2.5951
     3.1323

     occupation numbers 
     1.0000   1.0000   1.0000   1.0000   1.0000   1.0000   1.0000   1.0000
     1.0000

          k =-0.1384-0.4152 0.5536 ( 10200 PWs)   bands (ev):

    -6.0356  -3.6037  -3.5910  -3.4918  -3.4621  -3.0665   0.5161   2.3451
     3.0944

     occupation numbers 
     1.0000   1.0000   1.0000   1.0000   1.0000   1.0000   1.0000   1.0000
     1.0000

          k =-0.0692-0.3460 0.4844 ( 10204 PWs)   bands (ev):

    -6.0456  -3.6069  -3.5972  -3.4854  -3.4667  -3.0879   0.5855   2.2776
     3.2315

     occupation numbers 
     1.0000   1.0000   1.0000   1.0000   1.0000   1.0000   1.0000   1.0000
     1.0000

          k = 0.0000-0.2768 0.4152 ( 10208 PWs)   bands (ev):

    -6.0949  -3.6164  -3.6100  -3.4900  -3.4641  -3.2122   0.8943   2.4992
     3.4746

     occupation numbers 
     1.0000   1.0000   1.0000   1.0000   1.0000   1.0000   1.0000   1.0000
     1.0000

          k =-0.1384-0.5536 0.6920 ( 10195 PWs)   bands (ev):

    -6.0355  -3.5791  -3.5764  -3.5249  -3.4501  -3.1236   0.6408   2.6516
     2.8338

     occupation numbers 
     1.0000   1.0000   1.0000   1.0000   1.0000   1.0000   1.0000   1.0000
     1.0000

          k =-0.0692-0.4844 0.6228 ( 10207 PWs)   bands (ev):

    -6.0098  -3.5843  -3.5733  -3.5104  -3.4558  -3.0310   0.4947   2.3114
     2.7869

     occupation numbers 
     1.0000   1.0000   1.0000   1.0000   1.0000   1.0000   1.0000   1.0000
     1.0000

          k = 0.0000-0.4152 0.5536 ( 10193 PWs)   bands (ev):

    -6.0137  -3.5947  -3.5802  -3.4949  -3.4643  -3.0181   0.5151   2.0941
     2.9520

     occupation numbers 
     1.0000   1.0000   1.0000   1.0000   1.0000   1.0000   1.0000   1.0000
     1.0000

          k =-0.6920 0.1384 0.0000 ( 10224 PWs)   bands (ev):

    -5.9996  -3.5680  -3.5645  -3.5261  -3.4489  -3.0291   0.4170   2.5785
     2.6252

     occupation numbers 
     1.0000   1.0000   1.0000   1.0000   1.0000   1.0000   1.0000   1.0000
     1.0000

          k =-0.1384-0.4152 0.6920 ( 10230 PWs)   bands (ev):

    -6.0259  -3.5939  -3.5853  -3.4983  -3.4619  -3.0586   0.5852   2.2873
     2.8582

     occupation numbers 
     1.0000   1.0000   1.0000   1.0000   1.0000   1.0000   1.0000   1.0000
     1.0000

          k =-0.0692-0.3460 0.6228 ( 10214 PWs)   bands (ev):

    -6.0101  -3.5920  -3.5806  -3.4925  -3.4669  -3.0095   0.5138   2.1966
     2.7217

     occupation numbers 
     1.0000   1.0000   1.0000   1.0000   1.0000   1.0000   1.0000   1.0000
     1.0000

          k =-0.6920 0.2768 0.0000 ( 10200 PWs)   bands (ev):

    -6.0003  -3.5829  -3.5764  -3.5001  -3.4630  -2.9938   0.4845   2.3459
     2.4703

     occupation numbers 
     1.0000   1.0000   1.0000   1.0000   1.0000   1.0000   1.0000   1.0000
     1.0000

     highest occupied level (ev):     4.3866

!    total energy              =    -128.98027878 Ry
     estimated scf accuracy    <          3.4E-14 Ry

     The total energy is the sum of the following terms:
     one-electron contribution =     -51.32160488 Ry
     hartree contribution      =      36.95332114 Ry
     xc contribution           =     -39.44632695 Ry
     ewald contribution        =     -75.16566809 Ry

     convergence has been achieved in  13 iterations

     Forces acting on atoms (cartesian axes, Ry/au):

     atom    1 type  1   force =    -0.00000000    0.00000000    0.00000000
     atom    2 type  2   force =    -0.00000000    0.00000000   -0.00000000
     The non-local contrib.  to forces
     atom    1 type  1   force =    -0.00000000    0.00000000    0.00000000
     atom    2 type  2   force =     0.00000000   -0.00000000   -0.00000000
     The ionic contribution  to forces
     atom    1 type  1   force =     0.00000000   -0.00000000    0.00000000
     atom    2 type  2   force =    -0.00000000   -0.00000000   -0.00000000
     The local contribution  to forces
     atom    1 type  1   force =    -0.00000000   -0.00000000   -0.00000000
     atom    2 type  2   force =    -0.00000000    0.00000000    0.00000000
     The core correction contribution to forces
     atom    1 type  1   force =     0.00000000   -0.00000000    0.00000000
     atom    2 type  2   force =     0.00000000    0.00000000    0.00000000
     The Hubbard contrib.    to forces
     atom    1 type  1   force =     0.00000000    0.00000000    0.00000000
     atom    2 type  2   force =     0.00000000    0.00000000    0.00000000
     The SCF correction term to forces
     atom    1 type  1   force =    -0.00000000   -0.00000000    0.00000000
     atom    2 type  2   force =    -0.00000000   -0.00000000    0.00000000

     Total force =     0.000000     Total SCF correction =     0.000000


     Computing stress (Cartesian axis) and pressure

          total   stress  (Ry/bohr**3)                   (kbar)     P=        0.01
   0.00000009   0.00000000   0.00000000            0.01        0.00        0.00
   0.00000000   0.00000009  -0.00000000            0.00        0.01       -0.00
   0.00000000  -0.00000000   0.00000009            0.00       -0.00        0.01

     kinetic stress (kbar)   8982.77      0.00      0.00
                                0.00   8982.77      0.00
                                0.00     -0.00   8982.77

     local   stress (kbar)    430.87      0.00      0.00
                                0.00    430.87     -0.00
                                0.00     -0.00    430.87

     nonloc. stress (kbar)  -3395.95     -0.00      0.00
                               -0.00  -3395.95     -0.00
                                0.00     -0.00  -3395.95

     hartree stress (kbar)   3697.01      0.00      0.00
                                0.00   3697.01      0.00
                                0.00      0.00   3697.01

     exc-cor stress (kbar)   4207.70     -0.00      0.00
                               -0.00   4207.70      0.00
                                0.00      0.00   4207.70

     corecor stress (kbar)  -6402.42      0.00      0.00
                                0.00  -6402.42      0.00
                                0.00      0.00  -6402.42

     ewald   stress (kbar)  -7519.97      0.00     -0.00
                                0.00  -7519.97     -0.00
                               -0.00     -0.00  -7519.97

     hubbard stress (kbar)      0.00      0.00      0.00
                                0.00      0.00      0.00
                                0.00      0.00      0.00

     DFT-D   stress (kbar)      0.00      0.00      0.00
                                0.00      0.00      0.00
                                0.00      0.00      0.00

     XDM     stress (kbar)      0.00      0.00      0.00
                                0.00      0.00      0.00
                                0.00      0.00      0.00

     dft-nl  stress (kbar)      0.00      0.00      0.00
                                0.00      0.00      0.00
                                0.00      0.00      0.00

     TS-vdW  stress (kbar)      0.00      0.00      0.00
                                0.00      0.00      0.00
                                0.00      0.00      0.00

     MDB     stress (kbar)      0.00      0.00      0.00
                                0.00      0.00      0.00
                                0.00      0.00      0.00

     3D-RISM stress (kbar)      0.00      0.00      0.00
                                0.00      0.00      0.00
                                0.00      0.00      0.00

     Energy error            =      5.3E-07 Ry
     Gradient error          =      2.7E-31 Ry/Bohr
     Cell gradient error     =      1.3E-02 kbar

     bfgs converged in   6 scf cycles and   5 bfgs steps
     (criteria: energy <  1.0E-04 Ry, force <  1.0E-03 Ry/Bohr, cell <  5.0E-01 kbar)

     End of BFGS Geometry Optimization

     Final enthalpy           =    -128.9802787828 Ry

     File /home/User/opencode_workspace/DFT/calculations/cdte/relax_nosoc/out/pwscf.bfgs deleted, as requested
Begin final coordinates
     new unit-cell volume =    490.12810 a.u.^3 (    72.62949 Ang^3 )
     density =      5.48748 g/cm^3

CELL_PARAMETERS (angstrom)
   0.000000000   3.311522172   3.311522172
   3.311522172   0.000000000   3.311522172
   3.311522172   3.311522172   0.000000000

ATOMIC_POSITIONS (crystal)
Cd               0.0000000000       -0.0000000000       -0.0000000000
Te               0.2500000000        0.2500000000        0.2500000000
End final coordinates



     Writing config-only to output data dir /home/User/opencode_workspace/DFT/calculations/cdte/relax_nosoc/out/pwscf.save/ :
     XML data file

     Final scf calculation at the relaxed structure.
     The G-vectors are recalculated for the final unit cell
     Results may differ from those at the preceding step.

     Parallelization info
     --------------------
     sticks:   dense  smooth     PW     G-vecs:    dense   smooth      PW
     Min         646     431    122                26669    14503    2156
     Max         647     432    123                26672    14506    2157
     Sum        3877    2587    733               160021    87027   12939

     Using Slab Decomposition



     bravais-lattice index     =            0
     lattice parameter (alat)  =       8.6615  a.u.
     unit-cell volume          =     490.1281 (a.u.)^3
     number of atoms/cell      =            2
     number of atomic types    =            2
     number of electrons       =        18.00
     number of Kohn-Sham states=            9
     kinetic-energy cutoff     =     120.0000  Ry
     charge density cutoff     =     720.0000  Ry
     scf convergence threshold =      1.0E-12
     mixing beta               =       0.3000
     number of iterations used =            8  plain     mixing
     press convergence thresh. =      5.0E-01
     Exchange-correlation= PBE
                           (   1   4   3   4   0   0   0)

     celldm(1)=   8.661496  celldm(2)=   0.000000  celldm(3)=   0.000000
     celldm(4)=   0.000000  celldm(5)=   0.000000  celldm(6)=   0.000000

     crystal axes: (cart. coord. in units of alat)
               a(1) = (   0.000000   0.722493   0.722493 )  
               a(2) = (   0.722493   0.000000   0.722493 )  
               a(3) = (   0.722493   0.722493   0.000000 )  

     reciprocal axes: (cart. coord. in units 2 pi/alat)
               b(1) = ( -0.692048  0.692048  0.692048 )  
               b(2) = (  0.692048 -0.692048  0.692048 )  
               b(3) = (  0.692048  0.692048 -0.692048 )  


     PseudoPot. # 1 for Cd read from file:
     /home/User/opencode_workspace/DFT/pseudopotentials/Cd.pbe-n-rrkjus_psl.1.0.0.UPF
     MD5 check sum: a744746c89d2344a134ead0d8ab94e7a
     Pseudo is Ultrasoft + core correction, Zval = 12.0
     Generated using &quot;atomic&quot; code by A. Dal Corso  v.6.3
     Using radial grid of 1239 points,  6 beta functions with: 
                l(1) =   0
                l(2) =   0
                l(3) =   1
                l(4) =   1
                l(5) =   2
                l(6) =   2
     Q(r) pseudized with 0 coefficients 


     PseudoPot. # 2 for Te read from file:
     /home/User/opencode_workspace/DFT/pseudopotentials/Te.pbe-n-rrkjus_psl.1.0.0.UPF
     MD5 check sum: 203a1e86ef55f0cd9de2762a27c58f54
     Pseudo is Ultrasoft + core correction, Zval =  6.0
     Generated using &quot;atomic&quot; code by A. Dal Corso  v.6.3
     Using radial grid of 1245 points,  6 beta functions with: 
                l(1) =   0
                l(2) =   0
                l(3) =   1
                l(4) =   1
                l(5) =   2
                l(6) =   2
     Q(r) pseudized with 0 coefficients 


     atomic species   valence    mass     pseudopotential
     Cd               12.00   112.41400     Cd( 1.00)
     Te                6.00   127.60000     Te( 1.00)

     24 Sym. Ops. (no inversion) found


                                    s                        frac. trans.

      isym =  1     identity                                     

 cryst.   s( 1) = (     1          0          0      )
                  (     0          1          0      )
                  (     0          0          1      )

 cart.    s( 1) = (  1.0000000  0.0000000  0.0000000 )
                  (  0.0000000  1.0000000  0.0000000 )
                  (  0.0000000  0.0000000  1.0000000 )


      isym =  2     180 deg rotation - cart. axis [0,0,1]        

 cryst.   s( 2) = (     0          1         -1      )
                  (     1          0         -1      )
                  (     0          0         -1      )

 cart.    s( 2) = ( -1.0000000  0.0000000  0.0000000 )
                  (  0.0000000 -1.0000000  0.0000000 )
                  (  0.0000000  0.0000000  1.0000000 )


      isym =  3     180 deg rotation - cart. axis [0,1,0]        

 cryst.   s( 3) = (     0         -1          1      )
                  (     0         -1          0      )
                  (     1         -1          0      )

 cart.    s( 3) = ( -1.0000000  0.0000000  0.0000000 )
                  (  0.0000000  1.0000000  0.0000000 )
                  (  0.0000000  0.0000000 -1.0000000 )


      isym =  4     180 deg rotation - cart. axis [1,0,0]        

 cryst.   s( 4) = (    -1          0          0      )
                  (    -1          0          1      )
                  (    -1          1          0      )

 cart.    s( 4) = (  1.0000000  0.0000000  0.0000000 )
                  (  0.0000000 -1.0000000  0.0000000 )
                  (  0.0000000  0.0000000 -1.0000000 )


      isym =  5     120 deg rotation - cart. axis [-1,-1,-1]     

 cryst.   s( 5) = (     0          0          1      )
                  (     1          0          0      )
                  (     0          1          0      )

 cart.    s( 5) = (  0.0000000  1.0000000  0.0000000 )
                  (  0.0000000  0.0000000  1.0000000 )
                  (  1.0000000  0.0000000  0.0000000 )


      isym =  6     120 deg rotation - cart. axis [-1,1,1]       

 cryst.   s( 6) = (     1         -1          0      )
                  (     0         -1          1      )
                  (     0         -1          0      )

 cart.    s( 6) = (  0.0000000 -1.0000000  0.0000000 )
                  (  0.0000000  0.0000000  1.0000000 )
                  ( -1.0000000  0.0000000  0.0000000 )


      isym =  7     120 deg rotation - cart. axis [1,1,-1]       

 cryst.   s( 7) = (    -1          1          0      )
                  (    -1          0          0      )
                  (    -1          0          1      )

 cart.    s( 7) = (  0.0000000  1.0000000  0.0000000 )
                  (  0.0000000  0.0000000 -1.0000000 )
                  ( -1.0000000  0.0000000  0.0000000 )


      isym =  8     120 deg rotation - cart. axis [1,-1,1]       

 cryst.   s( 8) = (     0          0         -1      )
                  (     0          1         -1      )
                  (     1          0         -1      )

 cart.    s( 8) = (  0.0000000 -1.0000000  0.0000000 )
                  (  0.0000000  0.0000000 -1.0000000 )
                  (  1.0000000  0.0000000  0.0000000 )


      isym =  9     120 deg rotation - cart. axis [1,1,1]        

 cryst.   s( 9) = (     0          1          0      )
                  (     0          0          1      )
                  (     1          0          0      )

 cart.    s( 9) = (  0.0000000  0.0000000  1.0000000 )
                  (  1.0000000  0.0000000  0.0000000 )
                  (  0.0000000  1.0000000  0.0000000 )


      isym = 10     120 deg rotation - cart. axis [-1,1,-1]      

 cryst.   s(10) = (    -1          0          1      )
                  (    -1          1          0      )
                  (    -1          0          0      )

 cart.    s(10) = (  0.0000000  0.0000000  1.0000000 )
                  ( -1.0000000  0.0000000  0.0000000 )
                  (  0.0000000 -1.0000000  0.0000000 )


      isym = 11     120 deg rotation - cart. axis [1,-1,-1]      

 cryst.   s(11) = (     1          0         -1      )
                  (     0          0         -1      )
                  (     0          1         -1      )

 cart.    s(11) = (  0.0000000  0.0000000 -1.0000000 )
                  ( -1.0000000  0.0000000  0.0000000 )
                  (  0.0000000  1.0000000  0.0000000 )


      isym = 12     120 deg rotation - cart. axis [-1,-1,1]      

 cryst.   s(12) = (     0         -1          0      )
                  (     1         -1          0      )
                  (     0         -1          1      )

 cart.    s(12) = (  0.0000000  0.0000000 -1.0000000 )
                  (  1.0000000  0.0000000  0.0000000 )
                  (  0.0000000 -1.0000000  0.0000000 )


      isym = 13     inv. 180 deg rotation - cart. axis [1,1,0]   

 cryst.   s(13) = (     1          0         -1      )
                  (     0          1         -1      )
                  (     0          0         -1      )

 cart.    s(13) = (  0.0000000 -1.0000000  0.0000000 )
                  ( -1.0000000  0.0000000  0.0000000 )
                  (  0.0000000  0.0000000  1.0000000 )


      isym = 14     inv. 180 deg rotation - cart. axis [1,-1,0]  

 cryst.   s(14) = (     0          1          0      )
                  (     1          0          0      )
                  (     0          0          1      )

 cart.    s(14) = (  0.0000000  1.0000000  0.0000000 )
                  (  1.0000000  0.0000000  0.0000000 )
                  (  0.0000000  0.0000000  1.0000000 )


      isym = 15     inv.  90 deg rotation - cart. axis [0,0,-1]  

 cryst.   s(15) = (     0         -1          0      )
                  (     0         -1          1      )
                  (     1         -1          0      )

 cart.    s(15) = (  0.0000000 -1.0000000  0.0000000 )
                  (  1.0000000  0.0000000  0.0000000 )
                  (  0.0000000  0.0000000 -1.0000000 )


      isym = 16     inv.  90 deg rotation - cart. axis [0,0,1]   

 cryst.   s(16) = (    -1          0          1      )
                  (    -1          0          0      )
                  (    -1          1          0      )

 cart.    s(16) = (  0.0000000  1.0000000  0.0000000 )
                  ( -1.0000000  0.0000000  0.0000000 )
                  (  0.0000000  0.0000000 -1.0000000 )


      isym = 17     inv. 180 deg rotation - cart. axis [1,0,1]   

 cryst.   s(17) = (     1         -1          0      )
                  (     0         -1          0      )
                  (     0         -1          1      )

 cart.    s(17) = (  0.0000000  0.0000000 -1.0000000 )
                  (  0.0000000  1.0000000  0.0000000 )
                  ( -1.0000000  0.0000000  0.0000000 )


      isym = 18     inv. 180 deg rotation - cart. axis [-1,0,1]  

 cryst.   s(18) = (     0          0          1      )
                  (     0          1          0      )
                  (     1          0          0      )

 cart.    s(18) = (  0.0000000  0.0000000  1.0000000 )
                  (  0.0000000  1.0000000  0.0000000 )
                  (  1.0000000  0.0000000  0.0000000 )


      isym = 19     inv.  90 deg rotation - cart. axis [0,1,0]   

 cryst.   s(19) = (     0          0         -1      )
                  (     1          0         -1      )
                  (     0          1         -1      )

 cart.    s(19) = (  0.0000000  0.0000000 -1.0000000 )
                  (  0.0000000 -1.0000000  0.0000000 )
                  (  1.0000000  0.0000000  0.0000000 )


      isym = 20     inv.  90 deg rotation - cart. axis [0,-1,0]  

 cryst.   s(20) = (    -1          1          0      )
                  (    -1          0          1      )
                  (    -1          0          0      )

 cart.    s(20) = (  0.0000000  0.0000000  1.0000000 )
                  (  0.0000000 -1.0000000  0.0000000 )
                  ( -1.0000000  0.0000000  0.0000000 )


      isym = 21     inv. 180 deg rotation - cart. axis [0,1,1]   

 cryst.   s(21) = (    -1          0          0      )
                  (    -1          1          0      )
                  (    -1          0          1      )

 cart.    s(21) = (  1.0000000  0.0000000  0.0000000 )
                  (  0.0000000  0.0000000 -1.0000000 )
                  (  0.0000000 -1.0000000  0.0000000 )


      isym = 22     inv. 180 deg rotation - cart. axis [0,1,-1]  

 cryst.   s(22) = (     1          0          0      )
                  (     0          0          1      )
                  (     0          1          0      )

 cart.    s(22) = (  1.0000000  0.0000000  0.0000000 )
                  (  0.0000000  0.0000000  1.0000000 )
                  (  0.0000000  1.0000000  0.0000000 )


      isym = 23     inv.  90 deg rotation - cart. axis [-1,0,0]  

 cryst.   s(23) = (     0          1         -1      )
                  (     0          0         -1      )
                  (     1          0         -1      )

 cart.    s(23) = ( -1.0000000  0.0000000  0.0000000 )
                  (  0.0000000  0.0000000 -1.0000000 )
                  (  0.0000000  1.0000000  0.0000000 )


      isym = 24     inv.  90 deg rotation - cart. axis [1,0,0]   

 cryst.   s(24) = (     0         -1          1      )
                  (     1         -1          0      )
                  (     0         -1          0      )

 cart.    s(24) = ( -1.0000000  0.0000000  0.0000000 )
                  (  0.0000000  0.0000000  1.0000000 )
                  (  0.0000000 -1.0000000  0.0000000 )


   Cartesian axes

     site n.     atom                  positions (alat units)
         1        Cd     tau(   1) = (  -0.0000000   0.0000000   0.0000000  )
         2        Te     tau(   2) = (   0.3612465   0.3612465   0.3612465  )

   Crystallographic axes

     site n.     atom                  positions (cryst. coord.)
         1        Cd     tau(   1) = (  0.0000000 -0.0000000 -0.0000000  )
         2        Te     tau(   2) = (  0.2500000  0.2500000  0.2500000  )

     number of k points=    47
                       cart. coord. in units 2pi/alat
        k(    1) = (   0.0000000   0.0000000   0.0000000), wk =   0.0020000
        k(    2) = (   0.0692048   0.0692048  -0.0692048), wk =   0.0160000
        k(    3) = (   0.1384096   0.1384096  -0.1384096), wk =   0.0160000
        k(    4) = (   0.2076145   0.2076145  -0.2076145), wk =   0.0160000
        k(    5) = (   0.2768193   0.2768193  -0.2768193), wk =   0.0160000
        k(    6) = (  -0.3460241  -0.3460241   0.3460241), wk =   0.0080000
        k(    7) = (   0.1384096   0.0000000   0.0000000), wk =   0.0120000
        k(    8) = (   0.2076145   0.0692048  -0.0692048), wk =   0.0480000
        k(    9) = (   0.2768193   0.1384096  -0.1384096), wk =   0.0480000
        k(   10) = (   0.3460241   0.2076145  -0.2076145), wk =   0.0480000
        k(   11) = (  -0.2768193  -0.4152289   0.4152289), wk =   0.0480000
        k(   12) = (  -0.2076145  -0.3460241   0.3460241), wk =   0.0480000
        k(   13) = (  -0.1384096  -0.2768193   0.2768193), wk =   0.0480000
        k(   14) = (  -0.0692048  -0.2076145   0.2076145), wk =   0.0480000
        k(   15) = (   0.0000000  -0.1384096   0.1384096), wk =   0.0240000
        k(   16) = (   0.2768193   0.0000000   0.0000000), wk =   0.0120000
        k(   17) = (   0.3460241   0.0692048  -0.0692048), wk =   0.0480000
        k(   18) = (   0.4152289   0.1384096  -0.1384096), wk =   0.0480000
        k(   19) = (  -0.2076145  -0.4844338   0.4844338), wk =   0.0480000
        k(   20) = (  -0.1384096  -0.4152289   0.4152289), wk =   0.0480000
        k(   21) = (  -0.0692048  -0.3460241   0.3460241), wk =   0.0480000
        k(   22) = (   0.0000000  -0.2768193   0.2768193), wk =   0.0240000
        k(   23) = (   0.4152289   0.0000000   0.0000000), wk =   0.0120000
        k(   24) = (   0.4844338   0.0692048  -0.0692048), wk =   0.0480000
        k(   25) = (  -0.1384096  -0.5536386   0.5536386), wk =   0.0480000
        k(   26) = (  -0.0692048  -0.4844338   0.4844338), wk =   0.0480000
        k(   27) = (  -0.0000000  -0.4152289   0.4152289), wk =   0.0240000
        k(   28) = (   0.5536386   0.0000000   0.0000000), wk =   0.0120000
        k(   29) = (  -0.0692048  -0.6228434   0.6228434), wk =   0.0480000
        k(   30) = (   0.0000000  -0.5536386   0.5536386), wk =   0.0240000
        k(   31) = (  -0.6920482   0.0000000   0.0000000), wk =   0.0060000
        k(   32) = (   0.2768193   0.1384096  -0.0000000), wk =   0.0480000
        k(   33) = (   0.3460241   0.2076145  -0.0692048), wk =   0.0960000
        k(   34) = (  -0.2768193  -0.4152289   0.5536386), wk =   0.0960000
        k(   35) = (  -0.2076145  -0.3460241   0.4844338), wk =   0.0480000
        k(   36) = (   0.4152289   0.1384096  -0.0000000), wk =   0.0480000
        k(   37) = (  -0.2076145  -0.4844338   0.6228434), wk =   0.0960000
        k(   38) = (  -0.1384096  -0.4152289   0.5536386), wk =   0.0960000
        k(   39) = (  -0.0692048  -0.3460241   0.4844338), wk =   0.0960000
        k(   40) = (   0.0000000  -0.2768193   0.4152289), wk =   0.0480000
        k(   41) = (  -0.1384096  -0.5536386   0.6920482), wk =   0.0480000
        k(   42) = (  -0.0692048  -0.4844338   0.6228434), wk =   0.0960000
        k(   43) = (   0.0000000  -0.4152289   0.5536386), wk =   0.0480000
        k(   44) = (  -0.6920482   0.1384096   0.0000000), wk =   0.0240000
        k(   45) = (  -0.1384096  -0.4152289   0.6920482), wk =   0.0480000
        k(   46) = (  -0.0692048  -0.3460241   0.6228434), wk =   0.0480000
        k(   47) = (  -0.6920482   0.2768193   0.0000000), wk =   0.0240000

                       cryst. coord.
        k(    1) = (   0.0000000   0.0000000   0.0000000), wk =   0.0020000
        k(    2) = (   0.0000000   0.0000000   0.1000000), wk =   0.0160000
        k(    3) = (   0.0000000   0.0000000   0.2000000), wk =   0.0160000
        k(    4) = (   0.0000000   0.0000000   0.3000000), wk =   0.0160000
        k(    5) = (   0.0000000   0.0000000   0.4000000), wk =   0.0160000
        k(    6) = (   0.0000000   0.0000000  -0.5000000), wk =   0.0080000
        k(    7) = (   0.0000000   0.1000000   0.1000000), wk =   0.0120000
        k(    8) = (   0.0000000   0.1000000   0.2000000), wk =   0.0480000
        k(    9) = (   0.0000000   0.1000000   0.3000000), wk =   0.0480000
        k(   10) = (   0.0000000   0.1000000   0.4000000), wk =   0.0480000
        k(   11) = (   0.0000000   0.1000000  -0.5000000), wk =   0.0480000
        k(   12) = (   0.0000000   0.1000000  -0.4000000), wk =   0.0480000
        k(   13) = (   0.0000000   0.1000000  -0.3000000), wk =   0.0480000
        k(   14) = (   0.0000000   0.1000000  -0.2000000), wk =   0.0480000
        k(   15) = (   0.0000000   0.1000000  -0.1000000), wk =   0.0240000
        k(   16) = (   0.0000000   0.2000000   0.2000000), wk =   0.0120000
        k(   17) = (   0.0000000   0.2000000   0.3000000), wk =   0.0480000
        k(   18) = (   0.0000000   0.2000000   0.4000000), wk =   0.0480000
        k(   19) = (   0.0000000   0.2000000  -0.5000000), wk =   0.0480000
        k(   20) = (   0.0000000   0.2000000  -0.4000000), wk =   0.0480000
        k(   21) = (   0.0000000   0.2000000  -0.3000000), wk =   0.0480000
        k(   22) = (   0.0000000   0.2000000  -0.2000000), wk =   0.0240000
        k(   23) = (   0.0000000   0.3000000   0.3000000), wk =   0.0120000
        k(   24) = (   0.0000000   0.3000000   0.4000000), wk =   0.0480000
        k(   25) = (   0.0000000   0.3000000  -0.5000000), wk =   0.0480000
        k(   26) = (   0.0000000   0.3000000  -0.4000000), wk =   0.0480000
        k(   27) = (   0.0000000   0.3000000  -0.3000000), wk =   0.0240000
        k(   28) = (   0.0000000   0.4000000   0.4000000), wk =   0.0120000
        k(   29) = (   0.0000000   0.4000000  -0.5000000), wk =   0.0480000
        k(   30) = (   0.0000000   0.4000000  -0.4000000), wk =   0.0240000
        k(   31) = (  -0.0000000  -0.5000000  -0.5000000), wk =   0.0060000
        k(   32) = (   0.1000000   0.2000000   0.3000000), wk =   0.0480000
        k(   33) = (   0.1000000   0.2000000   0.4000000), wk =   0.0960000
        k(   34) = (   0.1000000   0.2000000  -0.5000000), wk =   0.0960000
        k(   35) = (   0.1000000   0.2000000  -0.4000000), wk =   0.0480000
        k(   36) = (   0.1000000   0.3000000   0.4000000), wk =   0.0480000
        k(   37) = (   0.1000000   0.3000000  -0.5000000), wk =   0.0960000
        k(   38) = (   0.1000000   0.3000000  -0.4000000), wk =   0.0960000
        k(   39) = (   0.1000000   0.3000000  -0.3000000), wk =   0.0960000
        k(   40) = (   0.1000000   0.3000000  -0.2000000), wk =   0.0480000
        k(   41) = (   0.1000000   0.4000000  -0.5000000), wk =   0.0480000
        k(   42) = (   0.1000000   0.4000000  -0.4000000), wk =   0.0960000
        k(   43) = (   0.1000000   0.4000000  -0.3000000), wk =   0.0480000
        k(   44) = (   0.1000000  -0.5000000  -0.4000000), wk =   0.0240000
        k(   45) = (   0.2000000   0.4000000  -0.4000000), wk =   0.0480000
        k(   46) = (   0.2000000   0.4000000  -0.3000000), wk =   0.0480000
        k(   47) = (   0.2000000  -0.5000000  -0.3000000), wk =   0.0240000

     Dense  grid:   160021 G-vectors     FFT dimensions: (  75,  75,  75)

     Smooth grid:    87027 G-vectors     FFT dimensions: (  64,  64,  64)

     Dynamical RAM for                 wfc:       0.25 MB

     Dynamical RAM for     wfc (w. buffer):      11.95 MB

     Dynamical RAM for           str. fact:       0.81 MB

     Dynamical RAM for           local pot:       0.38 MB

     Dynamical RAM for          nlocal pot:       1.00 MB

     Dynamical RAM for                qrad:      12.92 MB

     Dynamical RAM for          rho,v,vnew:       2.89 MB

     Dynamical RAM for               rhoin:       0.96 MB

     Dynamical RAM for            rho*nmix:       6.51 MB

     Dynamical RAM for           G-vectors:       1.64 MB

     Dynamical RAM for          h,s,v(r/c):       0.01 MB

     Dynamical RAM for          <psi|beta>:       0.00 MB

     Dynamical RAM for                 psi:       0.50 MB

     Dynamical RAM for                hpsi:       0.50 MB

     Dynamical RAM for                spsi:       0.50 MB

     Dynamical RAM for      wfcinit/wfcrot:       0.72 MB

     Dynamical RAM for           addusdens:      76.11 MB

     Dynamical RAM for          addusforce:      76.31 MB

     Dynamical RAM for         addusstress:      81.80 MB

     Estimated static dynamical RAM per process >      36.56 MB

     Estimated max dynamical RAM per process >     124.88 MB

     Estimated total dynamical RAM >     749.27 MB

     Initial potential from superposition of free atoms

     starting charge      17.9949, renormalised to      18.0000
     Starting wfcs are   13 randomized atomic wfcs

     total cpu time spent up to now is      337.7 secs

     per-process dynamical memory:    50.4 Mb

     Self-consistent Calculation

     iteration #  1     ecut=   120.00 Ry     beta= 0.30
     Davidson diagonalization with overlap

---- Real-time Memory Report at c_bands before calling an iterative solver
           171 MiB given to the printing process from OS
            49 MiB allocation reported by mallinfo(arena+hblkhd)
          1371 MiB available memory on the node where the printing process lives
------------------
     c_bands:  1 eigenvalues not converged
     c_bands:  1 eigenvalues not converged
     ethr =  1.00E-06,  avg # of iterations = 16.6

     total cpu time spent up to now is      344.2 secs

     total energy              =    -128.97944466 Ry
     estimated scf accuracy    <       0.04090250 Ry

     iteration #  2     ecut=   120.00 Ry     beta= 0.30
     Davidson diagonalization with overlap

---- Real-time Memory Report at c_bands before calling an iterative solver
           174 MiB given to the printing process from OS
            60 MiB allocation reported by mallinfo(arena+hblkhd)
          1250 MiB available memory on the node where the printing process lives
------------------
     ethr =  2.27E-04,  avg # of iterations =  1.0

     total cpu time spent up to now is      345.8 secs

     total energy              =    -128.97579153 Ry
     estimated scf accuracy    <       0.01334204 Ry

     iteration #  3     ecut=   120.00 Ry     beta= 0.30
     Davidson diagonalization with overlap

---- Real-time Memory Report at c_bands before calling an iterative solver
           175 MiB given to the printing process from OS
            60 MiB allocation reported by mallinfo(arena+hblkhd)
          1243 MiB available memory on the node where the printing process lives
------------------
     ethr =  7.41E-05,  avg # of iterations =  2.0

     total cpu time spent up to now is      347.7 secs

     total energy              =    -128.97932245 Ry
     estimated scf accuracy    <       0.00192359 Ry

     iteration #  4     ecut=   120.00 Ry     beta= 0.30
     Davidson diagonalization with overlap

---- Real-time Memory Report at c_bands before calling an iterative solver
           175 MiB given to the printing process from OS
            61 MiB allocation reported by mallinfo(arena+hblkhd)
          1266 MiB available memory on the node where the printing process lives
------------------
     ethr =  1.07E-05,  avg # of iterations =  4.9

     total cpu time spent up to now is      349.8 secs

     total energy              =    -128.98017903 Ry
     estimated scf accuracy    <       0.00046124 Ry

     iteration #  5     ecut=   120.00 Ry     beta= 0.30
     Davidson diagonalization with overlap

---- Real-time Memory Report at c_bands before calling an iterative solver
           176 MiB given to the printing process from OS
            61 MiB allocation reported by mallinfo(arena+hblkhd)
          1215 MiB available memory on the node where the printing process lives
------------------
     ethr =  2.56E-06,  avg # of iterations =  4.2

     total cpu time spent up to now is      351.7 secs

     total energy              =    -128.98027319 Ry
     estimated scf accuracy    <       0.00013691 Ry

     iteration #  6     ecut=   120.00 Ry     beta= 0.30
     Davidson diagonalization with overlap

---- Real-time Memory Report at c_bands before calling an iterative solver
           176 MiB given to the printing process from OS
            61 MiB allocation reported by mallinfo(arena+hblkhd)
          1220 MiB available memory on the node where the printing process lives
------------------
     ethr =  7.61E-07,  avg # of iterations =  4.7

     total cpu time spent up to now is      353.8 secs

     total energy              =    -128.98036599 Ry
     estimated scf accuracy    <       0.00005611 Ry

     iteration #  7     ecut=   120.00 Ry     beta= 0.30
     Davidson diagonalization with overlap

---- Real-time Memory Report at c_bands before calling an iterative solver
           177 MiB given to the printing process from OS
            62 MiB allocation reported by mallinfo(arena+hblkhd)
          1207 MiB available memory on the node where the printing process lives
------------------
     ethr =  3.12E-07,  avg # of iterations =  7.7

     total cpu time spent up to now is      356.6 secs

     total energy              =    -128.98024326 Ry
     estimated scf accuracy    <       0.00043827 Ry

     iteration #  8     ecut=   120.00 Ry     beta= 0.30
     Davidson diagonalization with overlap

---- Real-time Memory Report at c_bands before calling an iterative solver
           177 MiB given to the printing process from OS
            62 MiB allocation reported by mallinfo(arena+hblkhd)
          1315 MiB available memory on the node where the printing process lives
------------------
     ethr =  3.12E-07,  avg # of iterations =  6.5

     total cpu time spent up to now is      359.2 secs

     total energy              =    -128.98030773 Ry
     estimated scf accuracy    <       0.00000957 Ry

     iteration #  9     ecut=   120.00 Ry     beta= 0.30
     Davidson diagonalization with overlap

---- Real-time Memory Report at c_bands before calling an iterative solver
           178 MiB given to the printing process from OS
            63 MiB allocation reported by mallinfo(arena+hblkhd)
          1231 MiB available memory on the node where the printing process lives
------------------
     ethr =  5.32E-08,  avg # of iterations =  6.6

     total cpu time spent up to now is      361.9 secs

     total energy              =    -128.98031290 Ry
     estimated scf accuracy    <       0.00000747 Ry

     iteration # 10     ecut=   120.00 Ry     beta= 0.30
     Davidson diagonalization with overlap

---- Real-time Memory Report at c_bands before calling an iterative solver
           178 MiB given to the printing process from OS
            63 MiB allocation reported by mallinfo(arena+hblkhd)
          1218 MiB available memory on the node where the printing process lives
------------------
     ethr =  4.15E-08,  avg # of iterations =  5.1

     total cpu time spent up to now is      364.1 secs

     total energy              =    -128.98031534 Ry
     estimated scf accuracy    <       0.00000540 Ry

     iteration # 11     ecut=   120.00 Ry     beta= 0.30
     Davidson diagonalization with overlap

---- Real-time Memory Report at c_bands before calling an iterative solver
           178 MiB given to the printing process from OS
            63 MiB allocation reported by mallinfo(arena+hblkhd)
          1219 MiB available memory on the node where the printing process lives
------------------
     ethr =  3.00E-08,  avg # of iterations =  1.1

     total cpu time spent up to now is      365.6 secs

     total energy              =    -128.98031564 Ry
     estimated scf accuracy    <       0.00000249 Ry

     iteration # 12     ecut=   120.00 Ry     beta= 0.30
     Davidson diagonalization with overlap

---- Real-time Memory Report at c_bands before calling an iterative solver
           178 MiB given to the printing process from OS
            63 MiB allocation reported by mallinfo(arena+hblkhd)
          1318 MiB available memory on the node where the printing process lives
------------------
     ethr =  1.39E-08,  avg # of iterations =  1.3

     total cpu time spent up to now is      367.1 secs

     total energy              =    -128.98031465 Ry
     estimated scf accuracy    <       0.00000319 Ry

     iteration # 13     ecut=   120.00 Ry     beta= 0.30
     Davidson diagonalization with overlap

---- Real-time Memory Report at c_bands before calling an iterative solver
           178 MiB given to the printing process from OS
            63 MiB allocation reported by mallinfo(arena+hblkhd)
          1218 MiB available memory on the node where the printing process lives
------------------
     ethr =  1.39E-08,  avg # of iterations =  1.7

     total cpu time spent up to now is      368.6 secs

     total energy              =    -128.98031416 Ry
     estimated scf accuracy    <       0.00000134 Ry

     iteration # 14     ecut=   120.00 Ry     beta= 0.30
     Davidson diagonalization with overlap

---- Real-time Memory Report at c_bands before calling an iterative solver
           178 MiB given to the printing process from OS
            63 MiB allocation reported by mallinfo(arena+hblkhd)
          1327 MiB available memory on the node where the printing process lives
------------------
     ethr =  7.42E-09,  avg # of iterations =  4.3

     total cpu time spent up to now is      370.5 secs

     total energy              =    -128.98031463 Ry
     estimated scf accuracy    <       0.00000005 Ry

     iteration # 15     ecut=   120.00 Ry     beta= 0.30
     Davidson diagonalization with overlap

---- Real-time Memory Report at c_bands before calling an iterative solver
           178 MiB given to the printing process from OS
            63 MiB allocation reported by mallinfo(arena+hblkhd)
          1230 MiB available memory on the node where the printing process lives
------------------
     ethr =  2.59E-10,  avg # of iterations =  6.5

     total cpu time spent up to now is      372.8 secs

     total energy              =    -128.98031468 Ry
     estimated scf accuracy    <       0.00000003 Ry

     iteration # 16     ecut=   120.00 Ry     beta= 0.30
     Davidson diagonalization with overlap

---- Real-time Memory Report at c_bands before calling an iterative solver
           178 MiB given to the printing process from OS
            63 MiB allocation reported by mallinfo(arena+hblkhd)
          1241 MiB available memory on the node where the printing process lives
------------------
     ethr =  1.53E-10,  avg # of iterations =  3.4

     total cpu time spent up to now is      374.6 secs

     total energy              =    -128.98031468 Ry
     estimated scf accuracy    <       0.00000002 Ry

     iteration # 17     ecut=   120.00 Ry     beta= 0.30
     Davidson diagonalization with overlap

---- Real-time Memory Report at c_bands before calling an iterative solver
           178 MiB given to the printing process from OS
            63 MiB allocation reported by mallinfo(arena+hblkhd)
          1219 MiB available memory on the node where the printing process lives
------------------
     ethr =  1.28E-10,  avg # of iterations =  4.6

     total cpu time spent up to now is      376.6 secs

     total energy              =    -128.98031472 Ry
     estimated scf accuracy    <       0.00000004 Ry

     iteration # 18     ecut=   120.00 Ry     beta= 0.30
     Davidson diagonalization with overlap

---- Real-time Memory Report at c_bands before calling an iterative solver
           178 MiB given to the printing process from OS
            63 MiB allocation reported by mallinfo(arena+hblkhd)
          1310 MiB available memory on the node where the printing process lives
------------------
     ethr =  1.28E-10,  avg # of iterations =  4.4

     total cpu time spent up to now is      378.4 secs

     total energy              =    -128.98031465 Ry
     estimated scf accuracy    <       0.00000013 Ry

     iteration # 19     ecut=   120.00 Ry     beta= 0.30
     Davidson diagonalization with overlap

---- Real-time Memory Report at c_bands before calling an iterative solver
           178 MiB given to the printing process from OS
            63 MiB allocation reported by mallinfo(arena+hblkhd)
          1243 MiB available memory on the node where the printing process lives
------------------
     ethr =  1.28E-10,  avg # of iterations =  6.1

     total cpu time spent up to now is      380.8 secs

     total energy              =    -128.98031468 Ry
     estimated scf accuracy    <          3.0E-09 Ry

     iteration # 20     ecut=   120.00 Ry     beta= 0.30
     Davidson diagonalization with overlap

---- Real-time Memory Report at c_bands before calling an iterative solver
           178 MiB given to the printing process from OS
            63 MiB allocation reported by mallinfo(arena+hblkhd)
          1222 MiB available memory on the node where the printing process lives
------------------
     ethr =  1.65E-11,  avg # of iterations =  4.9

     total cpu time spent up to now is      382.7 secs

     total energy              =    -128.98031468 Ry
     estimated scf accuracy    <          6.8E-09 Ry

     iteration # 21     ecut=   120.00 Ry     beta= 0.30
     Davidson diagonalization with overlap

---- Real-time Memory Report at c_bands before calling an iterative solver
           178 MiB given to the printing process from OS
            63 MiB allocation reported by mallinfo(arena+hblkhd)
          1242 MiB available memory on the node where the printing process lives
------------------
     ethr =  1.65E-11,  avg # of iterations =  1.1

     total cpu time spent up to now is      384.1 secs

     total energy              =    -128.98031468 Ry
     estimated scf accuracy    <          4.2E-09 Ry

     iteration # 22     ecut=   120.00 Ry     beta= 0.30
     Davidson diagonalization with overlap

---- Real-time Memory Report at c_bands before calling an iterative solver
           178 MiB given to the printing process from OS
            63 MiB allocation reported by mallinfo(arena+hblkhd)
          1232 MiB available memory on the node where the printing process lives
------------------
     ethr =  1.65E-11,  avg # of iterations =  4.0

     total cpu time spent up to now is      385.9 secs

     total energy              =    -128.98031468 Ry
     estimated scf accuracy    <          1.4E-10 Ry

     iteration # 23     ecut=   120.00 Ry     beta= 0.30
     Davidson diagonalization with overlap

---- Real-time Memory Report at c_bands before calling an iterative solver
           178 MiB given to the printing process from OS
            63 MiB allocation reported by mallinfo(arena+hblkhd)
          1235 MiB available memory on the node where the printing process lives
------------------
     ethr =  8.01E-13,  avg # of iterations =  7.4

     total cpu time spent up to now is      388.6 secs

     total energy              =    -128.98031468 Ry
     estimated scf accuracy    <          6.8E-10 Ry

     iteration # 24     ecut=   120.00 Ry     beta= 0.30
     Davidson diagonalization with overlap

---- Real-time Memory Report at c_bands before calling an iterative solver
           178 MiB given to the printing process from OS
            63 MiB allocation reported by mallinfo(arena+hblkhd)
          1320 MiB available memory on the node where the printing process lives
------------------
     ethr =  8.01E-13,  avg # of iterations =  9.6

     total cpu time spent up to now is      392.7 secs

     total energy              =    -128.98031468 Ry
     estimated scf accuracy    <          2.2E-09 Ry

     iteration # 25     ecut=   120.00 Ry     beta= 0.30
     Davidson diagonalization with overlap

---- Real-time Memory Report at c_bands before calling an iterative solver
           178 MiB given to the printing process from OS
            63 MiB allocation reported by mallinfo(arena+hblkhd)
          1241 MiB available memory on the node where the printing process lives
------------------
     ethr =  8.01E-13,  avg # of iterations =  1.3

     total cpu time spent up to now is      394.4 secs

     total energy              =    -128.98031468 Ry
     estimated scf accuracy    <          2.2E-09 Ry

     iteration # 26     ecut=   120.00 Ry     beta= 0.30
     Davidson diagonalization with overlap

---- Real-time Memory Report at c_bands before calling an iterative solver
           178 MiB given to the printing process from OS
            63 MiB allocation reported by mallinfo(arena+hblkhd)
          1242 MiB available memory on the node where the printing process lives
------------------
     ethr =  8.01E-13,  avg # of iterations =  1.6

     total cpu time spent up to now is      396.1 secs

     total energy              =    -128.98031468 Ry
     estimated scf accuracy    <          1.8E-09 Ry

     iteration # 27     ecut=   120.00 Ry     beta= 0.30
     Davidson diagonalization with overlap

---- Real-time Memory Report at c_bands before calling an iterative solver
           178 MiB given to the printing process from OS
            63 MiB allocation reported by mallinfo(arena+hblkhd)
          1232 MiB available memory on the node where the printing process lives
------------------
     ethr =  8.01E-13,  avg # of iterations =  6.1

     total cpu time spent up to now is      398.4 secs

     total energy              =    -128.98031468 Ry
     estimated scf accuracy    <          4.1E-09 Ry

     iteration # 28     ecut=   120.00 Ry     beta= 0.30
     Davidson diagonalization with overlap

---- Real-time Memory Report at c_bands before calling an iterative solver
           178 MiB given to the printing process from OS
            63 MiB allocation reported by mallinfo(arena+hblkhd)
          1243 MiB available memory on the node where the printing process lives
------------------
     ethr =  8.01E-13,  avg # of iterations =  4.8

     total cpu time spent up to now is      400.3 secs

     total energy              =    -128.98031468 Ry
     estimated scf accuracy    <          2.0E-09 Ry

     iteration # 29     ecut=   120.00 Ry     beta= 0.30
     Davidson diagonalization with overlap

---- Real-time Memory Report at c_bands before calling an iterative solver
           178 MiB given to the printing process from OS
            63 MiB allocation reported by mallinfo(arena+hblkhd)
          1238 MiB available memory on the node where the printing process lives
------------------
     ethr =  8.01E-13,  avg # of iterations =  9.8

     total cpu time spent up to now is      403.8 secs

     total energy              =    -128.98031468 Ry
     estimated scf accuracy    <          8.3E-10 Ry

     iteration # 30     ecut=   120.00 Ry     beta= 0.30
     Davidson diagonalization with overlap

---- Real-time Memory Report at c_bands before calling an iterative solver
           178 MiB given to the printing process from OS
            63 MiB allocation reported by mallinfo(arena+hblkhd)
          1234 MiB available memory on the node where the printing process lives
------------------
     ethr =  8.01E-13,  avg # of iterations =  6.0

     total cpu time spent up to now is      406.3 secs

     total energy              =    -128.98031468 Ry
     estimated scf accuracy    <          4.7E-11 Ry

     iteration # 31     ecut=   120.00 Ry     beta= 0.30
     Davidson diagonalization with overlap

---- Real-time Memory Report at c_bands before calling an iterative solver
           178 MiB given to the printing process from OS
            63 MiB allocation reported by mallinfo(arena+hblkhd)
          1224 MiB available memory on the node where the printing process lives
------------------
     ethr =  2.63E-13,  avg # of iterations =  5.0

     total cpu time spent up to now is      408.4 secs

     total energy              =    -128.98031468 Ry
     estimated scf accuracy    <          2.4E-12 Ry

     iteration # 32     ecut=   120.00 Ry     beta= 0.30
     Davidson diagonalization with overlap

---- Real-time Memory Report at c_bands before calling an iterative solver
           178 MiB given to the printing process from OS
            63 MiB allocation reported by mallinfo(arena+hblkhd)
          1227 MiB available memory on the node where the printing process lives
------------------
     ethr =  1.00E-13,  avg # of iterations =  2.0

     total cpu time spent up to now is      410.1 secs

     total energy              =    -128.98031468 Ry
     estimated scf accuracy    <          2.3E-12 Ry

     iteration # 33     ecut=   120.00 Ry     beta= 0.30
     Davidson diagonalization with overlap

---- Real-time Memory Report at c_bands before calling an iterative solver
           178 MiB given to the printing process from OS
            63 MiB allocation reported by mallinfo(arena+hblkhd)
          1228 MiB available memory on the node where the printing process lives
------------------
     ethr =  1.00E-13,  avg # of iterations =  2.2

     total cpu time spent up to now is      411.7 secs

     total energy              =    -128.98031468 Ry
     estimated scf accuracy    <          8.5E-12 Ry

     iteration # 34     ecut=   120.00 Ry     beta= 0.30
     Davidson diagonalization with overlap

---- Real-time Memory Report at c_bands before calling an iterative solver
           178 MiB given to the printing process from OS
            63 MiB allocation reported by mallinfo(arena+hblkhd)
          1225 MiB available memory on the node where the printing process lives
------------------
     ethr =  1.00E-13,  avg # of iterations =  1.3

     total cpu time spent up to now is      413.3 secs

     End of self-consistent calculation

          k = 0.0000 0.0000 0.0000 ( 10969 PWs)   bands (ev):

    -6.4423  -3.6863  -3.6863  -3.6863  -3.4705  -3.4705   4.3867   4.3867
     4.3867

     occupation numbers 
     1.0000   1.0000   1.0000   1.0000   1.0000   1.0000   1.0000   1.0000
     1.0000

          k = 0.0692 0.0692-0.0692 ( 10918 PWs)   bands (ev):

    -6.4096  -3.6803  -3.6803  -3.6595  -3.4709  -3.4709   3.4880   4.3074
     4.3074

     occupation numbers 
     1.0000   1.0000   1.0000   1.0000   1.0000   1.0000   1.0000   1.0000
     1.0000

          k = 0.1384 0.1384-0.1384 ( 10885 PWs)   bands (ev):

    -6.3240  -3.6653  -3.6653  -3.5740  -3.4710  -3.4710   2.3553   4.1174
     4.1174

     occupation numbers 
     1.0000   1.0000   1.0000   1.0000   1.0000   1.0000   1.0000   1.0000
     1.0000

          k = 0.2076 0.2076-0.2076 ( 10861 PWs)   bands (ev):

    -6.2185  -3.6488  -3.6488  -3.4687  -3.4687  -3.4267   1.3393   3.9092
     3.9092

     occupation numbers 
     1.0000   1.0000   1.0000   1.0000   1.0000   1.0000   1.0000   1.0000
     1.0000

          k = 0.2768 0.2768-0.2768 ( 10858 PWs)   bands (ev):

    -6.1344  -3.6375  -3.6375  -3.4644  -3.4644  -3.2544   0.5964   3.7569
     3.7569

     occupation numbers 
     1.0000   1.0000   1.0000   1.0000   1.0000   1.0000   1.0000   1.0000
     1.0000

          k =-0.3460-0.3460 0.3460 ( 10880 PWs)   bands (ev):

    -6.1027  -3.6338  -3.6338  -3.4622  -3.4622  -3.1690   0.3126   3.7018
     3.7018

     occupation numbers 
     1.0000   1.0000   1.0000   1.0000   1.0000   1.0000   1.0000   1.0000
     1.0000

          k = 0.1384 0.0000 0.0000 ( 10906 PWs)   bands (ev):

    -6.3988  -3.6745  -3.6745  -3.6581  -3.4740  -3.4679   3.4344   4.1679
     4.1679

     occupation numbers 
     1.0000   1.0000   1.0000   1.0000   1.0000   1.0000   1.0000   1.0000
     1.0000

          k = 0.2076 0.0692-0.0692 ( 10898 PWs)   bands (ev):

    -6.3310  -3.6635  -3.6593  -3.5957  -3.4754  -3.4656   2.5890   3.9425
     3.9923

     occupation numbers 
     1.0000   1.0000   1.0000   1.0000   1.0000   1.0000   1.0000   1.0000
     1.0000

          k = 0.2768 0.1384-0.1384 ( 10883 PWs)   bands (ev):

    -6.2323  -3.6492  -3.6419  -3.4965  -3.4631  -3.4453   1.6205   3.7311
     3.7496

     occupation numbers 
     1.0000   1.0000   1.0000   1.0000   1.0000   1.0000   1.0000   1.0000
     1.0000

          k = 0.3460 0.2076-0.2076 ( 10888 PWs)   bands (ev):

    -6.1416  -3.6365  -3.6297  -3.4783  -3.4606  -3.2865   0.8187   3.4988
     3.6022

     occupation numbers 
     1.0000   1.0000   1.0000   1.0000   1.0000   1.0000   1.0000   1.0000
     1.0000

          k =-0.2768-0.4152 0.4152 ( 10894 PWs)   bands (ev):

    -6.0931  -3.6295  -3.6256  -3.4698  -3.4612  -3.1604   0.3854   3.3217
     3.5886

     occupation numbers 
     1.0000   1.0000   1.0000   1.0000   1.0000   1.0000   1.0000   1.0000
     1.0000

          k =-0.2076-0.3460 0.3460 ( 10873 PWs)   bands (ev):

    -6.1035  -3.6294  -3.6289  -3.4666  -3.4657  -3.1890   0.4788   3.2641
     3.6923

     occupation numbers 
     1.0000   1.0000   1.0000   1.0000   1.0000   1.0000   1.0000   1.0000
     1.0000

          k =-0.1384-0.2768 0.2768 ( 10873 PWs)   bands (ev):

    -6.1694  -3.6410  -3.6350  -3.4732  -3.4685  -3.3422   1.0576   3.3465
     3.8864

     occupation numbers 
     1.0000   1.0000   1.0000   1.0000   1.0000   1.0000   1.0000   1.0000
     1.0000

          k =-0.0692-0.2076 0.2076 ( 10894 PWs)   bands (ev):

    -6.2673  -3.6580  -3.6481  -3.5162  -3.4760  -3.4594   1.9247   3.5724
     4.1130

     occupation numbers 
     1.0000   1.0000   1.0000   1.0000   1.0000   1.0000   1.0000   1.0000
     1.0000

          k = 0.0000-0.1384 0.1384 ( 10923 PWs)   bands (ev):

    -6.3594  -3.6736  -3.6655  -3.6167  -3.4743  -3.4677   2.8448   3.9346
     4.2834

     occupation numbers 
     1.0000   1.0000   1.0000   1.0000   1.0000   1.0000   1.0000   1.0000
     1.0000

          k = 0.2768 0.0000 0.0000 ( 10930 PWs)   bands (ev):

    -6.2853  -3.6428  -3.6428  -3.5765  -3.4726  -3.4611   2.3397   3.6847
     3.6847

     occupation numbers 
     1.0000   1.0000   1.0000   1.0000   1.0000   1.0000   1.0000   1.0000
     1.0000

          k = 0.3460 0.0692-0.0692 ( 10892 PWs)   bands (ev):

    -6.2050  -3.6286  -3.6234  -3.5249  -3.4575  -3.4235   1.6872   3.3957
     3.4532

     occupation numbers 
     1.0000   1.0000   1.0000   1.0000   1.0000   1.0000   1.0000   1.0000
     1.0000

          k = 0.4152 0.1384-0.1384 ( 10893 PWs)   bands (ev):

    -6.1218  -3.6199  -3.6092  -3.5037  -3.4557  -3.2805   1.0054   3.0372
     3.3200

     occupation numbers 
     1.0000   1.0000   1.0000   1.0000   1.0000   1.0000   1.0000   1.0000
     1.0000

          k =-0.2076-0.4844 0.4844 ( 10879 PWs)   bands (ev):

    -6.0675  -3.6156  -3.6041  -3.4894  -3.4583  -3.1363   0.5432   2.7240
     3.3188

     occupation numbers 
     1.0000   1.0000   1.0000   1.0000   1.0000   1.0000   1.0000   1.0000
     1.0000

          k =-0.1384-0.4152 0.4152 ( 10885 PWs)   bands (ev):

    -6.0612  -3.6155  -3.6085  -3.4777  -3.4660  -3.1083   0.4824   2.5546
     3.4490

     occupation numbers 
     1.0000   1.0000   1.0000   1.0000   1.0000   1.0000   1.0000   1.0000
     1.0000

          k =-0.0692-0.3460 0.3460 ( 10883 PWs)   bands (ev):

    -6.1048  -3.6217  -3.6196  -3.4744  -3.4729  -3.2200   0.8348   2.5994
     3.6773

     occupation numbers 
     1.0000   1.0000   1.0000   1.0000   1.0000   1.0000   1.0000   1.0000
     1.0000

          k = 0.0000-0.2768 0.2768 ( 10875 PWs)   bands (ev):

    -6.1832  -3.6408  -3.6303  -3.4780  -3.4769  -3.3738   1.3934   2.9378
     3.9336

     occupation numbers 
     1.0000   1.0000   1.0000   1.0000   1.0000   1.0000   1.0000   1.0000
     1.0000

          k = 0.4152 0.0000 0.0000 ( 10886 PWs)   bands (ev):

    -6.1472  -3.6014  -3.6014  -3.5354  -3.4528  -3.3591   1.3783   3.1955
     3.1955

     occupation numbers 
     1.0000   1.0000   1.0000   1.0000   1.0000   1.0000   1.0000   1.0000
     1.0000

          k = 0.4844 0.0692-0.0692 ( 10879 PWs)   bands (ev):

    -6.0823  -3.5908  -3.5847  -3.5290  -3.4503  -3.2369   0.9306   2.8793
     3.0394

     occupation numbers 
     1.0000   1.0000   1.0000   1.0000   1.0000   1.0000   1.0000   1.0000
     1.0000

          k =-0.1384-0.5536 0.5536 ( 10877 PWs)   bands (ev):

    -6.0355  -3.5930  -3.5784  -3.5136  -3.4529  -3.1015   0.5952   2.4522
     3.0242

     occupation numbers 
     1.0000   1.0000   1.0000   1.0000   1.0000   1.0000   1.0000   1.0000
     1.0000

          k =-0.0692-0.4844 0.4844 ( 10856 PWs)   bands (ev):

    -6.0233  -3.5994  -3.5836  -3.4961  -3.4612  -3.0400   0.5052   2.1413
     3.1536

     occupation numbers 
     1.0000   1.0000   1.0000   1.0000   1.0000   1.0000   1.0000   1.0000
     1.0000

          k =-0.0000-0.4152 0.4152 ( 10892 PWs)   bands (ev):

    -6.0495  -3.6079  -3.5995  -3.4817  -3.4702  -3.0960   0.6380   2.1490
     3.3953

     occupation numbers 
     1.0000   1.0000   1.0000   1.0000   1.0000   1.0000   1.0000   1.0000
     1.0000

          k = 0.5536 0.0000 0.0000 ( 10878 PWs)   bands (ev):

    -6.0391  -3.5660  -3.5660  -3.5445  -3.4460  -3.1569   0.6614   2.8528
     2.8528

     occupation numbers 
     1.0000   1.0000   1.0000   1.0000   1.0000   1.0000   1.0000   1.0000
     1.0000

          k =-0.0692-0.6228 0.6228 ( 10868 PWs)   bands (ev):

    -6.0092  -3.5690  -3.5589  -3.5348  -3.4465  -3.0671   0.4643   2.5915
     2.8089

     occupation numbers 
     1.0000   1.0000   1.0000   1.0000   1.0000   1.0000   1.0000   1.0000
     1.0000

          k = 0.0000-0.5536 0.5536 ( 10836 PWs)   bands (ev):

    -6.0035  -3.5830  -3.5651  -3.5163  -3.4531  -3.0195   0.4478   2.2281
     2.9179

     occupation numbers 
     1.0000   1.0000   1.0000   1.0000   1.0000   1.0000   1.0000   1.0000
     1.0000

          k =-0.6920 0.0000 0.0000 ( 10846 PWs)   bands (ev):

    -5.9991  -3.5519  -3.5519  -3.5498  -3.4434  -3.0519   0.3799   2.7309
     2.7309

     occupation numbers 
     1.0000   1.0000   1.0000   1.0000   1.0000   1.0000   1.0000   1.0000
     1.0000

          k = 0.2768 0.1384-0.0000 ( 10897 PWs)   bands (ev):

    -6.2568  -3.6497  -3.6401  -3.5294  -3.4692  -3.4564   1.9868   3.4374
     3.8973

     occupation numbers 
     1.0000   1.0000   1.0000   1.0000   1.0000   1.0000   1.0000   1.0000
     1.0000

          k = 0.3460 0.2076-0.0692 ( 10884 PWs)   bands (ev):

    -6.1661  -3.6341  -3.6245  -3.4935  -3.4625  -3.3512   1.2622   3.0518
     3.6971

     occupation numbers 
     1.0000   1.0000   1.0000   1.0000   1.0000   1.0000   1.0000   1.0000
     1.0000

          k =-0.2768-0.4152 0.5536 ( 10879 PWs)   bands (ev):

    -6.0942  -3.6228  -3.6154  -3.4827  -3.4618  -3.1928   0.6629   2.8504
     3.4994

     occupation numbers 
     1.0000   1.0000   1.0000   1.0000   1.0000   1.0000   1.0000   1.0000
     1.0000

          k =-0.2076-0.3460 0.4844 ( 10886 PWs)   bands (ev):

    -6.0672  -3.6193  -3.6121  -3.4763  -3.4637  -3.1154   0.4253   2.7911
     3.4185

     occupation numbers 
     1.0000   1.0000   1.0000   1.0000   1.0000   1.0000   1.0000   1.0000
     1.0000

          k = 0.4152 0.1384-0.0000 ( 10883 PWs)   bands (ev):

    -6.1326  -3.6125  -3.6055  -3.5163  -3.4551  -3.3172   1.2145   2.9582
     3.3086

     occupation numbers 
     1.0000   1.0000   1.0000   1.0000   1.0000   1.0000   1.0000   1.0000
     1.0000

          k =-0.2076-0.4844 0.6228 ( 10877 PWs)   bands (ev):

    -6.0682  -3.6043  -3.5946  -3.5051  -3.4562  -3.1700   0.7643   2.5952
     3.1323

     occupation numbers 
     1.0000   1.0000   1.0000   1.0000   1.0000   1.0000   1.0000   1.0000
     1.0000

          k =-0.1384-0.4152 0.5536 ( 10865 PWs)   bands (ev):

    -6.0355  -3.6037  -3.5910  -3.4918  -3.4621  -3.0665   0.5162   2.3452
     3.0944

     occupation numbers 
     1.0000   1.0000   1.0000   1.0000   1.0000   1.0000   1.0000   1.0000
     1.0000

          k =-0.0692-0.3460 0.4844 ( 10878 PWs)   bands (ev):

    -6.0456  -3.6069  -3.5972  -3.4854  -3.4667  -3.0879   0.5855   2.2777
     3.2315

     occupation numbers 
     1.0000   1.0000   1.0000   1.0000   1.0000   1.0000   1.0000   1.0000
     1.0000

          k = 0.0000-0.2768 0.4152 ( 10892 PWs)   bands (ev):

    -6.0949  -3.6164  -3.6100  -3.4900  -3.4641  -3.2122   0.8943   2.4992
     3.4747

     occupation numbers 
     1.0000   1.0000   1.0000   1.0000   1.0000   1.0000   1.0000   1.0000
     1.0000

          k =-0.1384-0.5536 0.6920 ( 10878 PWs)   bands (ev):

    -6.0355  -3.5791  -3.5764  -3.5249  -3.4501  -3.1236   0.6409   2.6517
     2.8339

     occupation numbers 
     1.0000   1.0000   1.0000   1.0000   1.0000   1.0000   1.0000   1.0000
     1.0000

          k =-0.0692-0.4844 0.6228 ( 10873 PWs)   bands (ev):

    -6.0097  -3.5843  -3.5733  -3.5104  -3.4558  -3.0310   0.4948   2.3114
     2.7870

     occupation numbers 
     1.0000   1.0000   1.0000   1.0000   1.0000   1.0000   1.0000   1.0000
     1.0000

          k = 0.0000-0.4152 0.5536 ( 10862 PWs)   bands (ev):

    -6.0137  -3.5947  -3.5802  -3.4949  -3.4643  -3.0181   0.5151   2.0942
     2.9520

     occupation numbers 
     1.0000   1.0000   1.0000   1.0000   1.0000   1.0000   1.0000   1.0000
     1.0000

          k =-0.6920 0.1384 0.0000 ( 10842 PWs)   bands (ev):

    -5.9995  -3.5680  -3.5645  -3.5261  -3.4489  -3.0291   0.4170   2.5785
     2.6253

     occupation numbers 
     1.0000   1.0000   1.0000   1.0000   1.0000   1.0000   1.0000   1.0000
     1.0000

          k =-0.1384-0.4152 0.6920 ( 10862 PWs)   bands (ev):

    -6.0259  -3.5939  -3.5853  -3.4983  -3.4619  -3.0586   0.5853   2.2874
     2.8582

     occupation numbers 
     1.0000   1.0000   1.0000   1.0000   1.0000   1.0000   1.0000   1.0000
     1.0000

          k =-0.0692-0.3460 0.6228 ( 10862 PWs)   bands (ev):

    -6.0101  -3.5920  -3.5806  -3.4925  -3.4669  -3.0095   0.5138   2.1966
     2.7218

     occupation numbers 
     1.0000   1.0000   1.0000   1.0000   1.0000   1.0000   1.0000   1.0000
     1.0000

          k =-0.6920 0.2768 0.0000 ( 10846 PWs)   bands (ev):

    -6.0002  -3.5829  -3.5764  -3.5001  -3.4630  -2.9938   0.4846   2.3459
     2.4704

     occupation numbers 
     1.0000   1.0000   1.0000   1.0000   1.0000   1.0000   1.0000   1.0000
     1.0000

     highest occupied level (ev):     4.3867

!    total energy              =    -128.98031468 Ry
     estimated scf accuracy    <          7.5E-13 Ry

     The total energy is the sum of the following terms:
     one-electron contribution =     -51.32167542 Ry
     hartree contribution      =      36.95337522 Ry
     xc contribution           =     -39.44634638 Ry
     ewald contribution        =     -75.16566809 Ry

     convergence has been achieved in  34 iterations

     Forces acting on atoms (cartesian axes, Ry/au):

     atom    1 type  1   force =    -0.00000000    0.00000000   -0.00000000
     atom    2 type  2   force =     0.00000000   -0.00000000   -0.00000000
     The non-local contrib.  to forces
     atom    1 type  1   force =    -0.00000000   -0.00000000    0.00000000
     atom    2 type  2   force =     0.00000000   -0.00000000   -0.00000000
     The ionic contribution  to forces
     atom    1 type  1   force =     0.00000000   -0.00000000    0.00000000
     atom    2 type  2   force =    -0.00000000   -0.00000000   -0.00000000
     The local contribution  to forces
     atom    1 type  1   force =     0.00000000   -0.00000000   -0.00000000
     atom    2 type  2   force =    -0.00000000   -0.00000000   -0.00000000
     The core correction contribution to forces
     atom    1 type  1   force =    -0.00000000    0.00000000   -0.00000000
     atom    2 type  2   force =     0.00000000   -0.00000000   -0.00000000
     The Hubbard contrib.    to forces
     atom    1 type  1   force =     0.00000000    0.00000000    0.00000000
     atom    2 type  2   force =     0.00000000    0.00000000    0.00000000
     The SCF correction term to forces
     atom    1 type  1   force =    -0.00000000   -0.00000000    0.00000000
     atom    2 type  2   force =    -0.00000000   -0.00000000    0.00000000

     Total force =     0.000000     Total SCF correction =     0.000000


     Computing stress (Cartesian axis) and pressure

          total   stress  (Ry/bohr**3)                   (kbar)     P=        0.03
   0.00000023   0.00000000   0.00000000            0.03        0.00        0.00
  -0.00000000   0.00000023  -0.00000000           -0.00        0.03       -0.00
   0.00000000  -0.00000000   0.00000023            0.00       -0.00        0.03

     kinetic stress (kbar)   8982.74     -0.00      0.00
                               -0.00   8982.74     -0.00
                               -0.00      0.00   8982.74

     local   stress (kbar)    430.87      0.00     -0.00
                                0.00    430.87      0.00
                               -0.00      0.00    430.87

     nonloc. stress (kbar)  -3395.89     -0.00     -0.00
                               -0.00  -3395.89      0.00
                               -0.00      0.00  -3395.89

     hartree stress (kbar)   3697.01     -0.00     -0.00
                               -0.00   3697.01     -0.00
                               -0.00     -0.00   3697.01

     exc-cor stress (kbar)   4207.70      0.00      0.00
                                0.00   4207.70      0.00
                                0.00      0.00   4207.70

     corecor stress (kbar)  -6402.42      0.00     -0.00
                                0.00  -6402.42     -0.00
                               -0.00     -0.00  -6402.42

     ewald   stress (kbar)  -7519.97      0.00      0.00
                                0.00  -7519.97      0.00
                                0.00      0.00  -7519.97

     hubbard stress (kbar)      0.00      0.00      0.00
                                0.00      0.00      0.00
                                0.00      0.00      0.00

     DFT-D   stress (kbar)      0.00      0.00      0.00
                                0.00      0.00      0.00
                                0.00      0.00      0.00

     XDM     stress (kbar)      0.00      0.00      0.00
                                0.00      0.00      0.00
                                0.00      0.00      0.00

     dft-nl  stress (kbar)      0.00      0.00      0.00
                                0.00      0.00      0.00
                                0.00      0.00      0.00

     TS-vdW  stress (kbar)      0.00      0.00      0.00
                                0.00      0.00      0.00
                                0.00      0.00      0.00

     MDB     stress (kbar)      0.00      0.00      0.00
                                0.00      0.00      0.00
                                0.00      0.00      0.00

     3D-RISM stress (kbar)      0.00      0.00      0.00
                                0.00      0.00      0.00
                                0.00      0.00      0.00


     Writing all to output data dir /home/User/opencode_workspace/DFT/calculations/cdte/relax_nosoc/out/pwscf.save/ :
     XML data file, charge density, pseudopotentials, collected wavefunctions

     init_run     :      3.56s CPU      4.46s WALL (       2 calls)
     electrons    :    327.85s CPU    392.68s WALL (       7 calls)
     update_pot   :      0.20s CPU      0.24s WALL (       5 calls)
     forces       :      2.02s CPU      2.72s WALL (       7 calls)
     stress       :     12.55s CPU     14.53s WALL (       7 calls)

     Called by init_run:
     wfcinit      :      1.18s CPU      1.30s WALL (       2 calls)
     wfcinit:atom :      0.03s CPU      0.03s WALL (      94 calls)
     wfcinit:wfcr :      1.02s CPU      1.15s WALL (      94 calls)
     potinit      :      0.35s CPU      0.53s WALL (       2 calls)
     hinit0       :      0.71s CPU      0.85s WALL (       2 calls)

     Called by electrons:
     c_bands      :    235.28s CPU    261.90s WALL (     192 calls)
     sum_band     :     62.85s CPU     84.38s WALL (     192 calls)
     v_of_rho     :      5.48s CPU      6.10s WALL (     193 calls)
     v_h          :      0.31s CPU      0.36s WALL (     193 calls)
     v_xc         :      5.55s CPU      6.21s WALL (     207 calls)
     newd         :     24.86s CPU     41.65s WALL (     193 calls)
     mix_rho      :      0.88s CPU      0.97s WALL (     192 calls)

     Called by c_bands:
     init_us_2    :      8.79s CPU      9.25s WALL (   18800 calls)
     cegterg      :    218.75s CPU    244.86s WALL (    9024 calls)

     Called by sum_band:
     sum_band:wei :      0.00s CPU      0.00s WALL (     192 calls)
     sum_band:loo :     35.55s CPU     39.45s WALL (     192 calls)
     sum_band:buf :      0.20s CPU      0.22s WALL (    9024 calls)
     sum_band:ini :      4.28s CPU      4.46s WALL (    9024 calls)
     sum_band:cal :      2.89s CPU      3.15s WALL (    9024 calls)
     sum_band:bec :      0.11s CPU      0.12s WALL (    9024 calls)
     addusdens    :     24.35s CPU     41.80s WALL (     192 calls)
                                        0.00s GPU  (     192 calls)
     addusd:skk   :      0.03s CPU      0.03s WALL (     384 calls)
                                        0.00s GPU  (     384 calls)

     Called by *egterg:
     cdiaghg      :      4.32s CPU      4.57s WALL (   42351 calls)
     cegterg:over :      7.52s CPU      7.94s WALL (   33844 calls)
     cegterg:upda :      2.52s CPU      2.64s WALL (   33844 calls)
     cegterg:last :      4.79s CPU      4.99s WALL (   23652 calls)
     h_psi        :    188.45s CPU    213.07s WALL (   42962 calls)
     s_psi        :      4.40s CPU      4.76s WALL (   42962 calls)
     g_psi        :      1.70s CPU      1.77s WALL (   33844 calls)

     Called by h_psi:
     h_psi:calbec :     11.31s CPU     12.49s WALL (   42962 calls)
     vloc_psi     :    170.76s CPU    193.69s WALL (   42962 calls)
                                        0.00s GPU  (   42962 calls)
     add_vuspsi   :      5.33s CPU      5.81s WALL (   42962 calls)

     General routines
     calbec       :     15.71s CPU     17.19s WALL (   57579 calls)
     fft          :      3.77s CPU      4.47s WALL (    2681 calls)
     ffts         :      0.37s CPU      0.41s WALL (     385 calls)
     fftw         :    181.86s CPU    206.17s WALL (  600966 calls)
     interpolate  :      0.49s CPU      0.57s WALL (     193 calls)

     Parallel routines

     PWSCF        :   5m47.12s CPU   6m56.13s WALL


   This run was terminated on:  20: 5:25  22Sep2026            

=------------------------------------------------------------------------------=
   JOB DONE.
=------------------------------------------------------------------------------=
