
     Program PWSCF v.7.5 starts on 23Sep2026 at  6:52:12 

     This program is part of the open-source Quantum ESPRESSO suite
     for quantum simulation of materials; please cite
         "P. Giannozzi et al., J. Phys.:Condens. Matter 21 395502 (2009);
         "P. Giannozzi et al., J. Phys.:Condens. Matter 29 465901 (2017);
         "P. Giannozzi et al., J. Chem. Phys. 152 154105 (2020);
          URL http://www.quantum-espresso.org", 
     in publications or presentations arising from this work. More details at
     http://www.quantum-espresso.org/quote

     Parallel version (MPI & OpenMP), running on       6 processor cores
     Number of MPI processes:                 6
     Threads/MPI process:                     1

     MPI processes distributed on     1 nodes
     10547 MiB available memory on the printing compute node when the environment starts

     Reading input from pw.in

     Current dimensions of program PWSCF are:
     Max number of different atomic species (ntypx) = 10
     Max number of k-points (npk) =  40000
     Max angular momentum in pseudopotentials (lmaxx) =  4
     file Cd.rel-pbe-n-rrkjus_psl.1.0.0.UPF: wavefunction(s)  4D 4D renormalized
     file Te.rel-pbe-n-rrkjus_psl.1.0.0.UPF: wavefunction(s)  5S renormalized

     Atomic positions and unit cell read from directory:
     /home/User/opencode_workspace/DFT/calculations/cdte/production_dos_soc/out/pwscf.save/

     Message from routine setup:
     using ibrav=0 with symmetry is DISCOURAGED, use correct ibrav instead

     R & G space division:  proc/nbgrp/npool/nimage =       6
     Subspace diagonalization in iterative solution of the eigenvalue problem:
     a serial algorithm will be used


     Parallelization info
     --------------------
     sticks:   dense  smooth     PW     G-vecs:    dense   smooth      PW
     Min         647     431    123                26742    14503    2184
     Max         650     432    125                26743    14506    2185
     Sum        3889    2587    745               160453    87027   13107

     Using Slab Decomposition



     bravais-lattice index     =            0
     lattice parameter (alat)  =       8.8545  a.u.
     unit-cell volume          =     490.8777 (a.u.)^3
     number of atoms/cell      =            2
     number of atomic types    =            2
     number of electrons       =        18.00
     number of Kohn-Sham states=           30
     kinetic-energy cutoff     =     120.0000  Ry
     charge density cutoff     =     720.0000  Ry
     Exchange-correlation= PBE
                           (   1   4   3   4   0   0   0)
     Non magnetic calculation with spin-orbit


     celldm(1)=   8.854474  celldm(2)=   0.000000  celldm(3)=   0.000000
     celldm(4)=   0.000000  celldm(5)=   0.000000  celldm(6)=   0.000000

     crystal axes: (cart. coord. in units of alat)
               a(1) = (   0.000000   0.707107   0.707107 )  
               a(2) = (   0.707107   0.000000   0.707107 )  
               a(3) = (   0.707107   0.707107   0.000000 )  

     reciprocal axes: (cart. coord. in units 2 pi/alat)
               b(1) = ( -0.707107  0.707107  0.707107 )  
               b(2) = (  0.707107 -0.707107  0.707107 )  
               b(3) = (  0.707107  0.707107 -0.707107 )  


     PseudoPot. # 1 for Cd read from file:
     /home/User/opencode_workspace/DFT/pseudopotentials/Cd.rel-pbe-n-rrkjus_psl.1.0.0.UPF
     MD5 check sum: f55a83cceeb01967e8d662641edf05f4
     Pseudo is Ultrasoft + core correction, Zval = 12.0
     Generated using &quot;atomic&quot; code by A. Dal Corso  v.6.3
     Using radial grid of 1239 points, 10 beta functions with: 
                l(1) =   0
                l(2) =   0
                l(3) =   1
                l(4) =   1
                l(5) =   1
                l(6) =   1
                l(7) =   2
                l(8) =   2
                l(9) =   2
               l(10) =   2
     Q(r) pseudized with 0 coefficients 


     PseudoPot. # 2 for Te read from file:
     /home/User/opencode_workspace/DFT/pseudopotentials/Te.rel-pbe-n-rrkjus_psl.1.0.0.UPF
     MD5 check sum: 7fd30b6833abd190471e4dcc2367351b
     Pseudo is Ultrasoft + core correction, Zval =  6.0
     Generated using &quot;atomic&quot; code by A. Dal Corso  v.6.3
     Using radial grid of 1245 points, 10 beta functions with: 
                l(1) =   0
                l(2) =   0
                l(3) =   1
                l(4) =   1
                l(5) =   1
                l(6) =   1
                l(7) =   2
                l(8) =   2
                l(9) =   2
               l(10) =   2
     Q(r) pseudized with 0 coefficients 


     atomic species   valence    mass     pseudopotential
     Cd               12.00   112.41400     Cd( 1.00)
     Te                6.00   127.60000     Te( 1.00)

     24 Sym. Ops. (no inversion) found


                                    s                        frac. trans.

      isym =  1     identity                                     

 cryst.   s( 1) = (     1          0          0      )
                  (     0          1          0      )
                  (     0          0          1      )

 cart.    s( 1) = (  1.0000000  0.0000000  0.0000000 )
                  (  0.0000000  1.0000000  0.0000000 )
                  (  0.0000000  0.0000000  1.0000000 )


      isym =  2     180 deg rotation - cart. axis [0,0,1]        

 cryst.   s( 2) = (     0          1         -1      )
                  (     1          0         -1      )
                  (     0          0         -1      )

 cart.    s( 2) = ( -1.0000000  0.0000000  0.0000000 )
                  (  0.0000000 -1.0000000  0.0000000 )
                  (  0.0000000  0.0000000  1.0000000 )


      isym =  3     180 deg rotation - cart. axis [0,1,0]        

 cryst.   s( 3) = (     0         -1          1      )
                  (     0         -1          0      )
                  (     1         -1          0      )

 cart.    s( 3) = ( -1.0000000  0.0000000  0.0000000 )
                  (  0.0000000  1.0000000  0.0000000 )
                  (  0.0000000  0.0000000 -1.0000000 )


      isym =  4     180 deg rotation - cart. axis [1,0,0]        

 cryst.   s( 4) = (    -1          0          0      )
                  (    -1          0          1      )
                  (    -1          1          0      )

 cart.    s( 4) = (  1.0000000  0.0000000  0.0000000 )
                  (  0.0000000 -1.0000000  0.0000000 )
                  (  0.0000000  0.0000000 -1.0000000 )


      isym =  5     120 deg rotation - cart. axis [-1,-1,-1]     

 cryst.   s( 5) = (     0          0          1      )
                  (     1          0          0      )
                  (     0          1          0      )

 cart.    s( 5) = (  0.0000000  1.0000000  0.0000000 )
                  (  0.0000000  0.0000000  1.0000000 )
                  (  1.0000000  0.0000000  0.0000000 )


      isym =  6     120 deg rotation - cart. axis [-1,1,1]       

 cryst.   s( 6) = (     1         -1          0      )
                  (     0         -1          1      )
                  (     0         -1          0      )

 cart.    s( 6) = (  0.0000000 -1.0000000  0.0000000 )
                  (  0.0000000  0.0000000  1.0000000 )
                  ( -1.0000000  0.0000000  0.0000000 )


      isym =  7     120 deg rotation - cart. axis [1,1,-1]       

 cryst.   s( 7) = (    -1          1          0      )
                  (    -1          0          0      )
                  (    -1          0          1      )

 cart.    s( 7) = (  0.0000000  1.0000000  0.0000000 )
                  (  0.0000000  0.0000000 -1.0000000 )
                  ( -1.0000000  0.0000000  0.0000000 )


      isym =  8     120 deg rotation - cart. axis [1,-1,1]       

 cryst.   s( 8) = (     0          0         -1      )
                  (     0          1         -1      )
                  (     1          0         -1      )

 cart.    s( 8) = (  0.0000000 -1.0000000  0.0000000 )
                  (  0.0000000  0.0000000 -1.0000000 )
                  (  1.0000000  0.0000000  0.0000000 )


      isym =  9     120 deg rotation - cart. axis [1,1,1]        

 cryst.   s( 9) = (     0          1          0      )
                  (     0          0          1      )
                  (     1          0          0      )

 cart.    s( 9) = (  0.0000000  0.0000000  1.0000000 )
                  (  1.0000000  0.0000000  0.0000000 )
                  (  0.0000000  1.0000000  0.0000000 )


      isym = 10     120 deg rotation - cart. axis [-1,1,-1]      

 cryst.   s(10) = (    -1          0          1      )
                  (    -1          1          0      )
                  (    -1          0          0      )

 cart.    s(10) = (  0.0000000  0.0000000  1.0000000 )
                  ( -1.0000000  0.0000000  0.0000000 )
                  (  0.0000000 -1.0000000  0.0000000 )


      isym = 11     120 deg rotation - cart. axis [1,-1,-1]      

 cryst.   s(11) = (     1          0         -1      )
                  (     0          0         -1      )
                  (     0          1         -1      )

 cart.    s(11) = (  0.0000000  0.0000000 -1.0000000 )
                  ( -1.0000000  0.0000000  0.0000000 )
                  (  0.0000000  1.0000000  0.0000000 )


      isym = 12     120 deg rotation - cart. axis [-1,-1,1]      

 cryst.   s(12) = (     0         -1          0      )
                  (     1         -1          0      )
                  (     0         -1          1      )

 cart.    s(12) = (  0.0000000  0.0000000 -1.0000000 )
                  (  1.0000000  0.0000000  0.0000000 )
                  (  0.0000000 -1.0000000  0.0000000 )


      isym = 13     inv. 180 deg rotation - cart. axis [1,1,0]   

 cryst.   s(13) = (     1          0         -1      )
                  (     0          1         -1      )
                  (     0          0         -1      )

 cart.    s(13) = (  0.0000000 -1.0000000  0.0000000 )
                  ( -1.0000000  0.0000000  0.0000000 )
                  (  0.0000000  0.0000000  1.0000000 )


      isym = 14     inv. 180 deg rotation - cart. axis [1,-1,0]  

 cryst.   s(14) = (     0          1          0      )
                  (     1          0          0      )
                  (     0          0          1      )

 cart.    s(14) = (  0.0000000  1.0000000  0.0000000 )
                  (  1.0000000  0.0000000  0.0000000 )
                  (  0.0000000  0.0000000  1.0000000 )


      isym = 15     inv.  90 deg rotation - cart. axis [0,0,-1]  

 cryst.   s(15) = (     0         -1          0      )
                  (     0         -1          1      )
                  (     1         -1          0      )

 cart.    s(15) = (  0.0000000 -1.0000000  0.0000000 )
                  (  1.0000000  0.0000000  0.0000000 )
                  (  0.0000000  0.0000000 -1.0000000 )


      isym = 16     inv.  90 deg rotation - cart. axis [0,0,1]   

 cryst.   s(16) = (    -1          0          1      )
                  (    -1          0          0      )
                  (    -1          1          0      )

 cart.    s(16) = (  0.0000000  1.0000000  0.0000000 )
                  ( -1.0000000  0.0000000  0.0000000 )
                  (  0.0000000  0.0000000 -1.0000000 )


      isym = 17     inv. 180 deg rotation - cart. axis [1,0,1]   

 cryst.   s(17) = (     1         -1          0      )
                  (     0         -1          0      )
                  (     0         -1          1      )

 cart.    s(17) = (  0.0000000  0.0000000 -1.0000000 )
                  (  0.0000000  1.0000000  0.0000000 )
                  ( -1.0000000  0.0000000  0.0000000 )


      isym = 18     inv. 180 deg rotation - cart. axis [-1,0,1]  

 cryst.   s(18) = (     0          0          1      )
                  (     0          1          0      )
                  (     1          0          0      )

 cart.    s(18) = (  0.0000000  0.0000000  1.0000000 )
                  (  0.0000000  1.0000000  0.0000000 )
                  (  1.0000000  0.0000000  0.0000000 )


      isym = 19     inv.  90 deg rotation - cart. axis [0,1,0]   

 cryst.   s(19) = (     0          0         -1      )
                  (     1          0         -1      )
                  (     0          1         -1      )

 cart.    s(19) = (  0.0000000  0.0000000 -1.0000000 )
                  (  0.0000000 -1.0000000  0.0000000 )
                  (  1.0000000  0.0000000  0.0000000 )


      isym = 20     inv.  90 deg rotation - cart. axis [0,-1,0]  

 cryst.   s(20) = (    -1          1          0      )
                  (    -1          0          1      )
                  (    -1          0          0      )

 cart.    s(20) = (  0.0000000  0.0000000  1.0000000 )
                  (  0.0000000 -1.0000000  0.0000000 )
                  ( -1.0000000  0.0000000  0.0000000 )


      isym = 21     inv. 180 deg rotation - cart. axis [0,1,1]   

 cryst.   s(21) = (    -1          0          0      )
                  (    -1          1          0      )
                  (    -1          0          1      )

 cart.    s(21) = (  1.0000000  0.0000000  0.0000000 )
                  (  0.0000000  0.0000000 -1.0000000 )
                  (  0.0000000 -1.0000000  0.0000000 )


      isym = 22     inv. 180 deg rotation - cart. axis [0,1,-1]  

 cryst.   s(22) = (     1          0          0      )
                  (     0          0          1      )
                  (     0          1          0      )

 cart.    s(22) = (  1.0000000  0.0000000  0.0000000 )
                  (  0.0000000  0.0000000  1.0000000 )
                  (  0.0000000  1.0000000  0.0000000 )


      isym = 23     inv.  90 deg rotation - cart. axis [-1,0,0]  

 cryst.   s(23) = (     0          1         -1      )
                  (     0          0         -1      )
                  (     1          0         -1      )

 cart.    s(23) = ( -1.0000000  0.0000000  0.0000000 )
                  (  0.0000000  0.0000000 -1.0000000 )
                  (  0.0000000  1.0000000  0.0000000 )


      isym = 24     inv.  90 deg rotation - cart. axis [1,0,0]   

 cryst.   s(24) = (     0         -1          1      )
                  (     1         -1          0      )
                  (     0         -1          0      )

 cart.    s(24) = ( -1.0000000  0.0000000  0.0000000 )
                  (  0.0000000  0.0000000  1.0000000 )
                  (  0.0000000 -1.0000000  0.0000000 )


   Cartesian axes

     site n.     atom                  positions (alat units)
         1        Cd     tau(   1) = (   0.0000000   0.0000000   0.0000000  )
         2        Te     tau(   2) = (   0.3535534   0.3535534   0.3535534  )

   Crystallographic axes

     site n.     atom                  positions (cryst. coord.)
         1        Cd     tau(   1) = (  0.0000000  0.0000000  0.0000000  )
         2        Te     tau(   2) = (  0.2500000  0.2500000  0.2500000  )

     number of k points=   104 (tetrahedron method)
                       cart. coord. in units 2pi/alat
        k(    1) = (   0.0000000   0.0000000   0.0000000), wk =   0.0003644
        k(    2) = (   0.0505076   0.0505076  -0.0505076), wk =   0.0029155
        k(    3) = (   0.1010153   0.1010153  -0.1010153), wk =   0.0029155
        k(    4) = (   0.1515229   0.1515229  -0.1515229), wk =   0.0029155
        k(    5) = (   0.2020305   0.2020305  -0.2020305), wk =   0.0029155
        k(    6) = (   0.2525381   0.2525381  -0.2525381), wk =   0.0029155
        k(    7) = (   0.3030458   0.3030458  -0.3030458), wk =   0.0029155
        k(    8) = (  -0.3535534  -0.3535534   0.3535534), wk =   0.0014577
        k(    9) = (   0.1010153   0.0000000   0.0000000), wk =   0.0021866
        k(   10) = (   0.1515229   0.0505076  -0.0505076), wk =   0.0087464
        k(   11) = (   0.2020305   0.1010153  -0.1010153), wk =   0.0087464
        k(   12) = (   0.2525381   0.1515229  -0.1515229), wk =   0.0087464
        k(   13) = (   0.3030458   0.2020305  -0.2020305), wk =   0.0087464
        k(   14) = (   0.3535534   0.2525381  -0.2525381), wk =   0.0087464
        k(   15) = (  -0.3030458  -0.4040610   0.4040610), wk =   0.0087464
        k(   16) = (  -0.2525381  -0.3535534   0.3535534), wk =   0.0087464
        k(   17) = (  -0.2020305  -0.3030458   0.3030458), wk =   0.0087464
        k(   18) = (  -0.1515229  -0.2525381   0.2525381), wk =   0.0087464
        k(   19) = (  -0.1010153  -0.2020305   0.2020305), wk =   0.0087464
        k(   20) = (  -0.0505076  -0.1515229   0.1515229), wk =   0.0087464
        k(   21) = (   0.0000000  -0.1010153   0.1010153), wk =   0.0043732
        k(   22) = (   0.2020305   0.0000000   0.0000000), wk =   0.0021866
        k(   23) = (   0.2525381   0.0505076  -0.0505076), wk =   0.0087464
        k(   24) = (   0.3030458   0.1010153  -0.1010153), wk =   0.0087464
        k(   25) = (   0.3535534   0.1515229  -0.1515229), wk =   0.0087464
        k(   26) = (   0.4040610   0.2020305  -0.2020305), wk =   0.0087464
        k(   27) = (  -0.2525381  -0.4545686   0.4545686), wk =   0.0087464
        k(   28) = (  -0.2020305  -0.4040610   0.4040610), wk =   0.0087464
        k(   29) = (  -0.1515229  -0.3535534   0.3535534), wk =   0.0087464
        k(   30) = (  -0.1010153  -0.3030458   0.3030458), wk =   0.0087464
        k(   31) = (  -0.0505076  -0.2525381   0.2525381), wk =   0.0087464
        k(   32) = (  -0.0000000  -0.2020305   0.2020305), wk =   0.0043732
        k(   33) = (   0.3030458   0.0000000   0.0000000), wk =   0.0021866
        k(   34) = (   0.3535534   0.0505076  -0.0505076), wk =   0.0087464
        k(   35) = (   0.4040610   0.1010153  -0.1010153), wk =   0.0087464
        k(   36) = (   0.4545686   0.1515229  -0.1515229), wk =   0.0087464
        k(   37) = (  -0.2020305  -0.5050763   0.5050763), wk =   0.0087464
        k(   38) = (  -0.1515229  -0.4545686   0.4545686), wk =   0.0087464
        k(   39) = (  -0.1010153  -0.4040610   0.4040610), wk =   0.0087464
        k(   40) = (  -0.0505076  -0.3535534   0.3535534), wk =   0.0087464
        k(   41) = (   0.0000000  -0.3030458   0.3030458), wk =   0.0043732
        k(   42) = (   0.4040610   0.0000000   0.0000000), wk =   0.0021866
        k(   43) = (   0.4545686   0.0505076  -0.0505076), wk =   0.0087464
        k(   44) = (   0.5050763   0.1010153  -0.1010153), wk =   0.0087464
        k(   45) = (  -0.1515229  -0.5555839   0.5555839), wk =   0.0087464
        k(   46) = (  -0.1010153  -0.5050763   0.5050763), wk =   0.0087464
        k(   47) = (  -0.0505076  -0.4545686   0.4545686), wk =   0.0087464
        k(   48) = (   0.0000000  -0.4040610   0.4040610), wk =   0.0043732
        k(   49) = (   0.5050763   0.0000000   0.0000000), wk =   0.0021866
        k(   50) = (   0.5555839   0.0505076  -0.0505076), wk =   0.0087464
        k(   51) = (  -0.1010153  -0.6060915   0.6060915), wk =   0.0087464
        k(   52) = (  -0.0505076  -0.5555839   0.5555839), wk =   0.0087464
        k(   53) = (   0.0000000  -0.5050763   0.5050763), wk =   0.0043732
        k(   54) = (   0.6060915   0.0000000   0.0000000), wk =   0.0021866
        k(   55) = (  -0.0505076  -0.6565992   0.6565992), wk =   0.0087464
        k(   56) = (   0.0000000  -0.6060915   0.6060915), wk =   0.0043732
        k(   57) = (  -0.7071068   0.0000000   0.0000000), wk =   0.0010933
        k(   58) = (   0.2020305   0.1010153   0.0000000), wk =   0.0087464
        k(   59) = (   0.2525381   0.1515229  -0.0505076), wk =   0.0174927
        k(   60) = (   0.3030458   0.2020305  -0.1010153), wk =   0.0174927
        k(   61) = (   0.3535534   0.2525381  -0.1515229), wk =   0.0174927
        k(   62) = (  -0.3030458  -0.4040610   0.5050763), wk =   0.0174927
        k(   63) = (  -0.2525381  -0.3535534   0.4545686), wk =   0.0087464
        k(   64) = (   0.3030458   0.1010153   0.0000000), wk =   0.0087464
        k(   65) = (   0.3535534   0.1515229  -0.0505076), wk =   0.0174927
        k(   66) = (   0.4040610   0.2020305  -0.1010153), wk =   0.0174927
        k(   67) = (  -0.2525381  -0.4545686   0.5555839), wk =   0.0174927
        k(   68) = (  -0.2020305  -0.4040610   0.5050763), wk =   0.0174927
        k(   69) = (  -0.1515229  -0.3535534   0.4545686), wk =   0.0174927
        k(   70) = (  -0.1010153  -0.3030458   0.4040610), wk =   0.0174927
        k(   71) = (  -0.0505076  -0.2525381   0.3535534), wk =   0.0174927
        k(   72) = (  -0.0000000  -0.2020305   0.3030458), wk =   0.0087464
        k(   73) = (   0.4040610   0.1010153   0.0000000), wk =   0.0087464
        k(   74) = (   0.4545686   0.1515229  -0.0505076), wk =   0.0174927
        k(   75) = (  -0.2020305  -0.5050763   0.6060915), wk =   0.0174927
        k(   76) = (  -0.1515229  -0.4545686   0.5555839), wk =   0.0174927
        k(   77) = (  -0.1010153  -0.4040610   0.5050763), wk =   0.0174927
        k(   78) = (  -0.0505076  -0.3535534   0.4545686), wk =   0.0174927
        k(   79) = (   0.0000000  -0.3030458   0.4040610), wk =   0.0087464
        k(   80) = (   0.5050763   0.1010153   0.0000000), wk =   0.0087464
        k(   81) = (  -0.1515229  -0.5555839   0.6565992), wk =   0.0174927
        k(   82) = (  -0.1010153  -0.5050763   0.6060915), wk =   0.0174927
        k(   83) = (  -0.0505076  -0.4545686   0.5555839), wk =   0.0174927
        k(   84) = (   0.0000000  -0.4040610   0.5050763), wk =   0.0087464
        k(   85) = (  -0.1010153  -0.6060915   0.7071068), wk =   0.0087464
        k(   86) = (  -0.0505076  -0.5555839   0.6565992), wk =   0.0174927
        k(   87) = (   0.0000000  -0.5050763   0.6060915), wk =   0.0087464
        k(   88) = (  -0.7071068   0.1010153   0.0000000), wk =   0.0043732
        k(   89) = (   0.4040610   0.2020305   0.0000000), wk =   0.0087464
        k(   90) = (  -0.2525381  -0.4545686   0.6565992), wk =   0.0174927
        k(   91) = (  -0.2020305  -0.4040610   0.6060915), wk =   0.0174927
        k(   92) = (  -0.1515229  -0.3535534   0.5555839), wk =   0.0087464
        k(   93) = (  -0.2020305  -0.5050763   0.7071068), wk =   0.0087464
        k(   94) = (  -0.1515229  -0.4545686   0.6565992), wk =   0.0174927
        k(   95) = (  -0.1010153  -0.4040610   0.6060915), wk =   0.0174927
        k(   96) = (  -0.0505076  -0.3535534   0.5555839), wk =   0.0174927
        k(   97) = (   0.0000000  -0.3030458   0.5050763), wk =   0.0087464
        k(   98) = (  -0.1010153  -0.5050763   0.7071068), wk =   0.0087464
        k(   99) = (  -0.0505076  -0.4545686   0.6565992), wk =   0.0174927
        k(  100) = (   0.0000000  -0.4040610   0.6060915), wk =   0.0087464
        k(  101) = (  -0.7071068   0.2020305  -0.0000000), wk =   0.0043732
        k(  102) = (  -0.1010153  -0.4040610   0.7071068), wk =   0.0087464
        k(  103) = (  -0.0505076  -0.3535534   0.6565992), wk =   0.0087464
        k(  104) = (  -0.7071068   0.3030458   0.0000000), wk =   0.0043732

                       cryst. coord.
        k(    1) = (   0.0000000   0.0000000   0.0000000), wk =   0.0003644
        k(    2) = (   0.0000000   0.0000000   0.0714286), wk =   0.0029155
        k(    3) = (   0.0000000   0.0000000   0.1428571), wk =   0.0029155
        k(    4) = (   0.0000000   0.0000000   0.2142857), wk =   0.0029155
        k(    5) = (   0.0000000   0.0000000   0.2857143), wk =   0.0029155
        k(    6) = (   0.0000000   0.0000000   0.3571429), wk =   0.0029155
        k(    7) = (   0.0000000   0.0000000   0.4285714), wk =   0.0029155
        k(    8) = (   0.0000000   0.0000000  -0.5000000), wk =   0.0014577
        k(    9) = (   0.0000000   0.0714286   0.0714286), wk =   0.0021866
        k(   10) = (   0.0000000   0.0714286   0.1428571), wk =   0.0087464
        k(   11) = (   0.0000000   0.0714286   0.2142857), wk =   0.0087464
        k(   12) = (   0.0000000   0.0714286   0.2857143), wk =   0.0087464
        k(   13) = (   0.0000000   0.0714286   0.3571429), wk =   0.0087464
        k(   14) = (   0.0000000   0.0714286   0.4285714), wk =   0.0087464
        k(   15) = (   0.0000000   0.0714286  -0.5000000), wk =   0.0087464
        k(   16) = (   0.0000000   0.0714286  -0.4285714), wk =   0.0087464
        k(   17) = (   0.0000000   0.0714286  -0.3571429), wk =   0.0087464
        k(   18) = (   0.0000000   0.0714286  -0.2857143), wk =   0.0087464
        k(   19) = (   0.0000000   0.0714286  -0.2142857), wk =   0.0087464
        k(   20) = (   0.0000000   0.0714286  -0.1428571), wk =   0.0087464
        k(   21) = (   0.0000000   0.0714286  -0.0714286), wk =   0.0043732
        k(   22) = (   0.0000000   0.1428571   0.1428571), wk =   0.0021866
        k(   23) = (   0.0000000   0.1428571   0.2142857), wk =   0.0087464
        k(   24) = (   0.0000000   0.1428571   0.2857143), wk =   0.0087464
        k(   25) = (   0.0000000   0.1428571   0.3571429), wk =   0.0087464
        k(   26) = (   0.0000000   0.1428571   0.4285714), wk =   0.0087464
        k(   27) = (   0.0000000   0.1428571  -0.5000000), wk =   0.0087464
        k(   28) = (   0.0000000   0.1428571  -0.4285714), wk =   0.0087464
        k(   29) = (   0.0000000   0.1428571  -0.3571429), wk =   0.0087464
        k(   30) = (   0.0000000   0.1428571  -0.2857143), wk =   0.0087464
        k(   31) = (   0.0000000   0.1428571  -0.2142857), wk =   0.0087464
        k(   32) = (   0.0000000   0.1428571  -0.1428571), wk =   0.0043732
        k(   33) = (   0.0000000   0.2142857   0.2142857), wk =   0.0021866
        k(   34) = (   0.0000000   0.2142857   0.2857143), wk =   0.0087464
        k(   35) = (   0.0000000   0.2142857   0.3571429), wk =   0.0087464
        k(   36) = (   0.0000000   0.2142857   0.4285714), wk =   0.0087464
        k(   37) = (   0.0000000   0.2142857  -0.5000000), wk =   0.0087464
        k(   38) = (   0.0000000   0.2142857  -0.4285714), wk =   0.0087464
        k(   39) = (   0.0000000   0.2142857  -0.3571429), wk =   0.0087464
        k(   40) = (   0.0000000   0.2142857  -0.2857143), wk =   0.0087464
        k(   41) = (   0.0000000   0.2142857  -0.2142857), wk =   0.0043732
        k(   42) = (   0.0000000   0.2857143   0.2857143), wk =   0.0021866
        k(   43) = (   0.0000000   0.2857143   0.3571429), wk =   0.0087464
        k(   44) = (   0.0000000   0.2857143   0.4285714), wk =   0.0087464
        k(   45) = (   0.0000000   0.2857143  -0.5000000), wk =   0.0087464
        k(   46) = (   0.0000000   0.2857143  -0.4285714), wk =   0.0087464
        k(   47) = (   0.0000000   0.2857143  -0.3571429), wk =   0.0087464
        k(   48) = (   0.0000000   0.2857143  -0.2857143), wk =   0.0043732
        k(   49) = (   0.0000000   0.3571429   0.3571429), wk =   0.0021866
        k(   50) = (   0.0000000   0.3571429   0.4285714), wk =   0.0087464
        k(   51) = (   0.0000000   0.3571429  -0.5000000), wk =   0.0087464
        k(   52) = (   0.0000000   0.3571429  -0.4285714), wk =   0.0087464
        k(   53) = (   0.0000000   0.3571429  -0.3571429), wk =   0.0043732
        k(   54) = (   0.0000000   0.4285714   0.4285714), wk =   0.0021866
        k(   55) = (   0.0000000   0.4285714  -0.5000000), wk =   0.0087464
        k(   56) = (   0.0000000   0.4285714  -0.4285714), wk =   0.0043732
        k(   57) = (   0.0000000  -0.5000000  -0.5000000), wk =   0.0010933
        k(   58) = (   0.0714286   0.1428571   0.2142857), wk =   0.0087464
        k(   59) = (   0.0714286   0.1428571   0.2857143), wk =   0.0174927
        k(   60) = (   0.0714286   0.1428571   0.3571429), wk =   0.0174927
        k(   61) = (   0.0714286   0.1428571   0.4285714), wk =   0.0174927
        k(   62) = (   0.0714286   0.1428571  -0.5000000), wk =   0.0174927
        k(   63) = (   0.0714286   0.1428571  -0.4285714), wk =   0.0087464
        k(   64) = (   0.0714286   0.2142857   0.2857143), wk =   0.0087464
        k(   65) = (   0.0714286   0.2142857   0.3571429), wk =   0.0174927
        k(   66) = (   0.0714286   0.2142857   0.4285714), wk =   0.0174927
        k(   67) = (   0.0714286   0.2142857  -0.5000000), wk =   0.0174927
        k(   68) = (   0.0714286   0.2142857  -0.4285714), wk =   0.0174927
        k(   69) = (   0.0714286   0.2142857  -0.3571429), wk =   0.0174927
        k(   70) = (   0.0714286   0.2142857  -0.2857143), wk =   0.0174927
        k(   71) = (   0.0714286   0.2142857  -0.2142857), wk =   0.0174927
        k(   72) = (   0.0714286   0.2142857  -0.1428571), wk =   0.0087464
        k(   73) = (   0.0714286   0.2857143   0.3571429), wk =   0.0087464
        k(   74) = (   0.0714286   0.2857143   0.4285714), wk =   0.0174927
        k(   75) = (   0.0714286   0.2857143  -0.5000000), wk =   0.0174927
        k(   76) = (   0.0714286   0.2857143  -0.4285714), wk =   0.0174927
        k(   77) = (   0.0714286   0.2857143  -0.3571429), wk =   0.0174927
        k(   78) = (   0.0714286   0.2857143  -0.2857143), wk =   0.0174927
        k(   79) = (   0.0714286   0.2857143  -0.2142857), wk =   0.0087464
        k(   80) = (   0.0714286   0.3571429   0.4285714), wk =   0.0087464
        k(   81) = (   0.0714286   0.3571429  -0.5000000), wk =   0.0174927
        k(   82) = (   0.0714286   0.3571429  -0.4285714), wk =   0.0174927
        k(   83) = (   0.0714286   0.3571429  -0.3571429), wk =   0.0174927
        k(   84) = (   0.0714286   0.3571429  -0.2857143), wk =   0.0087464
        k(   85) = (   0.0714286   0.4285714  -0.5000000), wk =   0.0087464
        k(   86) = (   0.0714286   0.4285714  -0.4285714), wk =   0.0174927
        k(   87) = (   0.0714286   0.4285714  -0.3571429), wk =   0.0087464
        k(   88) = (   0.0714286  -0.5000000  -0.4285714), wk =   0.0043732
        k(   89) = (   0.1428571   0.2857143   0.4285714), wk =   0.0087464
        k(   90) = (   0.1428571   0.2857143  -0.5000000), wk =   0.0174927
        k(   91) = (   0.1428571   0.2857143  -0.4285714), wk =   0.0174927
        k(   92) = (   0.1428571   0.2857143  -0.3571429), wk =   0.0087464
        k(   93) = (   0.1428571   0.3571429  -0.5000000), wk =   0.0087464
        k(   94) = (   0.1428571   0.3571429  -0.4285714), wk =   0.0174927
        k(   95) = (   0.1428571   0.3571429  -0.3571429), wk =   0.0174927
        k(   96) = (   0.1428571   0.3571429  -0.2857143), wk =   0.0174927
        k(   97) = (   0.1428571   0.3571429  -0.2142857), wk =   0.0087464
        k(   98) = (   0.1428571   0.4285714  -0.4285714), wk =   0.0087464
        k(   99) = (   0.1428571   0.4285714  -0.3571429), wk =   0.0174927
        k(  100) = (   0.1428571   0.4285714  -0.2857143), wk =   0.0087464
        k(  101) = (   0.1428571  -0.5000000  -0.3571429), wk =   0.0043732
        k(  102) = (   0.2142857   0.4285714  -0.3571429), wk =   0.0087464
        k(  103) = (   0.2142857   0.4285714  -0.2857143), wk =   0.0087464
        k(  104) = (   0.2142857  -0.5000000  -0.2857143), wk =   0.0043732

     Dense  grid:   160453 G-vectors     FFT dimensions: (  75,  75,  75)

     Smooth grid:    87027 G-vectors     FFT dimensions: (  64,  64,  64)

     Dynamical RAM for                 wfc:       1.66 MB

     Dynamical RAM for     wfc (w. buffer):       1.66 MB

     Dynamical RAM for           str. fact:       0.82 MB

     Dynamical RAM for           local pot:       0.00 MB

     Dynamical RAM for          nlocal pot:       1.88 MB

     Dynamical RAM for                qrad:      11.28 MB

     Dynamical RAM for          rho,v,vnew:      11.59 MB

     Dynamical RAM for           G-vectors:       1.64 MB

     Dynamical RAM for          h,s,v(r/c):       0.16 MB

     Dynamical RAM for          <psi|beta>:       0.06 MB

     Dynamical RAM for                 psi:       3.33 MB

     Dynamical RAM for                hpsi:       3.33 MB

     Dynamical RAM for                spsi:       3.33 MB

     Dynamical RAM for      wfcinit/wfcrot:       2.51 MB

     Dynamical RAM for           addusdens:     249.33 MB

     Estimated static dynamical RAM per process >      34.56 MB

     Estimated max dynamical RAM per process >     283.89 MB

     Estimated total dynamical RAM >       1.66 GB

     The potential is recalculated from file :
     /home/User/opencode_workspace/DFT/calculations/cdte/production_dos_soc/out/pwscf.save/charge-density

     Starting wfcs are   26 randomized atomic wfcs +    4 random wfcs

     Band Structure Calculation
     Davidson diagonalization with overlap

     Computing kpt #:     1  of   104
     total cpu time spent up to now is     1311.6 secs

     Computing kpt #:     2  of   104
     c_bands:  2 eigenvalues not converged
     total cpu time spent up to now is     1356.5 secs

     Computing kpt #:     3  of   104
     c_bands:  3 eigenvalues not converged
     total cpu time spent up to now is     1373.7 secs

     Computing kpt #:     4  of   104
     c_bands:  4 eigenvalues not converged
     total cpu time spent up to now is     1389.0 secs

     Computing kpt #:     5  of   104
     c_bands:  2 eigenvalues not converged
     total cpu time spent up to now is     1405.5 secs

     Computing kpt #:     6  of   104
     c_bands:  2 eigenvalues not converged
     total cpu time spent up to now is     1421.1 secs

     Computing kpt #:     7  of   104
     c_bands:  1 eigenvalues not converged
     total cpu time spent up to now is     1436.0 secs

     Computing kpt #:     8  of   104
     c_bands:  2 eigenvalues not converged
     total cpu time spent up to now is     1450.0 secs

     Computing kpt #:     9  of   104
     total cpu time spent up to now is     1463.0 secs

     Computing kpt #:    10  of   104
     total cpu time spent up to now is     1476.8 secs

     Computing kpt #:    11  of   104
     c_bands:  2 eigenvalues not converged
     total cpu time spent up to now is     1495.3 secs

     Computing kpt #:    12  of   104
     c_bands:  2 eigenvalues not converged
     total cpu time spent up to now is     1511.3 secs

     Computing kpt #:    13  of   104
     total cpu time spent up to now is     1526.6 secs

     Computing kpt #:    14  of   104
     total cpu time spent up to now is     1541.3 secs

     Computing kpt #:    15  of   104
     total cpu time spent up to now is     1557.3 secs

     Computing kpt #:    16  of   104
     total cpu time spent up to now is     1572.2 secs

     Computing kpt #:    17  of   104
     total cpu time spent up to now is     1587.0 secs

     Computing kpt #:    18  of   104
     total cpu time spent up to now is     1602.8 secs

     Computing kpt #:    19  of   104
     total cpu time spent up to now is     1618.7 secs

     Computing kpt #:    20  of   104
     total cpu time spent up to now is     1634.7 secs

     Computing kpt #:    21  of   104
     c_bands:  2 eigenvalues not converged
     total cpu time spent up to now is     1647.6 secs

     Computing kpt #:    22  of   104
     total cpu time spent up to now is     1737.4 secs

     Computing kpt #:    23  of   104
     total cpu time spent up to now is     1863.9 secs

     Computing kpt #:    24  of   104
     total cpu time spent up to now is     1990.8 secs

     Computing kpt #:    25  of   104
     total cpu time spent up to now is     2113.3 secs

     Computing kpt #:    26  of   104
     total cpu time spent up to now is     2231.9 secs

     Computing kpt #:    27  of   104
     total cpu time spent up to now is     2351.5 secs

     Computing kpt #:    28  of   104
     total cpu time spent up to now is     2479.8 secs

     Computing kpt #:    29  of   104
     total cpu time spent up to now is     2597.9 secs

     Computing kpt #:    30  of   104
     total cpu time spent up to now is     2717.4 secs

     Computing kpt #:    31  of   104
     total cpu time spent up to now is     2855.1 secs

     Computing kpt #:    32  of   104
     total cpu time spent up to now is     2938.8 secs

     Computing kpt #:    33  of   104
     total cpu time spent up to now is     3029.2 secs

     Computing kpt #:    34  of   104
     total cpu time spent up to now is     3116.7 secs

     Computing kpt #:    35  of   104
     total cpu time spent up to now is     3198.8 secs

     Computing kpt #:    36  of   104
     c_bands:  1 eigenvalues not converged
     total cpu time spent up to now is     3302.2 secs

     Computing kpt #:    37  of   104
     c_bands:  2 eigenvalues not converged
     total cpu time spent up to now is     3410.1 secs

     Computing kpt #:    38  of   104
     total cpu time spent up to now is     3500.1 secs

     Computing kpt #:    39  of   104
     total cpu time spent up to now is     3584.3 secs

     Computing kpt #:    40  of   104
     total cpu time spent up to now is     3677.6 secs

     Computing kpt #:    41  of   104
     total cpu time spent up to now is     3759.1 secs

     Computing kpt #:    42  of   104
     total cpu time spent up to now is     3832.9 secs

     Computing kpt #:    43  of   104
     total cpu time spent up to now is     3912.1 secs

     Computing kpt #:    44  of   104
     total cpu time spent up to now is     4006.7 secs

     Computing kpt #:    45  of   104
     total cpu time spent up to now is     4101.7 secs

     Computing kpt #:    46  of   104
     total cpu time spent up to now is     4181.0 secs

     Computing kpt #:    47  of   104
     total cpu time spent up to now is     4250.1 secs

     Computing kpt #:    48  of   104
     total cpu time spent up to now is     4316.2 secs

     Computing kpt #:    49  of   104
     total cpu time spent up to now is     4397.1 secs

     Computing kpt #:    50  of   104
     total cpu time spent up to now is     4486.3 secs

     Computing kpt #:    51  of   104
     total cpu time spent up to now is     4583.5 secs

     Computing kpt #:    52  of   104
     total cpu time spent up to now is     4665.4 secs

     Computing kpt #:    53  of   104
     total cpu time spent up to now is     4735.7 secs

     Computing kpt #:    54  of   104
     total cpu time spent up to now is     4817.3 secs

     Computing kpt #:    55  of   104
     total cpu time spent up to now is     4914.6 secs

     Computing kpt #:    56  of   104
     total cpu time spent up to now is     5007.2 secs

     Computing kpt #:    57  of   104
     total cpu time spent up to now is     5092.5 secs

     Computing kpt #:    58  of   104
     total cpu time spent up to now is     5179.4 secs

     Computing kpt #:    59  of   104
     total cpu time spent up to now is     5263.2 secs

     Computing kpt #:    60  of   104
     total cpu time spent up to now is     5360.7 secs

     Computing kpt #:    61  of   104
     total cpu time spent up to now is     5444.4 secs

     Computing kpt #:    62  of   104
     total cpu time spent up to now is     5525.6 secs

     Computing kpt #:    63  of   104
     total cpu time spent up to now is     5609.7 secs

     Computing kpt #:    64  of   104
     total cpu time spent up to now is     5687.0 secs

     Computing kpt #:    65  of   104
     total cpu time spent up to now is     5771.2 secs

     Computing kpt #:    66  of   104
     total cpu time spent up to now is     5852.3 secs

     Computing kpt #:    67  of   104
     total cpu time spent up to now is     5948.3 secs

     Computing kpt #:    68  of   104
     total cpu time spent up to now is     6042.5 secs

     Computing kpt #:    69  of   104
     total cpu time spent up to now is     6128.2 secs

     Computing kpt #:    70  of   104
     total cpu time spent up to now is     6218.7 secs

     Computing kpt #:    71  of   104
     total cpu time spent up to now is     6305.8 secs

     Computing kpt #:    72  of   104
     total cpu time spent up to now is     6382.7 secs

     Computing kpt #:    73  of   104
     total cpu time spent up to now is     6466.9 secs

     Computing kpt #:    74  of   104
     total cpu time spent up to now is     6564.4 secs

     Computing kpt #:    75  of   104
     total cpu time spent up to now is     6657.2 secs

     Computing kpt #:    76  of   104
     total cpu time spent up to now is     6737.7 secs

     Computing kpt #:    77  of   104
     total cpu time spent up to now is     6816.9 secs

     Computing kpt #:    78  of   104
     total cpu time spent up to now is     6886.4 secs

     Computing kpt #:    79  of   104
     total cpu time spent up to now is     6964.9 secs

     Computing kpt #:    80  of   104
     total cpu time spent up to now is     7052.8 secs

     Computing kpt #:    81  of   104
     total cpu time spent up to now is     7165.6 secs

     Computing kpt #:    82  of   104
     total cpu time spent up to now is     7277.7 secs

     Computing kpt #:    83  of   104
     total cpu time spent up to now is     7373.5 secs

     Computing kpt #:    84  of   104
     total cpu time spent up to now is     7453.5 secs

     Computing kpt #:    85  of   104
     c_bands:  2 eigenvalues not converged
     total cpu time spent up to now is     7556.1 secs

     Computing kpt #:    86  of   104
     total cpu time spent up to now is     7654.3 secs

     Computing kpt #:    87  of   104
     total cpu time spent up to now is     7741.5 secs

     Computing kpt #:    88  of   104
     c_bands:  1 eigenvalues not converged
     total cpu time spent up to now is     7844.2 secs

     Computing kpt #:    89  of   104
     total cpu time spent up to now is     7937.6 secs

     Computing kpt #:    90  of   104
     total cpu time spent up to now is     8018.8 secs

     Computing kpt #:    91  of   104
     total cpu time spent up to now is     8090.6 secs

     Computing kpt #:    92  of   104
     total cpu time spent up to now is     8179.7 secs

     Computing kpt #:    93  of   104
     total cpu time spent up to now is     8272.8 secs

     Computing kpt #:    94  of   104
     total cpu time spent up to now is     8350.4 secs

     Computing kpt #:    95  of   104
     total cpu time spent up to now is     8451.6 secs

     Computing kpt #:    96  of   104
     total cpu time spent up to now is     8521.3 secs

     Computing kpt #:    97  of   104
     total cpu time spent up to now is     8598.9 secs

     Computing kpt #:    98  of   104
     total cpu time spent up to now is     8688.4 secs

     Computing kpt #:    99  of   104
     total cpu time spent up to now is     8780.7 secs

     Computing kpt #:   100  of   104
     total cpu time spent up to now is     8858.3 secs

     Computing kpt #:   101  of   104
     total cpu time spent up to now is     8951.6 secs

     Computing kpt #:   102  of   104
     total cpu time spent up to now is     9033.7 secs

     Computing kpt #:   103  of   104
     total cpu time spent up to now is     9126.1 secs

     Computing kpt #:   104  of   104
     c_bands:  2 eigenvalues not converged
     total cpu time spent up to now is     9226.2 secs

     ethr =  5.56E-13,  avg # of iterations = 90.8

     total cpu time spent up to now is     9227.9 secs

     End of band structure calculation

          k = 0.0000 0.0000 0.0000 ( 10969 PWs)   bands (ev):

    -6.4319  -6.4319  -4.0239  -4.0239  -4.0239  -4.0239  -3.4543  -3.4543
    -3.2804  -3.2804  -3.2804  -3.2804   3.7969   3.7969   4.6455   4.6455
     4.6455   4.6455   4.9497   4.9497   8.7843   8.7843   9.1235   9.1235
     9.1235   9.1235  11.7994  11.7994  13.7088  13.7088

     occupation numbers 
     1.0000   1.0000   1.0000   1.0000   1.0000   1.0000   1.0000   1.0000
     1.0000   1.0000   1.0000   1.0000   1.0000   1.0000   1.0000   1.0000
     1.0000   1.0000   0.0000   0.0000   0.0000   0.0000   0.0000   0.0000
     0.0000   0.0000   0.0000   0.0000   0.0000   0.0000

          k = 0.0505 0.0505-0.0505 ( 10939 PWs)   bands (ev):

    -6.4151  -6.4151  -4.0276  -4.0184  -4.0153  -4.0153  -3.4475  -3.4475
    -3.2841  -3.2793  -3.2793  -3.2725   3.5639   3.5639   4.2282   4.2282
     4.5981   4.6060   5.4715   5.4715   8.8270   8.8270   9.1037   9.1037
     9.1924   9.1966  12.0803  12.0803  13.3543  13.3580

     occupation numbers 
     1.0000   1.0000   1.0000   1.0000   1.0000   1.0000   1.0000   1.0000
     1.0000   1.0000   1.0000   1.0000   1.0000   1.0000   1.0000   1.0000
     1.0000   1.0000   0.0000   0.0000   0.0000   0.0000   0.0000   0.0000
     0.0000   0.0000   0.0000   0.0000   0.0000   0.0000

          k = 0.1010 0.1010-0.1010 ( 10924 PWs)   bands (ev):

    -6.3681  -6.3681  -4.0289  -4.0124  -3.9896  -3.9896  -3.4282  -3.4282
    -3.2828  -3.2737  -3.2737  -3.2618   2.9047   2.9047   3.9812   3.9812
     4.4798   4.4934   5.9708   5.9708   8.9578   8.9578   9.1808   9.1808
     9.3689   9.3758  12.6608  12.6608  12.9548  12.9577

     occupation numbers 
     1.0000   1.0000   1.0000   1.0000   1.0000   1.0000   1.0000   1.0000
     1.0000   1.0000   1.0000   1.0000   1.0000   1.0000   1.0000   1.0000
     1.0000   1.0000   0.0000   0.0000   0.0000   0.0000   0.0000   0.0000
     0.0000   0.0000   0.0000   0.0000   0.0000   0.0000

          k = 0.1515 0.1515-0.1515 ( 10900 PWs)   bands (ev):

    -6.3003  -6.3003  -4.0277  -4.0071  -3.9483  -3.9483  -3.4021  -3.4021
    -3.2763  -3.2545  -3.2545  -3.2500   2.1458   2.1458   3.8075   3.8075
     4.3258   4.3420   6.2133   6.2133   9.3014   9.3014   9.3725   9.3725
     9.5615   9.5693  12.7885  12.7886  12.7995  12.8139

     occupation numbers 
     1.0000   1.0000   1.0000   1.0000   1.0000   1.0000   1.0000   1.0000
     1.0000   1.0000   1.0000   1.0000   1.0000   1.0000   1.0000   1.0000
     1.0000   1.0000   0.0000   0.0000   0.0000   0.0000   0.0000   0.0000
     0.0000   0.0000   0.0000   0.0000   0.0000   0.0000

          k = 0.2020 0.2020-0.2020 ( 10897 PWs)   bands (ev):

    -6.2255  -6.2255  -4.0245  -4.0040  -3.8972  -3.8972  -3.3818  -3.3818
    -3.2656  -3.2394  -3.2057  -3.2057   1.4335   1.4335   3.6522   3.6522
     4.1719   4.1874   6.2447   6.2447   9.4699   9.4699   9.6752   9.6824
     9.9653   9.9653  12.6015  12.6015  12.9349  12.9349

     occupation numbers 
     1.0000   1.0000   1.0000   1.0000   1.0000   1.0000   1.0000   1.0000
     1.0000   1.0000   1.0000   1.0000   1.0000   1.0000   1.0000   1.0000
     1.0000   1.0000   0.0000   0.0000   0.0000   0.0000   0.0000   0.0000
     0.0000   0.0000   0.0000   0.0000   0.0000   0.0000

          k = 0.2525 0.2525-0.2525 ( 10888 PWs)   bands (ev):

    -6.1589  -6.1589  -4.0199  -4.0035  -3.8474  -3.8474  -3.3733  -3.3733
    -3.2529  -3.2319  -3.1249  -3.1249   0.8388   0.8388   3.5266   3.5266
     4.0456   4.0577   6.1932   6.1932   9.5150   9.5150   9.6930   9.6984
    10.6931  10.6931  12.4685  12.4685  13.3940  13.3940

     occupation numbers 
     1.0000   1.0000   1.0000   1.0000   1.0000   1.0000   1.0000   1.0000
     1.0000   1.0000   1.0000   1.0000   1.0000   1.0000   1.0000   1.0000
     1.0000   1.0000   0.0000   0.0000   0.0000   0.0000   0.0000   0.0000
     0.0000   0.0000   0.0000   0.0000   0.0000   0.0000

          k = 0.3030 0.3030-0.3030 ( 10898 PWs)   bands (ev):

    -6.1135  -6.1135  -4.0146  -4.0055  -3.8118  -3.8118  -3.3714  -3.3714
    -3.2410  -3.2293  -3.0414  -3.0414   0.4320   0.4320   3.4451   3.4451
     3.9647   3.9713   6.1404   6.1404   9.5107   9.5107   9.6695   9.6725
    11.2276  11.2276  12.6079  12.6079  14.0622  14.0622

     occupation numbers 
     1.0000   1.0000   1.0000   1.0000   1.0000   1.0000   1.0000   1.0000
     1.0000   1.0000   1.0000   1.0000   1.0000   1.0000   1.0000   1.0000
     1.0000   1.0000   0.0000   0.0000   0.0000   0.0000   0.0000   0.0000
     0.0000   0.0000   0.0000   0.0000   0.0000   0.0000

          k =-0.3536-0.3536 0.3536 ( 10880 PWs)   bands (ev):

    -6.0975  -6.0975  -4.0095  -4.0095  -3.7991  -3.7991  -3.3712  -3.3712
    -3.2325  -3.2325  -3.0045  -3.0045   0.2849   0.2849   3.4169   3.4169
     3.9391   3.9391   6.1199   6.1199   9.5035   9.5035   9.6568   9.6568
    11.3795  11.3795  12.8253  12.8253  14.5368  14.5368

     occupation numbers 
     1.0000   1.0000   1.0000   1.0000   1.0000   1.0000   1.0000   1.0000
     1.0000   1.0000   1.0000   1.0000   1.0000   1.0000   1.0000   1.0000
     1.0000   1.0000   0.0000   0.0000   0.0000   0.0000   0.0000   0.0000
     0.0000   0.0000   0.0000   0.0000   0.0000   0.0000

          k = 0.1010 0.0000 0.0000 ( 10925 PWs)   bands (ev):

    -6.4096  -6.4096  -4.0227  -4.0227  -4.0125  -4.0125  -3.4451  -3.4451
    -3.2839  -3.2839  -3.2728  -3.2728   3.5188   3.5188   4.1598   4.1598
     4.5148   4.5148   5.6251   5.6251   8.7224   8.7224   9.1493   9.1493
     9.2880   9.2880  12.1613  12.1613  12.9052  12.9052

     occupation numbers 
     1.0000   1.0000   1.0000   1.0000   1.0000   1.0000   1.0000   1.0000
     1.0000   1.0000   1.0000   1.0000   1.0000   1.0000   1.0000   1.0000
     1.0000   1.0000   0.0000   0.0000   0.0000   0.0000   0.0000   0.0000
     0.0000   0.0000   0.0000   0.0000   0.0000   0.0000

          k = 0.1515 0.0505-0.0505 ( 10918 PWs)   bands (ev):

    -6.3729  -6.3724  -4.0252  -4.0120  -3.9999  -3.9894  -3.4315  -3.4278
    -3.2845  -3.2819  -3.2684  -3.2616   3.0185   3.0594   3.8996   3.9712
     4.3905   4.3997   6.0496   6.0938   8.6185   8.6462   9.3142   9.3435
     9.4750   9.4913  12.3652  12.3739  12.7534  12.7592

     occupation numbers 
     1.0000   1.0000   1.0000   1.0000   1.0000   1.0000   1.0000   1.0000
     1.0000   1.0000   1.0000   1.0000   1.0000   1.0000   1.0000   1.0000
     1.0000   1.0000   0.0000   0.0000   0.0000   0.0000   0.0000   0.0000
     0.0000   0.0000   0.0000   0.0000   0.0000   0.0000

          k = 0.2020 0.1010-0.1010 ( 10905 PWs)   bands (ev):

    -6.3126  -6.3111  -4.0249  -4.0052  -3.9700  -3.9480  -3.4095  -3.4003
    -3.2794  -3.2733  -3.2536  -3.2464   2.3229   2.3693   3.7081   3.7968
     4.2425   4.2530   6.3504   6.4275   8.7347   8.7784   9.5382   9.5867
     9.6912   9.7257  12.1793  12.1928  13.1692  13.1890

     occupation numbers 
     1.0000   1.0000   1.0000   1.0000   1.0000   1.0000   1.0000   1.0000
     1.0000   1.0000   1.0000   1.0000   1.0000   1.0000   1.0000   1.0000
     1.0000   1.0000   0.0000   0.0000   0.0000   0.0000   0.0000   0.0000
     0.0000   0.0000   0.0000   0.0000   0.0000   0.0000

          k = 0.2525 0.1515-0.1515 ( 10914 PWs)   bands (ev):

    -6.2409  -6.2380  -4.0224  -4.0011  -3.9290  -3.8929  -3.3884  -3.3755
    -3.2693  -3.2543  -3.2197  -3.2117   1.6206   1.6653   3.5403   3.6332
     4.0774   4.0903   6.4427   6.5303   9.0668   9.0981   9.7591   9.8037
     9.9010   9.9442  12.2800  12.3039  13.1109  13.1252

     occupation numbers 
     1.0000   1.0000   1.0000   1.0000   1.0000   1.0000   1.0000   1.0000
     1.0000   1.0000   1.0000   1.0000   1.0000   1.0000   1.0000   1.0000
     1.0000   1.0000   0.0000   0.0000   0.0000   0.0000   0.0000   0.0000
     0.0000   0.0000   0.0000   0.0000   0.0000   0.0000

          k = 0.3030 0.2020-0.2020 ( 10896 PWs)   bands (ev):

    -6.1726  -6.1680  -4.0182  -3.9996  -3.8857  -3.8349  -3.3773  -3.3639
    -3.2568  -3.2389  -3.1591  -3.1335   1.0005   1.0438   3.3980   3.4949
     3.9292   3.9451   6.4159   6.5020   9.3143   9.3198   9.8319   9.8400
    10.3673  10.3885  12.5484  12.5990  13.1260  13.1291

     occupation numbers 
     1.0000   1.0000   1.0000   1.0000   1.0000   1.0000   1.0000   1.0000
     1.0000   1.0000   1.0000   1.0000   1.0000   1.0000   1.0000   1.0000
     1.0000   1.0000   0.0000   0.0000   0.0000   0.0000   0.0000   0.0000
     0.0000   0.0000   0.0000   0.0000   0.0000   0.0000

          k = 0.3536 0.2525-0.2525 ( 10913 PWs)   bands (ev):

    -6.1212  -6.1152  -4.0132  -4.0008  -3.8508  -3.7887  -3.3743  -3.3609
    -3.2446  -3.2321  -3.0783  -3.0414   0.5357   0.5786   3.2928   3.3944
     3.8265   3.8444   6.3643   6.4474   9.3795   9.3835   9.7899   9.7923
    10.9907  10.9958  12.6555  12.7141  13.6486  13.6734

     occupation numbers 
     1.0000   1.0000   1.0000   1.0000   1.0000   1.0000   1.0000   1.0000
     1.0000   1.0000   1.0000   1.0000   1.0000   1.0000   1.0000   1.0000
     1.0000   1.0000   0.0000   0.0000   0.0000   0.0000   0.0000   0.0000
     0.0000   0.0000   0.0000   0.0000   0.0000   0.0000

          k =-0.3030-0.4041 0.4041 ( 10896 PWs)   bands (ev):

    -6.0960  -6.0892  -4.0080  -4.0043  -3.8333  -3.7655  -3.3742  -3.3605
    -3.2352  -3.2320  -3.0242  -2.9816   0.3012   0.3447   3.2335   3.3399
     3.7869   3.8044   6.3332   6.4148   9.4062   9.4117   9.7287   9.7308
    11.3791  11.3912  12.8412  12.8996  14.1582  14.2927

     occupation numbers 
     1.0000   1.0000   1.0000   1.0000   1.0000   1.0000   1.0000   1.0000
     1.0000   1.0000   1.0000   1.0000   1.0000   1.0000   1.0000   1.0000
     1.0000   1.0000   0.0000   0.0000   0.0000   0.0000   0.0000   0.0000
     0.0000   0.0000   0.0000   0.0000   0.0000   0.0000

          k =-0.2525-0.3536 0.3536 ( 10891 PWs)   bands (ev):

    -6.1013  -6.0945  -4.0091  -4.0037  -3.8374  -3.7697  -3.3745  -3.3604
    -3.2380  -3.2308  -3.0373  -2.9937   0.3494   0.3941   3.2260   3.3373
     3.8151   3.8303   6.3378   6.4202   9.4519   9.4558   9.6879   9.6907
    11.3153  11.3271  12.8184  12.8724  13.9549  13.9605

     occupation numbers 
     1.0000   1.0000   1.0000   1.0000   1.0000   1.0000   1.0000   1.0000
     1.0000   1.0000   1.0000   1.0000   1.0000   1.0000   1.0000   1.0000
     1.0000   1.0000   0.0000   0.0000   0.0000   0.0000   0.0000   0.0000
     0.0000   0.0000   0.0000   0.0000   0.0000   0.0000

          k =-0.2020-0.3030 0.3030 ( 10895 PWs)   bands (ev):

    -6.1362  -6.1302  -4.0144  -4.0010  -3.8621  -3.8006  -3.3758  -3.3609
    -3.2484  -3.2325  -3.1081  -3.0683   0.6679   0.7148   3.2735   3.3907
     3.9049   3.9171   6.3749   6.4602   9.4999   9.5018   9.6758   9.6773
    10.8127  10.8167  12.7066  12.7534  13.2051  13.2116

     occupation numbers 
     1.0000   1.0000   1.0000   1.0000   1.0000   1.0000   1.0000   1.0000
     1.0000   1.0000   1.0000   1.0000   1.0000   1.0000   1.0000   1.0000
     1.0000   1.0000   0.0000   0.0000   0.0000   0.0000   0.0000   0.0000
     0.0000   0.0000   0.0000   0.0000   0.0000   0.0000

          k =-0.1515-0.2525 0.2525 ( 10902 PWs)   bands (ev):

    -6.1947  -6.1902  -4.0194  -4.0008  -3.9014  -3.8515  -3.3815  -3.3657
    -3.2609  -3.2403  -3.1898  -3.1581   1.1907   1.2415   3.3754   3.5001
     4.0411   4.0514   6.4191   6.5092   9.4588   9.4808   9.6402   9.6533
    10.1535  10.1803  12.6499  12.6533  12.7696  12.7990

     occupation numbers 
     1.0000   1.0000   1.0000   1.0000   1.0000   1.0000   1.0000   1.0000
     1.0000   1.0000   1.0000   1.0000   1.0000   1.0000   1.0000   1.0000
     1.0000   1.0000   0.0000   0.0000   0.0000   0.0000   0.0000   0.0000
     0.0000   0.0000   0.0000   0.0000   0.0000   0.0000

          k =-0.1010-0.2020 0.2020 ( 10924 PWs)   bands (ev):

    -6.2658  -6.2629  -4.0235  -4.0032  -3.9450  -3.9098  -3.3966  -3.3815
    -3.2726  -3.2540  -3.2459  -3.2216   1.8406   1.8980   3.5259   3.6594
     4.2022   4.2121   6.4062   6.4986   9.1688   9.2504   9.4427   9.4573
     9.8164   9.8682  12.4101  12.4155  12.8027  12.8313

     occupation numbers 
     1.0000   1.0000   1.0000   1.0000   1.0000   1.0000   1.0000   1.0000
     1.0000   1.0000   1.0000   1.0000   1.0000   1.0000   1.0000   1.0000
     1.0000   1.0000   0.0000   0.0000   0.0000   0.0000   0.0000   0.0000
     0.0000   0.0000   0.0000   0.0000   0.0000   0.0000

          k =-0.0505-0.1515 0.1515 ( 10923 PWs)   bands (ev):

    -6.3351  -6.3337  -4.0260  -4.0080  -3.9824  -3.9613  -3.4190  -3.4091
    -3.2811  -3.2708  -3.2687  -3.2500   2.5395   2.6047   3.7173   3.8555
     4.3624   4.3722   6.2273   6.3078   8.8474   8.9184   9.2446   9.2640
     9.6303   9.6694  12.4921  12.4990  12.8308  12.8547

     occupation numbers 
     1.0000   1.0000   1.0000   1.0000   1.0000   1.0000   1.0000   1.0000
     1.0000   1.0000   1.0000   1.0000   1.0000   1.0000   1.0000   1.0000
     1.0000   1.0000   0.0000   0.0000   0.0000   0.0000   0.0000   0.0000
     0.0000   0.0000   0.0000   0.0000   0.0000   0.0000

          k = 0.0000-0.1010 0.1010 ( 10947 PWs)   bands (ev):

    -6.3886  -6.3881  -4.0272  -4.0140  -4.0069  -3.9972  -3.4382  -3.4345
    -3.2845  -3.2789  -3.2754  -3.2648   3.1775   3.2341   3.9596   4.0678
     4.5031   4.5068   5.8413   5.8899   8.7854   8.8276   9.1096   9.1271
     9.3788   9.4021  12.4627  12.4736  12.8395  12.8468

     occupation numbers 
     1.0000   1.0000   1.0000   1.0000   1.0000   1.0000   1.0000   1.0000
     1.0000   1.0000   1.0000   1.0000   1.0000   1.0000   1.0000   1.0000
     1.0000   1.0000   0.0000   0.0000   0.0000   0.0000   0.0000   0.0000
     0.0000   0.0000   0.0000   0.0000   0.0000   0.0000

          k = 0.2020 0.0000 0.0000 ( 10902 PWs)   bands (ev):

    -6.3471  -6.3471  -4.0145  -4.0145  -3.9833  -3.9833  -3.4179  -3.4179
    -3.2860  -3.2860  -3.2567  -3.2567   2.8531   2.8531   3.7669   3.7669
     4.1920   4.1920   6.4260   6.4260   8.3093   8.3093   9.6184   9.6184
     9.7378   9.7378  11.8706  11.8706  13.1089  13.1089

     occupation numbers 
     1.0000   1.0000   1.0000   1.0000   1.0000   1.0000   1.0000   1.0000
     1.0000   1.0000   1.0000   1.0000   1.0000   1.0000   1.0000   1.0000
     1.0000   1.0000   0.0000   0.0000   0.0000   0.0000   0.0000   0.0000
     0.0000   0.0000   0.0000   0.0000   0.0000   0.0000

          k = 0.2525 0.0505-0.0505 ( 10921 PWs)   bands (ev):

    -6.2973  -6.2958  -4.0158  -4.0013  -3.9685  -3.9443  -3.4000  -3.3911
    -3.2844  -3.2832  -3.2438  -3.2393   2.3426   2.3960   3.5319   3.6305
     4.0042   4.0214   6.7203   6.7987   8.1905   8.2261   9.8876   9.9218
     9.9876  10.0259  11.6301  11.6401  13.6602  13.6754

     occupation numbers 
     1.0000   1.0000   1.0000   1.0000   1.0000   1.0000   1.0000   1.0000
     1.0000   1.0000   1.0000   1.0000   1.0000   1.0000   1.0000   1.0000
     1.0000   1.0000   0.0000   0.0000   0.0000   0.0000   0.0000   0.0000
     0.0000   0.0000   0.0000   0.0000   0.0000   0.0000

          k = 0.3030 0.1010-0.1010 ( 10903 PWs)   bands (ev):

    -6.2334  -6.2293  -4.0145  -3.9926  -3.9419  -3.8884  -3.3802  -3.3642
    -3.2746  -3.2729  -3.2128  -3.2082   1.7329   1.8074   3.3242   3.4731
     3.8168   3.8474   6.8697   6.9962   8.3822   8.4200  10.0226  10.0246
    10.1923  10.2150  11.8560  11.8775  13.8100  13.8188

     occupation numbers 
     1.0000   1.0000   1.0000   1.0000   1.0000   1.0000   1.0000   1.0000
     1.0000   1.0000   1.0000   1.0000   1.0000   1.0000   1.0000   1.0000
     1.0000   1.0000   0.0000   0.0000   0.0000   0.0000   0.0000   0.0000
     0.0000   0.0000   0.0000   0.0000   0.0000   0.0000

          k = 0.3536 0.1515-0.1515 ( 10881 PWs)   bands (ev):

    -6.1686  -6.1614  -4.0112  -3.9887  -3.9095  -3.8256  -3.3683  -3.3506
    -3.2596  -3.2569  -3.1663  -3.1342   1.1470   1.2293   3.1370   3.3146
     3.6473   3.6921   6.8848   7.0148   8.7775   8.7842  10.0685  10.1103
    10.2721  10.2860  12.4153  12.4615  13.7690  13.7840

     occupation numbers 
     1.0000   1.0000   1.0000   1.0000   1.0000   1.0000   1.0000   1.0000
     1.0000   1.0000   1.0000   1.0000   1.0000   1.0000   1.0000   1.0000
     1.0000   1.0000   0.0000   0.0000   0.0000   0.0000   0.0000   0.0000
     0.0000   0.0000   0.0000   0.0000   0.0000   0.0000

          k = 0.4041 0.2020-0.2020 ( 10883 PWs)   bands (ev):

    -6.1159  -6.1056  -4.0068  -3.9884  -3.8807  -3.7710  -3.3654  -3.3468
    -3.2472  -3.2425  -3.0963  -3.0374   0.6688   0.7558   2.9744   3.1649
     3.5426   3.5926   6.8497   6.9749   9.0342   9.0723  10.1895  10.1898
    10.4471  10.5117  12.8894  12.9841  13.8778  13.8829

     occupation numbers 
     1.0000   1.0000   1.0000   1.0000   1.0000   1.0000   1.0000   1.0000
     1.0000   1.0000   1.0000   1.0000   1.0000   1.0000   1.0000   1.0000
     1.0000   1.0000   0.0000   0.0000   0.0000   0.0000   0.0000   0.0000
     0.0000   0.0000   0.0000   0.0000   0.0000   0.0000

          k =-0.2525-0.4546 0.4546 ( 10905 PWs)   bands (ev):

    -6.0850  -6.0725  -4.0020  -3.9910  -3.8634  -3.7376  -3.3664  -3.3463
    -3.2377  -3.2363  -3.0348  -2.9592   0.3766   0.4682   2.8492   3.0419
     3.5233   3.5678   6.8195   6.9436   9.1414   9.1756  10.0976  10.1012
    11.0224  11.0590  12.9796  13.1168  14.1016  14.1593

     occupation numbers 
     1.0000   1.0000   1.0000   1.0000   1.0000   1.0000   1.0000   1.0000
     1.0000   1.0000   1.0000   1.0000   1.0000   1.0000   1.0000   1.0000
     1.0000   1.0000   0.0000   0.0000   0.0000   0.0000   0.0000   0.0000
     0.0000   0.0000   0.0000   0.0000   0.0000   0.0000

          k =-0.2020-0.4041 0.4041 ( 10914 PWs)   bands (ev):

    -6.0812  -6.0679  -3.9978  -3.9955  -3.8623  -3.7312  -3.3681  -3.3461
    -3.2373  -3.2329  -3.0268  -2.9436   0.3336   0.4302   2.7780   2.9724
     3.5818   3.6178   6.8145   6.9424   9.2267   9.2501   9.9948  10.0002
    11.2733  11.2868  13.0303  13.1987  13.8905  13.8948

     occupation numbers 
     1.0000   1.0000   1.0000   1.0000   1.0000   1.0000   1.0000   1.0000
     1.0000   1.0000   1.0000   1.0000   1.0000   1.0000   1.0000   1.0000
     1.0000   1.0000   0.0000   0.0000   0.0000   0.0000   0.0000   0.0000
     0.0000   0.0000   0.0000   0.0000   0.0000   0.0000

          k =-0.1515-0.3536 0.3536 ( 10896 PWs)   bands (ev):

    -6.1049  -6.0926  -4.0011  -3.9951  -3.8775  -3.7525  -3.3701  -3.3458
    -3.2440  -3.2342  -3.0812  -2.9991   0.5483   0.6513   2.7765   2.9772
     3.7022   3.7313   6.8327   6.9695   9.3418   9.3504   9.8990   9.9058
    10.7948  10.8257  13.0664  13.0873  13.2838  13.3564

     occupation numbers 
     1.0000   1.0000   1.0000   1.0000   1.0000   1.0000   1.0000   1.0000
     1.0000   1.0000   1.0000   1.0000   1.0000   1.0000   1.0000   1.0000
     1.0000   1.0000   0.0000   0.0000   0.0000   0.0000   0.0000   0.0000
     0.0000   0.0000   0.0000   0.0000   0.0000   0.0000

          k =-0.1010-0.3030 0.3030 ( 10895 PWs)   bands (ev):

    -6.1523  -6.1424  -4.0071  -3.9947  -3.9052  -3.7977  -3.3745  -3.3477
    -3.2543  -3.2414  -3.1608  -3.0897   0.9646   1.0758   2.8583   3.0705
     3.8640   3.8892   6.8482   6.9981   9.4107   9.4478   9.7898   9.7933
    10.1372  10.1440  12.4923  12.4943  13.4133  13.4784

     occupation numbers 
     1.0000   1.0000   1.0000   1.0000   1.0000   1.0000   1.0000   1.0000
     1.0000   1.0000   1.0000   1.0000   1.0000   1.0000   1.0000   1.0000
     1.0000   1.0000   0.0000   0.0000   0.0000   0.0000   0.0000   0.0000
     0.0000   0.0000   0.0000   0.0000   0.0000   0.0000

          k =-0.0505-0.2525 0.2525 ( 10905 PWs)   bands (ev):

    -6.2148  -6.2079  -4.0134  -3.9971  -3.9373  -3.8570  -3.3852  -3.3574
    -3.2659  -3.2529  -3.2244  -3.1716   1.4957   1.6137   3.0391   3.2625
     4.0414   4.0658   6.7958   6.9543   9.1471   9.2713   9.6033   9.6109
     9.8513   9.9153  12.1950  12.1992  13.3305  13.3838

     occupation numbers 
     1.0000   1.0000   1.0000   1.0000   1.0000   1.0000   1.0000   1.0000
     1.0000   1.0000   1.0000   1.0000   1.0000   1.0000   1.0000   1.0000
     1.0000   1.0000   0.0000   0.0000   0.0000   0.0000   0.0000   0.0000
     0.0000   0.0000   0.0000   0.0000   0.0000   0.0000

          k =-0.0000-0.2020 0.2020 ( 10943 PWs)   bands (ev):

    -6.2802  -6.2764  -4.0199  -4.0020  -3.9650  -3.9155  -3.4025  -3.3806
    -3.2757  -3.2635  -3.2576  -3.2230   2.0490   2.1580   3.3362   3.5494
     4.2082   4.2324   6.5833   6.7207   8.8582   8.9697   9.3938   9.4080
     9.8337   9.8910  12.2140  12.2198  13.0113  13.0503

     occupation numbers 
     1.0000   1.0000   1.0000   1.0000   1.0000   1.0000   1.0000   1.0000
     1.0000   1.0000   1.0000   1.0000   1.0000   1.0000   1.0000   1.0000
     1.0000   1.0000   0.0000   0.0000   0.0000   0.0000   0.0000   0.0000
     0.0000   0.0000   0.0000   0.0000   0.0000   0.0000

          k = 0.3030 0.0000 0.0000 ( 10942 PWs)   bands (ev):

    -6.2575  -6.2575  -4.0024  -4.0024  -3.9366  -3.9366  -3.3756  -3.3756
    -3.2866  -3.2866  -3.2257  -3.2257   2.1313   2.1313   3.3967   3.3967
     3.8006   3.8006   7.0411   7.0411   7.8961   7.8961  10.3194  10.3194
    10.3865  10.3865  11.2618  11.2618  14.1182  14.1182

     occupation numbers 
     1.0000   1.0000   1.0000   1.0000   1.0000   1.0000   1.0000   1.0000
     1.0000   1.0000   1.0000   1.0000   1.0000   1.0000   1.0000   1.0000
     1.0000   1.0000   0.0000   0.0000   0.0000   0.0000   0.0000   0.0000
     0.0000   0.0000   0.0000   0.0000   0.0000   0.0000

          k = 0.3536 0.0505-0.0505 ( 10924 PWs)   bands (ev):

    -6.2043  -6.2012  -4.0027  -3.9884  -3.9245  -3.8835  -3.3573  -3.3491
    -3.2859  -3.2775  -3.1975  -3.1934   1.6830   1.7411   3.1552   3.2671
     3.5934   3.6194   7.1515   7.2594   7.8465   7.8915  10.4259  10.4550
    10.6727  10.6813  11.5136  11.5309  14.2030  14.2077

     occupation numbers 
     1.0000   1.0000   1.0000   1.0000   1.0000   1.0000   1.0000   1.0000
     1.0000   1.0000   1.0000   1.0000   1.0000   1.0000   1.0000   1.0000
     1.0000   1.0000   0.0000   0.0000   0.0000   0.0000   0.0000   0.0000
     0.0000   0.0000   0.0000   0.0000   0.0000   0.0000

          k = 0.4041 0.1010-0.1010 ( 10916 PWs)   bands (ev):

    -6.1474  -6.1401  -4.0010  -3.9777  -3.9090  -3.8200  -3.3453  -3.3361
    -3.2755  -3.2616  -3.1540  -3.1249   1.1957   1.2920   2.9133   3.1092
     3.3976   3.4534   7.1938   7.3237   8.1465   8.1481  10.2378  10.3028
    10.8280  10.8392  12.2607  12.3071  14.4406  14.4485

     occupation numbers 
     1.0000   1.0000   1.0000   1.0000   1.0000   1.0000   1.0000   1.0000
     1.0000   1.0000   1.0000   1.0000   1.0000   1.0000   1.0000   1.0000
     1.0000   1.0000   0.0000   0.0000   0.0000   0.0000   0.0000   0.0000
     0.0000   0.0000   0.0000   0.0000   0.0000   0.0000

          k = 0.4546 0.1515-0.1515 ( 10891 PWs)   bands (ev):

    -6.0985  -6.0865  -3.9978  -3.9721  -3.8938  -3.7606  -3.3439  -3.3328
    -3.2590  -3.2478  -3.0924  -3.0281   0.7636   0.8851   2.6739   2.9088
     3.2855   3.3486   7.1885   7.3068   8.5626   8.6430  10.1791  10.2947
    10.8105  10.8228  12.9490  13.0503  14.7131  14.7147

     occupation numbers 
     1.0000   1.0000   1.0000   1.0000   1.0000   1.0000   1.0000   1.0000
     1.0000   1.0000   1.0000   1.0000   1.0000   1.0000   1.0000   1.0000
     1.0000   1.0000   0.0000   0.0000   0.0000   0.0000   0.0000   0.0000
     0.0000   0.0000   0.0000   0.0000   0.0000   0.0000

          k =-0.2020-0.5051 0.5051 ( 10893 PWs)   bands (ev):

    -6.0666  -6.0507  -3.9940  -3.9714  -3.8838  -3.7192  -3.3476  -3.3326
    -3.2462  -3.2381  -3.0309  -2.9384   0.4635   0.6042   2.4640   2.7094
     3.2778   3.3290   7.1815   7.2992   8.9121   9.0401  10.4279  10.5690
    10.7125  10.7224  13.0454  13.2065  14.7498  14.7633

     occupation numbers 
     1.0000   1.0000   1.0000   1.0000   1.0000   1.0000   1.0000   1.0000
     1.0000   1.0000   1.0000   1.0000   1.0000   1.0000   1.0000   1.0000
     1.0000   1.0000   0.0000   0.0000   0.0000   0.0000   0.0000   0.0000
     0.0000   0.0000   0.0000   0.0000   0.0000   0.0000

          k =-0.1515-0.4546 0.4546 ( 10897 PWs)   bands (ev):

    -6.0572  -6.0391  -3.9906  -3.9745  -3.8830  -3.7025  -3.3524  -3.3328
    -3.2405  -3.2332  -3.0074  -2.8981   0.3592   0.5164   2.3184   2.5720
     3.3522   3.3911   7.1950   7.3232   9.1094   9.2253  10.5133  10.5172
    10.9550  11.0579  12.6252  12.8010  13.9248  13.9328

     occupation numbers 
     1.0000   1.0000   1.0000   1.0000   1.0000   1.0000   1.0000   1.0000
     1.0000   1.0000   1.0000   1.0000   1.0000   1.0000   1.0000   1.0000
     1.0000   1.0000   0.0000   0.0000   0.0000   0.0000   0.0000   0.0000
     0.0000   0.0000   0.0000   0.0000   0.0000   0.0000

          k =-0.1010-0.4041 0.4041 ( 10895 PWs)   bands (ev):

    -6.0715  -6.0536  -3.9886  -3.9807  -3.8919  -3.7119  -3.3574  -3.3328
    -3.2413  -3.2338  -3.0425  -2.9275   0.4714   0.6430   2.2686   2.5345
     3.4901   3.5203   7.2209   7.3692   9.2565   9.3494  10.3442  10.3502
    10.7566  10.8738  12.8457  13.0133  13.1116  13.1306

     occupation numbers 
     1.0000   1.0000   1.0000   1.0000   1.0000   1.0000   1.0000   1.0000
     1.0000   1.0000   1.0000   1.0000   1.0000   1.0000   1.0000   1.0000
     1.0000   1.0000   0.0000   0.0000   0.0000   0.0000   0.0000   0.0000
     0.0000   0.0000   0.0000   0.0000   0.0000   0.0000

          k =-0.0505-0.3536 0.3536 ( 10908 PWs)   bands (ev):

    -6.1072  -6.0918  -3.9895  -3.9888  -3.9076  -3.7457  -3.3634  -3.3343
    -3.2473  -3.2393  -3.1136  -3.0066   0.7547   0.9340   2.3501   2.6271
     3.6699   3.6954   7.2175   7.3925   9.4216   9.4917  10.0538  10.1241
    10.1469  10.2043  12.5104  12.5114  13.6515  13.7868

     occupation numbers 
     1.0000   1.0000   1.0000   1.0000   1.0000   1.0000   1.0000   1.0000
     1.0000   1.0000   1.0000   1.0000   1.0000   1.0000   1.0000   1.0000
     1.0000   1.0000   0.0000   0.0000   0.0000   0.0000   0.0000   0.0000
     0.0000   0.0000   0.0000   0.0000   0.0000   0.0000

          k = 0.0000-0.3030 0.3030 ( 10899 PWs)   bands (ev):

    -6.1582  -6.1468  -4.0009  -3.9918  -3.9244  -3.7979  -3.3726  -3.3409
    -3.2564  -3.2472  -3.1813  -3.0973   1.1223   1.2870   2.6059   2.8743
     3.8636   3.8879   7.0996   7.2890   9.3867   9.4994   9.7238   9.7453
     9.8813   9.8958  12.2077  12.2106  13.9541  14.0616

     occupation numbers 
     1.0000   1.0000   1.0000   1.0000   1.0000   1.0000   1.0000   1.0000
     1.0000   1.0000   1.0000   1.0000   1.0000   1.0000   1.0000   1.0000
     1.0000   1.0000   0.0000   0.0000   0.0000   0.0000   0.0000   0.0000
     0.0000   0.0000   0.0000   0.0000   0.0000   0.0000

          k = 0.4041 0.0000 0.0000 ( 10910 PWs)   bands (ev):

    -6.1596  -6.1596  -3.9894  -3.9894  -3.8789  -3.8789  -3.3317  -3.3317
    -3.2828  -3.2828  -3.1658  -3.1658   1.4602   1.4602   3.0526   3.0526
     3.4313   3.4313   7.2086   7.2086   7.6569   7.6569  11.0527  11.0527
    11.1599  11.1599  11.3196  11.3196  14.4211  14.4211

     occupation numbers 
     1.0000   1.0000   1.0000   1.0000   1.0000   1.0000   1.0000   1.0000
     1.0000   1.0000   1.0000   1.0000   1.0000   1.0000   1.0000   1.0000
     1.0000   1.0000   0.0000   0.0000   0.0000   0.0000   0.0000   0.0000
     0.0000   0.0000   0.0000   0.0000   0.0000   0.0000

          k = 0.4546 0.0505-0.0505 ( 10896 PWs)   bands (ev):

    -6.1135  -6.1086  -3.9895  -3.9761  -3.8763  -3.8189  -3.3221  -3.3162
    -3.2850  -3.2642  -3.1234  -3.1031   1.0937   1.1543   2.8233   2.9418
     3.2400   3.2718   7.1888   7.2697   7.6664   7.6781  10.9068  10.9369
    11.4450  11.4701  12.0898  12.1412  14.6400  14.6450

     occupation numbers 
     1.0000   1.0000   1.0000   1.0000   1.0000   1.0000   1.0000   1.0000
     1.0000   1.0000   1.0000   1.0000   1.0000   1.0000   1.0000   1.0000
     1.0000   1.0000   0.0000   0.0000   0.0000   0.0000   0.0000   0.0000
     0.0000   0.0000   0.0000   0.0000   0.0000   0.0000

          k = 0.5051 0.1010-0.1010 ( 10889 PWs)   bands (ev):

    -6.0724  -6.0617  -3.9882  -3.9645  -3.8776  -3.7590  -3.3212  -3.3138
    -3.2752  -3.2470  -3.0675  -3.0120   0.7478   0.8615   2.5534   2.7703
     3.0854   3.1478   7.2233   7.3047   7.9531   8.0071  10.7210  10.7789
    11.5178  11.5352  12.8972  13.0069  15.0198  15.0286

     occupation numbers 
     1.0000   1.0000   1.0000   1.0000   1.0000   1.0000   1.0000   1.0000
     1.0000   1.0000   1.0000   1.0000   1.0000   1.0000   1.0000   1.0000
     1.0000   1.0000   0.0000   0.0000   0.0000   0.0000   0.0000   0.0000
     0.0000   0.0000   0.0000   0.0000   0.0000   0.0000

          k =-0.1515-0.5556 0.5556 ( 10892 PWs)   bands (ev):

    -6.0442  -6.0280  -3.9860  -3.9559  -3.8837  -3.7126  -3.3221  -3.3211
    -3.2598  -3.2362  -3.0109  -2.9203   0.4923   0.6536   2.2652   2.5290
     3.0586   3.1144   7.2432   7.3204   8.4516   8.5862  10.6520  10.7642
    11.4007  11.4180  13.0590  13.2377  14.9031  14.9074

     occupation numbers 
     1.0000   1.0000   1.0000   1.0000   1.0000   1.0000   1.0000   1.0000
     1.0000   1.0000   1.0000   1.0000   1.0000   1.0000   1.0000   1.0000
     1.0000   1.0000   0.0000   0.0000   0.0000   0.0000   0.0000   0.0000
     0.0000   0.0000   0.0000   0.0000   0.0000   0.0000

          k =-0.1010-0.5051 0.5051 ( 10884 PWs)   bands (ev):

    -6.0336  -6.0135  -3.9841  -3.9524  -3.8934  -3.6876  -3.3309  -3.3232
    -3.2482  -3.2312  -2.9806  -2.8644   0.3758   0.5796   2.0301   2.3264
     3.1305   3.1726   7.2847   7.3728   8.9456   9.1580  10.7822  10.9777
    11.1873  11.2110  12.4069  12.5739  14.0762  14.0792

     occupation numbers 
     1.0000   1.0000   1.0000   1.0000   1.0000   1.0000   1.0000   1.0000
     1.0000   1.0000   1.0000   1.0000   1.0000   1.0000   1.0000   1.0000
     1.0000   1.0000   0.0000   0.0000   0.0000   0.0000   0.0000   0.0000
     0.0000   0.0000   0.0000   0.0000   0.0000   0.0000

          k =-0.0505-0.4546 0.4546 ( 10899 PWs)   bands (ev):

    -6.0421  -6.0208  -3.9834  -3.9569  -3.9027  -3.6858  -3.3412  -3.3244
    -3.2424  -3.2312  -2.9973  -2.8677   0.4115   0.6454   1.9213   2.2436
     3.2729   3.3053   7.3443   7.4564   9.2558   9.5016  10.8328  10.8984
    10.9387  11.1233  12.0380  12.1634  13.3017  13.3044

     occupation numbers 
     1.0000   1.0000   1.0000   1.0000   1.0000   1.0000   1.0000   1.0000
     1.0000   1.0000   1.0000   1.0000   1.0000   1.0000   1.0000   1.0000
     1.0000   1.0000   0.0000   0.0000   0.0000   0.0000   0.0000   0.0000
     0.0000   0.0000   0.0000   0.0000   0.0000   0.0000

          k = 0.0000-0.4041 0.4041 ( 10898 PWs)   bands (ev):

    -6.0681  -6.0486  -3.9848  -3.9707  -3.9074  -3.7060  -3.3519  -3.3272
    -3.2424  -3.2349  -3.0517  -2.9240   0.5593   0.7892   2.0146   2.3357
     3.4624   3.4894   7.3622   7.5109   9.3929   9.6204  10.3058  10.5427
    10.5444  10.5656  12.7322  12.7648  12.8039  12.8994

     occupation numbers 
     1.0000   1.0000   1.0000   1.0000   1.0000   1.0000   1.0000   1.0000
     1.0000   1.0000   1.0000   1.0000   1.0000   1.0000   1.0000   1.0000
     1.0000   1.0000   0.0000   0.0000   0.0000   0.0000   0.0000   0.0000
     0.0000   0.0000   0.0000   0.0000   0.0000   0.0000

          k = 0.5051 0.0000 0.0000 ( 10906 PWs)   bands (ev):

    -6.0739  -6.0739  -3.9781  -3.9781  -3.8237  -3.8237  -3.3080  -3.3080
    -3.2692  -3.2692  -3.0677  -3.0677   0.8927   0.8927   2.7757   2.7757
     3.1374   3.1374   7.0901   7.0901   7.4657   7.4657  11.6597  11.6597
    12.0090  12.0090  12.0867  12.0867  14.7724  14.7724

     occupation numbers 
     1.0000   1.0000   1.0000   1.0000   1.0000   1.0000   1.0000   1.0000
     1.0000   1.0000   1.0000   1.0000   1.0000   1.0000   1.0000   1.0000
     1.0000   1.0000   0.0000   0.0000   0.0000   0.0000   0.0000   0.0000
     0.0000   0.0000   0.0000   0.0000   0.0000   0.0000

          k = 0.5556 0.0505-0.0505 ( 10864 PWs)   bands (ev):

    -6.0431  -6.0366  -3.9791  -3.9668  -3.8358  -3.7670  -3.3113  -3.2939
    -3.2767  -3.2480  -3.0225  -2.9889   0.6291   0.6915   2.5790   2.6997
     2.9869   3.0211   7.0998   7.1504   7.4620   7.4765  11.6207  11.6318
    12.2406  12.2658  12.7936  12.9149  15.0451  15.0542

     occupation numbers 
     1.0000   1.0000   1.0000   1.0000   1.0000   1.0000   1.0000   1.0000
     1.0000   1.0000   1.0000   1.0000   1.0000   1.0000   1.0000   1.0000
     1.0000   1.0000   0.0000   0.0000   0.0000   0.0000   0.0000   0.0000
     0.0000   0.0000   0.0000   0.0000   0.0000   0.0000

          k =-0.1010-0.6061 0.6061 ( 10879 PWs)   bands (ev):

    -6.0223  -6.0090  -3.9792  -3.9557  -3.8550  -3.7192  -3.3145  -3.2939
    -3.2730  -3.2348  -2.9786  -2.9070   0.4374   0.5628   2.3107   2.5331
     2.8978   2.9572   7.1552   7.2044   7.8024   7.8800  11.4907  11.4910
    12.1748  12.1910  13.0674  13.2914  15.0620  15.0656

     occupation numbers 
     1.0000   1.0000   1.0000   1.0000   1.0000   1.0000   1.0000   1.0000
     1.0000   1.0000   1.0000   1.0000   1.0000   1.0000   1.0000   1.0000
     1.0000   1.0000   0.0000   0.0000   0.0000   0.0000   0.0000   0.0000
     0.0000   0.0000   0.0000   0.0000   0.0000   0.0000

          k =-0.0505-0.5556 0.5556 ( 10880 PWs)   bands (ev):

    -6.0150  -5.9962  -3.9793  -3.9458  -3.8792  -3.6884  -3.3171  -3.3078
    -3.2594  -3.2289  -2.9540  -2.8501   0.3505   0.5401   2.0244   2.3073
     2.9459   2.9956   7.2100   7.2662   8.3934   8.5395  11.4186  11.4529
    11.8887  11.9026  12.4087  12.6463  14.3641  14.3664

     occupation numbers 
     1.0000   1.0000   1.0000   1.0000   1.0000   1.0000   1.0000   1.0000
     1.0000   1.0000   1.0000   1.0000   1.0000   1.0000   1.0000   1.0000
     1.0000   1.0000   0.0000   0.0000   0.0000   0.0000   0.0000   0.0000
     0.0000   0.0000   0.0000   0.0000   0.0000   0.0000

          k = 0.0000-0.5051 0.5051 ( 10904 PWs)   bands (ev):

    -6.0221  -6.0005  -3.9803  -3.9419  -3.9005  -3.6774  -3.3241  -3.3199
    -3.2485  -3.2285  -2.9617  -2.8370   0.3584   0.5980   1.8495   2.1768
     3.0816   3.1203   7.2919   7.3684   8.9726   9.2059  11.3576  11.4402
    11.4826  11.6041  11.6607  11.7936  13.7159  13.7163

     occupation numbers 
     1.0000   1.0000   1.0000   1.0000   1.0000   1.0000   1.0000   1.0000
     1.0000   1.0000   1.0000   1.0000   1.0000   1.0000   1.0000   1.0000
     1.0000   1.0000   0.0000   0.0000   0.0000   0.0000   0.0000   0.0000
     0.0000   0.0000   0.0000   0.0000   0.0000   0.0000

          k = 0.6061 0.0000 0.0000 ( 10894 PWs)   bands (ev):

    -6.0164  -6.0164  -3.9705  -3.9705  -3.7854  -3.7854  -3.3010  -3.3010
    -3.2538  -3.2538  -2.9629  -2.9629   0.4957   0.4957   2.5972   2.5972
     2.9500   2.9500   7.0186   7.0186   7.2425   7.2425  12.3440  12.3440
    12.8132  12.8132  12.8964  12.8964  15.0987  15.0987

     occupation numbers 
     1.0000   1.0000   1.0000   1.0000   1.0000   1.0000   1.0000   1.0000
     1.0000   1.0000   1.0000   1.0000   1.0000   1.0000   1.0000   1.0000
     1.0000   1.0000   0.0000   0.0000   0.0000   0.0000   0.0000   0.0000
     0.0000   0.0000   0.0000   0.0000   0.0000   0.0000

          k =-0.0505-0.6566 0.6566 ( 10877 PWs)   bands (ev):

    -6.0051  -5.9977  -3.9735  -3.9618  -3.8131  -3.7393  -3.3075  -3.2896
    -3.2652  -3.2378  -2.9431  -2.9038   0.3634   0.4269   2.4501   2.5711
     2.8556   2.8904   7.0635   7.1008   7.2940   7.3184  12.2716  12.3997
    12.8795  12.8841  13.0966  13.3671  15.1919  15.2095

     occupation numbers 
     1.0000   1.0000   1.0000   1.0000   1.0000   1.0000   1.0000   1.0000
     1.0000   1.0000   1.0000   1.0000   1.0000   1.0000   1.0000   1.0000
     1.0000   1.0000   0.0000   0.0000   0.0000   0.0000   0.0000   0.0000
     0.0000   0.0000   0.0000   0.0000   0.0000   0.0000

          k = 0.0000-0.6061 0.6061 ( 10880 PWs)   bands (ev):

    -6.0047  -5.9905  -3.9760  -3.9527  -3.8468  -3.7058  -3.3125  -3.2880
    -3.2710  -3.2301  -2.9392  -2.8629   0.3238   0.4534   2.2256   2.4489
     2.8349   2.8925   7.1226   7.1622   7.7437   7.8267  11.9791  12.1455
    12.5023  12.5229  12.6784  13.0376  14.7986  14.8083

     occupation numbers 
     1.0000   1.0000   1.0000   1.0000   1.0000   1.0000   1.0000   1.0000
     1.0000   1.0000   1.0000   1.0000   1.0000   1.0000   1.0000   1.0000
     1.0000   1.0000   0.0000   0.0000   0.0000   0.0000   0.0000   0.0000
     0.0000   0.0000   0.0000   0.0000   0.0000   0.0000

          k =-0.7071 0.0000 0.0000 ( 10846 PWs)   bands (ev):

    -5.9963  -5.9963  -3.9679  -3.9679  -3.7720  -3.7720  -3.2994  -3.2994
    -3.2478  -3.2478  -2.9157  -2.9157   0.3496   0.3496   2.5356   2.5356
     2.8857   2.8857   7.0372   7.0372   7.1106   7.1106  12.6951  12.6951
    13.2133  13.2133  13.3121  13.3121  15.2456  15.2456

     occupation numbers 
     1.0000   1.0000   1.0000   1.0000   1.0000   1.0000   1.0000   1.0000
     1.0000   1.0000   1.0000   1.0000   1.0000   1.0000   1.0000   1.0000
     1.0000   1.0000   0.0000   0.0000   0.0000   0.0000   0.0000   0.0000
     0.0000   0.0000   0.0000   0.0000   0.0000   0.0000

          k = 0.2020 0.1010 0.0000 ( 10913 PWs)   bands (ev):

    -6.3297  -6.3281  -4.0220  -4.0055  -3.9843  -3.9596  -3.4160  -3.4056
    -3.2828  -3.2802  -3.2598  -3.2476   2.5607   2.6356   3.6345   3.7892
     4.2152   4.2649   6.4094   6.4974   8.4912   8.5400   9.5077   9.5554
     9.7314   9.7837  12.0419  12.0527  13.2280  13.2567

     occupation numbers 
     1.0000   1.0000   1.0000   1.0000   1.0000   1.0000   1.0000   1.0000
     1.0000   1.0000   1.0000   1.0000   1.0000   1.0000   1.0000   1.0000
     1.0000   1.0000   0.0000   0.0000   0.0000   0.0000   0.0000   0.0000
     0.0000   0.0000   0.0000   0.0000   0.0000   0.0000

          k = 0.2525 0.1515-0.0505 ( 10914 PWs)   bands (ev):

    -6.2677  -6.2641  -4.0188  -3.9990  -3.9577  -3.9101  -3.3958  -3.3768
    -3.2754  -3.2711  -3.2413  -3.2203   1.9625   2.0508   3.3713   3.5593
     4.0526   4.1185   6.6680   6.7983   8.6111   8.6779   9.7189   9.7805
     9.8944   9.9701  11.9998  12.0129  13.3035  13.3283

     occupation numbers 
     1.0000   1.0000   1.0000   1.0000   1.0000   1.0000   1.0000   1.0000
     1.0000   1.0000   1.0000   1.0000   1.0000   1.0000   1.0000   1.0000
     1.0000   1.0000   0.0000   0.0000   0.0000   0.0000   0.0000   0.0000
     0.0000   0.0000   0.0000   0.0000   0.0000   0.0000

          k = 0.3030 0.2020-0.1010 ( 10899 PWs)   bands (ev):

    -6.1997  -6.1935  -4.0148  -3.9951  -3.9228  -3.8498  -3.3794  -3.3576
    -3.2638  -3.2542  -3.2009  -3.1634   1.3497   1.4361   3.1713   3.3594
     3.8854   3.9524   6.7519   6.8895   8.9591   9.0085   9.8646   9.9432
    10.0086  10.1016  12.2625  12.2901  13.3554  13.3992

     occupation numbers 
     1.0000   1.0000   1.0000   1.0000   1.0000   1.0000   1.0000   1.0000
     1.0000   1.0000   1.0000   1.0000   1.0000   1.0000   1.0000   1.0000
     1.0000   1.0000   0.0000   0.0000   0.0000   0.0000   0.0000   0.0000
     0.0000   0.0000   0.0000   0.0000   0.0000   0.0000

          k = 0.3536 0.2525-0.1515 ( 10893 PWs)   bands (ev):

    -6.1396  -6.1306  -4.0099  -3.9940  -3.8881  -3.7925  -3.3721  -3.3510
    -3.2515  -3.2404  -3.1315  -3.0748   0.8154   0.8981   3.0331   3.2164
     3.7348   3.7989   6.7366   6.8668   9.2038   9.2316   9.9008   9.9732
    10.4048  10.4771  12.6984  12.7679  13.3670  13.4260

     occupation numbers 
     1.0000   1.0000   1.0000   1.0000   1.0000   1.0000   1.0000   1.0000
     1.0000   1.0000   1.0000   1.0000   1.0000   1.0000   1.0000   1.0000
     1.0000   1.0000   0.0000   0.0000   0.0000   0.0000   0.0000   0.0000
     0.0000   0.0000   0.0000   0.0000   0.0000   0.0000

          k =-0.3030-0.4041 0.5051 ( 10902 PWs)   bands (ev):

    -6.0987  -6.0878  -4.0047  -3.9957  -3.8629  -3.7527  -3.3705  -3.3500
    -3.2410  -3.2340  -3.0565  -2.9880   0.4428   0.5234   2.9531   3.1333
     3.6300   3.6909   6.7027   6.8267   9.2410   9.2612   9.9017   9.9619
    11.0149  11.0554  12.9250  13.0330  13.7448  13.7800

     occupation numbers 
     1.0000   1.0000   1.0000   1.0000   1.0000   1.0000   1.0000   1.0000
     1.0000   1.0000   1.0000   1.0000   1.0000   1.0000   1.0000   1.0000
     1.0000   1.0000   0.0000   0.0000   0.0000   0.0000   0.0000   0.0000
     0.0000   0.0000   0.0000   0.0000   0.0000   0.0000

          k =-0.2525-0.3536 0.4546 ( 10902 PWs)   bands (ev):

    -6.0843  -6.0726  -4.0007  -3.9984  -3.8537  -3.7387  -3.3703  -3.3501
    -3.2350  -3.2341  -3.0229  -2.9507   0.3072   0.3873   2.9271   3.1065
     3.5924   3.6519   6.6881   6.8099   9.2358   9.2539   9.8955   9.9520
    11.3531  11.3719  12.9650  13.0995  13.8941  13.9522

     occupation numbers 
     1.0000   1.0000   1.0000   1.0000   1.0000   1.0000   1.0000   1.0000
     1.0000   1.0000   1.0000   1.0000   1.0000   1.0000   1.0000   1.0000
     1.0000   1.0000   0.0000   0.0000   0.0000   0.0000   0.0000   0.0000
     0.0000   0.0000   0.0000   0.0000   0.0000   0.0000

          k = 0.3030 0.1010 0.0000 ( 10920 PWs)   bands (ev):

    -6.2455  -6.2422  -4.0109  -3.9931  -3.9496  -3.9034  -3.3806  -3.3657
    -3.2826  -3.2779  -3.2248  -3.2127   1.9173   1.9982   3.2613   3.4405
     3.7862   3.8749   6.9784   7.1129   8.0926   8.1560  10.0786  10.1236
    10.2471  10.3179  11.6205  11.6234  13.8738  13.8826

     occupation numbers 
     1.0000   1.0000   1.0000   1.0000   1.0000   1.0000   1.0000   1.0000
     1.0000   1.0000   1.0000   1.0000   1.0000   1.0000   1.0000   1.0000
     1.0000   1.0000   0.0000   0.0000   0.0000   0.0000   0.0000   0.0000
     0.0000   0.0000   0.0000   0.0000   0.0000   0.0000

          k = 0.3536 0.1515-0.0505 ( 10918 PWs)   bands (ev):

    -6.1852  -6.1784  -4.0067  -3.9851  -3.9279  -3.8446  -3.3644  -3.3458
    -3.2726  -3.2657  -3.1901  -3.1585   1.4123   1.5189   2.9869   3.2160
     3.6047   3.7202   7.1257   7.3020   8.2908   8.3539   9.9734  10.0411
    10.5032  10.5924  12.0187  12.0418  14.0541  14.0813

     occupation numbers 
     1.0000   1.0000   1.0000   1.0000   1.0000   1.0000   1.0000   1.0000
     1.0000   1.0000   1.0000   1.0000   1.0000   1.0000   1.0000   1.0000
     1.0000   1.0000   0.0000   0.0000   0.0000   0.0000   0.0000   0.0000
     0.0000   0.0000   0.0000   0.0000   0.0000   0.0000

          k = 0.4041 0.2020-0.1010 ( 10893 PWs)   bands (ev):

    -6.1286  -6.1178  -4.0021  -3.9807  -3.9044  -3.7838  -3.3570  -3.3384
    -3.2568  -3.2524  -3.1325  -3.0716   0.9283   1.0473   2.7721   3.0150
     3.4532   3.5655   7.1602   7.3261   8.6952   8.7380   9.8970  10.0052
    10.6302  10.7362  12.5779  12.6382  14.2002  14.2668

     occupation numbers 
     1.0000   1.0000   1.0000   1.0000   1.0000   1.0000   1.0000   1.0000
     1.0000   1.0000   1.0000   1.0000   1.0000   1.0000   1.0000   1.0000
     1.0000   1.0000   0.0000   0.0000   0.0000   0.0000   0.0000   0.0000
     0.0000   0.0000   0.0000   0.0000   0.0000   0.0000

          k =-0.2525-0.4546 0.5556 ( 10904 PWs)   bands (ev):

    -6.0865  -6.0723  -3.9974  -3.9801  -3.8853  -3.7367  -3.3564  -3.3370
    -3.2445  -3.2415  -3.0623  -2.9772   0.5511   0.6770   2.6155   2.8587
     3.3619   3.4598   7.1503   7.3056   8.9605   9.0208  10.0588  10.2113
    10.7221  10.8763  12.9267  13.0569  14.3102  14.3808

     occupation numbers 
     1.0000   1.0000   1.0000   1.0000   1.0000   1.0000   1.0000   1.0000
     1.0000   1.0000   1.0000   1.0000   1.0000   1.0000   1.0000   1.0000
     1.0000   1.0000   0.0000   0.0000   0.0000   0.0000   0.0000   0.0000
     0.0000   0.0000   0.0000   0.0000   0.0000   0.0000

          k =-0.2020-0.4041 0.5051 ( 10896 PWs)   bands (ev):

    -6.0666  -6.0502  -3.9932  -3.9824  -3.8763  -3.7130  -3.3580  -3.3370
    -3.2387  -3.2353  -3.0168  -2.9182   0.3593   0.4911   2.5143   2.7551
     3.3517   3.4353   7.1436   7.2980   9.0575   9.0976  10.1903  10.3300
    11.0777  11.2185  12.6958  12.8624  14.2755  14.2986

     occupation numbers 
     1.0000   1.0000   1.0000   1.0000   1.0000   1.0000   1.0000   1.0000
     1.0000   1.0000   1.0000   1.0000   1.0000   1.0000   1.0000   1.0000
     1.0000   1.0000   0.0000   0.0000   0.0000   0.0000   0.0000   0.0000
     0.0000   0.0000   0.0000   0.0000   0.0000   0.0000

          k =-0.1515-0.3536 0.4546 ( 10896 PWs)   bands (ev):

    -6.0718  -6.0553  -3.9915  -3.9854  -3.8801  -3.7160  -3.3599  -3.3369
    -3.2395  -3.2347  -3.0301  -2.9279   0.4010   0.5388   2.4769   2.7193
     3.4208   3.4974   7.1526   7.3148   9.1292   9.1432  10.1224  10.2489
    11.0625  11.1930  12.7019  12.8524  13.8646  13.9525

     occupation numbers 
     1.0000   1.0000   1.0000   1.0000   1.0000   1.0000   1.0000   1.0000
     1.0000   1.0000   1.0000   1.0000   1.0000   1.0000   1.0000   1.0000
     1.0000   1.0000   0.0000   0.0000   0.0000   0.0000   0.0000   0.0000
     0.0000   0.0000   0.0000   0.0000   0.0000   0.0000

          k =-0.1010-0.3030 0.4041 ( 10896 PWs)   bands (ev):

    -6.1013  -6.0868  -3.9954  -3.9863  -3.8957  -3.7449  -3.3625  -3.3371
    -3.2459  -3.2400  -3.0938  -2.9989   0.6604   0.8041   2.5221   2.7714
     3.5527   3.6293   7.1641   7.3417   9.1783   9.2086   9.8836  10.0072
    10.6016  10.7432  12.6845  12.7539  13.7759  13.9012

     occupation numbers 
     1.0000   1.0000   1.0000   1.0000   1.0000   1.0000   1.0000   1.0000
     1.0000   1.0000   1.0000   1.0000   1.0000   1.0000   1.0000   1.0000
     1.0000   1.0000   0.0000   0.0000   0.0000   0.0000   0.0000   0.0000
     0.0000   0.0000   0.0000   0.0000   0.0000   0.0000

          k =-0.0505-0.2525 0.3536 ( 10902 PWs)   bands (ev):

    -6.1503  -6.1392  -4.0023  -3.9881  -3.9181  -3.7949  -3.3682  -3.3406
    -3.2558  -3.2506  -3.1668  -3.0917   1.0655   1.2110   2.6757   2.9315
     3.7217   3.8014   7.1325   7.3275   9.0026   9.0961   9.6924   9.8001
    10.2970  10.4080  12.2789  12.3098  13.9693  14.0624

     occupation numbers 
     1.0000   1.0000   1.0000   1.0000   1.0000   1.0000   1.0000   1.0000
     1.0000   1.0000   1.0000   1.0000   1.0000   1.0000   1.0000   1.0000
     1.0000   1.0000   0.0000   0.0000   0.0000   0.0000   0.0000   0.0000
     0.0000   0.0000   0.0000   0.0000   0.0000   0.0000

          k =-0.0000-0.2020 0.3030 ( 10908 PWs)   bands (ev):

    -6.2097  -6.2025  -4.0104  -3.9926  -3.9405  -3.8550  -3.3801  -3.3530
    -3.2669  -3.2629  -3.2171  -3.1702   1.5255   1.6557   2.9652   3.2095
     3.8950   3.9758   6.9754   7.1608   8.6891   8.7900   9.7845   9.8697
    10.0245  10.1273  12.0482  12.0652  13.6615  13.7120

     occupation numbers 
     1.0000   1.0000   1.0000   1.0000   1.0000   1.0000   1.0000   1.0000
     1.0000   1.0000   1.0000   1.0000   1.0000   1.0000   1.0000   1.0000
     1.0000   1.0000   0.0000   0.0000   0.0000   0.0000   0.0000   0.0000
     0.0000   0.0000   0.0000   0.0000   0.0000   0.0000

          k = 0.4041 0.1010 0.0000 ( 10908 PWs)   bands (ev):

    -6.1540  -6.1483  -3.9974  -3.9798  -3.9070  -3.8371  -3.3391  -3.3332
    -3.2835  -3.2671  -3.1642  -3.1414   1.3188   1.4031   2.9085   3.1009
     3.3664   3.4747   7.2510   7.4129   7.8105   7.8772  10.3778  10.4352
    11.0605  11.1467  11.8952  11.9177  14.4333  14.4372

     occupation numbers 
     1.0000   1.0000   1.0000   1.0000   1.0000   1.0000   1.0000   1.0000
     1.0000   1.0000   1.0000   1.0000   1.0000   1.0000   1.0000   1.0000
     1.0000   1.0000   0.0000   0.0000   0.0000   0.0000   0.0000   0.0000
     0.0000   0.0000   0.0000   0.0000   0.0000   0.0000

          k = 0.4546 0.1515-0.0505 ( 10895 PWs)   bands (ev):

    -6.1050  -6.0947  -3.9933  -3.9704  -3.8972  -3.7787  -3.3315  -3.3268
    -3.2731  -3.2523  -3.1125  -3.0586   0.9325   1.0548   2.6399   2.8992
     3.1848   3.3237   7.3367   7.5047   8.0821   8.1150  10.1901  10.2671
    11.3110  11.3988  12.5030  12.5558  14.8371  14.8858

     occupation numbers 
     1.0000   1.0000   1.0000   1.0000   1.0000   1.0000   1.0000   1.0000
     1.0000   1.0000   1.0000   1.0000   1.0000   1.0000   1.0000   1.0000
     1.0000   1.0000   0.0000   0.0000   0.0000   0.0000   0.0000   0.0000
     0.0000   0.0000   0.0000   0.0000   0.0000   0.0000

          k =-0.2020-0.5051 0.6061 ( 10901 PWs)   bands (ev):

    -6.0666  -6.0514  -3.9893  -3.9638  -3.8918  -3.7280  -3.3330  -3.3254
    -3.2584  -3.2409  -3.0491  -2.9630   0.6068   0.7614   2.3945   2.6739
     3.0980   3.2142   7.3679   7.5112   8.5294   8.6268  10.0929  10.2168
    11.3285  11.4172  12.9145  13.0485  14.8773  15.0395

     occupation numbers 
     1.0000   1.0000   1.0000   1.0000   1.0000   1.0000   1.0000   1.0000
     1.0000   1.0000   1.0000   1.0000   1.0000   1.0000   1.0000   1.0000
     1.0000   1.0000   0.0000   0.0000   0.0000   0.0000   0.0000   0.0000
     0.0000   0.0000   0.0000   0.0000   0.0000   0.0000

          k =-0.1515-0.4546 0.5556 ( 10891 PWs)   bands (ev):

    -6.0456  -6.0265  -3.9857  -3.9617  -3.8911  -3.6968  -3.3380  -3.3257
    -3.2471  -3.2343  -2.9999  -2.8904   0.4097   0.5908   2.1955   2.4835
     3.1064   3.1956   7.3927   7.5342   8.9177   9.0722  10.2132  10.3772
    11.2763  11.4054  12.5520  12.7235  14.6166  14.6692

     occupation numbers 
     1.0000   1.0000   1.0000   1.0000   1.0000   1.0000   1.0000   1.0000
     1.0000   1.0000   1.0000   1.0000   1.0000   1.0000   1.0000   1.0000
     1.0000   1.0000   0.0000   0.0000   0.0000   0.0000   0.0000   0.0000
     0.0000   0.0000   0.0000   0.0000   0.0000   0.0000

          k =-0.1010-0.4041 0.5051 ( 10884 PWs)   bands (ev):

    -6.0451  -6.0246  -3.9835  -3.9646  -3.8954  -3.6892  -3.3438  -3.3262
    -3.2418  -3.2329  -2.9964  -2.8745   0.3866   0.5883   2.0797   2.3793
     3.1953   3.2718   7.4295   7.5864   9.1323   9.2678  10.2988  10.4342
    11.3428  11.5262  12.0644  12.2052  13.8606  13.8970

     occupation numbers 
     1.0000   1.0000   1.0000   1.0000   1.0000   1.0000   1.0000   1.0000
     1.0000   1.0000   1.0000   1.0000   1.0000   1.0000   1.0000   1.0000
     1.0000   1.0000   0.0000   0.0000   0.0000   0.0000   0.0000   0.0000
     0.0000   0.0000   0.0000   0.0000   0.0000   0.0000

          k =-0.0505-0.3536 0.4546 ( 10896 PWs)   bands (ev):

    -6.0651  -6.0458  -3.9839  -3.9719  -3.9033  -3.7054  -3.3501  -3.3273
    -3.2425  -3.2364  -3.0428  -2.9209   0.5306   0.7417   2.0931   2.4020
     3.3464   3.4215   7.4512   7.6366   9.2825   9.3733   9.9354   9.9937
    11.0775  11.2321  12.4358  12.5189  13.3534  13.4284

     occupation numbers 
     1.0000   1.0000   1.0000   1.0000   1.0000   1.0000   1.0000   1.0000
     1.0000   1.0000   1.0000   1.0000   1.0000   1.0000   1.0000   1.0000
     1.0000   1.0000   0.0000   0.0000   0.0000   0.0000   0.0000   0.0000
     0.0000   0.0000   0.0000   0.0000   0.0000   0.0000

          k = 0.0000-0.3030 0.4041 ( 10918 PWs)   bands (ev):

    -6.1023  -6.0865  -3.9896  -3.9812  -3.9116  -3.7428  -3.3578  -3.3310
    -3.2479  -3.2434  -3.1104  -3.0041   0.7805   0.9749   2.2870   2.5850
     3.5336   3.6116   7.3823   7.5948   9.2991   9.4180   9.4790   9.6300
    10.6962  10.8234  12.3958  12.4313  13.8680  14.0049

     occupation numbers 
     1.0000   1.0000   1.0000   1.0000   1.0000   1.0000   1.0000   1.0000
     1.0000   1.0000   1.0000   1.0000   1.0000   1.0000   1.0000   1.0000
     1.0000   1.0000   0.0000   0.0000   0.0000   0.0000   0.0000   0.0000
     0.0000   0.0000   0.0000   0.0000   0.0000   0.0000

          k = 0.5051 0.1010 0.0000 ( 10895 PWs)   bands (ev):

    -6.0740  -6.0659  -3.9850  -3.9685  -3.8658  -3.7763  -3.3175  -3.3039
    -3.2828  -3.2514  -3.0736  -3.0327   0.8115   0.8982   2.6279   2.8167
     3.0390   3.1393   7.2315   7.3513   7.6360   7.6569  10.9165  10.9588
    11.9424  12.0045  12.5002  12.5619  14.9672  14.9773

     occupation numbers 
     1.0000   1.0000   1.0000   1.0000   1.0000   1.0000   1.0000   1.0000
     1.0000   1.0000   1.0000   1.0000   1.0000   1.0000   1.0000   1.0000
     1.0000   1.0000   0.0000   0.0000   0.0000   0.0000   0.0000   0.0000
     0.0000   0.0000   0.0000   0.0000   0.0000   0.0000

          k =-0.1515-0.5556 0.6566 ( 10886 PWs)   bands (ev):

    -6.0429  -6.0293  -3.9820  -3.9589  -3.8716  -3.7282  -3.3177  -3.3044
    -3.2728  -3.2388  -3.0185  -2.9455   0.5621   0.6967   2.3803   2.6414
     2.8950   3.0139   7.3297   7.4484   7.9086   7.9589  10.7673  10.8248
    12.0892  12.1358  12.8958  13.0650  15.1590  15.2710

     occupation numbers 
     1.0000   1.0000   1.0000   1.0000   1.0000   1.0000   1.0000   1.0000
     1.0000   1.0000   1.0000   1.0000   1.0000   1.0000   1.0000   1.0000
     1.0000   1.0000   0.0000   0.0000   0.0000   0.0000   0.0000   0.0000
     0.0000   0.0000   0.0000   0.0000   0.0000   0.0000

          k =-0.1010-0.5051 0.6061 ( 10886 PWs)   bands (ev):

    -6.0252  -6.0065  -3.9797  -3.9499  -3.8852  -3.6929  -3.3199  -3.3121
    -3.2591  -3.2317  -2.9743  -2.8717   0.4045   0.5910   2.1116   2.4044
     2.8947   2.9813   7.3825   7.4901   8.4396   8.5736  10.6619  10.7640
    11.8611  11.9196  12.6594  12.9057  14.8159  14.8622

     occupation numbers 
     1.0000   1.0000   1.0000   1.0000   1.0000   1.0000   1.0000   1.0000
     1.0000   1.0000   1.0000   1.0000   1.0000   1.0000   1.0000   1.0000
     1.0000   1.0000   0.0000   0.0000   0.0000   0.0000   0.0000   0.0000
     0.0000   0.0000   0.0000   0.0000   0.0000   0.0000

          k =-0.0505-0.4546 0.5556 ( 10890 PWs)   bands (ev):

    -6.0234  -6.0017  -3.9786  -3.9454  -3.9007  -3.6771  -3.3264  -3.3183
    -3.2484  -3.2300  -2.9628  -2.8398   0.3635   0.5962   1.9078   2.2342
     2.9865   3.0585   7.4480   7.5675   8.9679   9.1877  10.6112  10.7562
    11.4937  11.5857  12.1212  12.3504  14.0463  14.0697

     occupation numbers 
     1.0000   1.0000   1.0000   1.0000   1.0000   1.0000   1.0000   1.0000
     1.0000   1.0000   1.0000   1.0000   1.0000   1.0000   1.0000   1.0000
     1.0000   1.0000   0.0000   0.0000   0.0000   0.0000   0.0000   0.0000
     0.0000   0.0000   0.0000   0.0000   0.0000   0.0000

          k = 0.0000-0.4041 0.5051 ( 10893 PWs)   bands (ev):

    -6.0376  -6.0156  -3.9797  -3.9534  -3.9074  -3.6816  -3.3376  -3.3219
    -3.2428  -3.2323  -2.9911  -2.8603   0.4216   0.6708   1.8760   2.2172
     3.1456   3.2172   7.5054   7.6546   9.2643   9.5141  10.2410  10.3438
    11.6048  11.6965  11.8407  11.9031  13.4690  13.4849

     occupation numbers 
     1.0000   1.0000   1.0000   1.0000   1.0000   1.0000   1.0000   1.0000
     1.0000   1.0000   1.0000   1.0000   1.0000   1.0000   1.0000   1.0000
     1.0000   1.0000   0.0000   0.0000   0.0000   0.0000   0.0000   0.0000
     0.0000   0.0000   0.0000   0.0000   0.0000   0.0000

          k =-0.1010-0.6061 0.7071 ( 10875 PWs)   bands (ev):

    -6.0205  -6.0106  -3.9765  -3.9610  -3.8364  -3.7359  -3.3112  -3.2862
    -3.2772  -3.2382  -2.9777  -2.9257   0.4560   0.5446   2.4508   2.6212
     2.8480   2.9116   7.1792   7.2779   7.4453   7.4509  11.6668  11.6980
    12.6332  12.7309  12.9151  13.2112  15.2699  15.3307

     occupation numbers 
     1.0000   1.0000   1.0000   1.0000   1.0000   1.0000   1.0000   1.0000
     1.0000   1.0000   1.0000   1.0000   1.0000   1.0000   1.0000   1.0000
     1.0000   1.0000   0.0000   0.0000   0.0000   0.0000   0.0000   0.0000
     0.0000   0.0000   0.0000   0.0000   0.0000   0.0000

          k =-0.0505-0.5556 0.6566 ( 10867 PWs)   bands (ev):

    -6.0095  -5.9940  -3.9757  -3.9527  -3.8571  -3.7021  -3.3138  -3.2899
    -3.2719  -3.2305  -2.9486  -2.8668   0.3534   0.4949   2.2418   2.4877
     2.7673   2.8379   7.2878   7.3806   7.7921   7.8607  11.5435  11.5584
    12.2322  12.3106  13.0307  13.3609  15.0641  15.1083

     occupation numbers 
     1.0000   1.0000   1.0000   1.0000   1.0000   1.0000   1.0000   1.0000
     1.0000   1.0000   1.0000   1.0000   1.0000   1.0000   1.0000   1.0000
     1.0000   1.0000   0.0000   0.0000   0.0000   0.0000   0.0000   0.0000
     0.0000   0.0000   0.0000   0.0000   0.0000   0.0000

          k = 0.0000-0.5051 0.6061 ( 10878 PWs)   bands (ev):

    -6.0107  -5.9908  -3.9762  -3.9445  -3.8834  -3.6813  -3.3173  -3.3051
    -3.2591  -3.2283  -2.9433  -2.8355   0.3352   0.5353   2.0045   2.3014
     2.8319   2.8993   7.3662   7.4621   8.4077   8.5482  11.3267  11.3990
    11.5082  11.6343  12.6821  12.9563  14.4581  14.4896

     occupation numbers 
     1.0000   1.0000   1.0000   1.0000   1.0000   1.0000   1.0000   1.0000
     1.0000   1.0000   1.0000   1.0000   1.0000   1.0000   1.0000   1.0000
     1.0000   1.0000   0.0000   0.0000   0.0000   0.0000   0.0000   0.0000
     0.0000   0.0000   0.0000   0.0000   0.0000   0.0000

          k =-0.7071 0.1010 0.0000 ( 10874 PWs)   bands (ev):

    -6.0018  -5.9912  -3.9735  -3.9584  -3.8259  -3.7220  -3.3095  -3.2843
    -3.2710  -3.2332  -2.9346  -2.8795   0.3251   0.4145   2.3908   2.5504
     2.7947   2.8233   7.1747   7.2982   7.3220   7.3507  12.1999  12.3697
    12.5303  12.6631  13.2499  13.5904  15.2287  15.2974

     occupation numbers 
     1.0000   1.0000   1.0000   1.0000   1.0000   1.0000   1.0000   1.0000
     1.0000   1.0000   1.0000   1.0000   1.0000   1.0000   1.0000   1.0000
     1.0000   1.0000   0.0000   0.0000   0.0000   0.0000   0.0000   0.0000
     0.0000   0.0000   0.0000   0.0000   0.0000   0.0000

          k = 0.4041 0.2020 0.0000 ( 10894 PWs)   bands (ev):

    -6.1333  -6.1222  -3.9977  -3.9780  -3.9157  -3.7889  -3.3524  -3.3333
    -3.2646  -3.2544  -3.1482  -3.0827   1.0564   1.2040   2.6201   2.8974
     3.4363   3.5718   7.3715   7.6163   8.3969   8.4937   9.7601   9.8454
    10.9179  11.0419  12.2439  12.2804  14.5211  14.6253

     occupation numbers 
     1.0000   1.0000   1.0000   1.0000   1.0000   1.0000   1.0000   1.0000
     1.0000   1.0000   1.0000   1.0000   1.0000   1.0000   1.0000   1.0000
     1.0000   1.0000   0.0000   0.0000   0.0000   0.0000   0.0000   0.0000
     0.0000   0.0000   0.0000   0.0000   0.0000   0.0000

          k =-0.2525-0.4546 0.6566 ( 10897 PWs)   bands (ev):

    -6.0877  -6.0721  -3.9898  -3.9726  -3.9042  -3.7375  -3.3466  -3.3284
    -3.2533  -3.2439  -3.0853  -2.9907   0.7185   0.8918   2.3611   2.6571
     3.2708   3.4015   7.5016   7.7429   8.7543   8.8288   9.6357   9.7560
    11.2123  11.3495  12.5262  12.5891  14.3087  14.4366

     occupation numbers 
     1.0000   1.0000   1.0000   1.0000   1.0000   1.0000   1.0000   1.0000
     1.0000   1.0000   1.0000   1.0000   1.0000   1.0000   1.0000   1.0000
     1.0000   1.0000   0.0000   0.0000   0.0000   0.0000   0.0000   0.0000
     0.0000   0.0000   0.0000   0.0000   0.0000   0.0000

          k =-0.2020-0.4041 0.6061 ( 10901 PWs)   bands (ev):

    -6.0569  -6.0380  -3.9843  -3.9698  -3.8954  -3.7027  -3.3450  -3.3271
    -3.2444  -3.2369  -3.0221  -2.9103   0.4678   0.6518   2.2215   2.5213
     3.1474   3.2677   7.5392   7.7596   8.9751   9.0271   9.8699  10.0072
    11.3743  11.5290  12.4049  12.5448  14.1895  14.2776

     occupation numbers 
     1.0000   1.0000   1.0000   1.0000   1.0000   1.0000   1.0000   1.0000
     1.0000   1.0000   1.0000   1.0000   1.0000   1.0000   1.0000   1.0000
     1.0000   1.0000   0.0000   0.0000   0.0000   0.0000   0.0000   0.0000
     0.0000   0.0000   0.0000   0.0000   0.0000   0.0000

          k =-0.1515-0.3536 0.5556 ( 10888 PWs)   bands (ev):

    -6.0461  -6.0260  -3.9823  -3.9691  -3.8921  -3.6906  -3.3448  -3.3269
    -3.2412  -3.2345  -2.9946  -2.8775   0.3740   0.5607   2.1790   2.4788
     3.1020   3.2170   7.5456   7.7590   9.0056   9.0336  10.1076  10.2689
    11.5517  11.7253  11.9959  12.1142  14.5677  14.5937

     occupation numbers 
     1.0000   1.0000   1.0000   1.0000   1.0000   1.0000   1.0000   1.0000
     1.0000   1.0000   1.0000   1.0000   1.0000   1.0000   1.0000   1.0000
     1.0000   1.0000   0.0000   0.0000   0.0000   0.0000   0.0000   0.0000
     0.0000   0.0000   0.0000   0.0000   0.0000   0.0000

          k =-0.2020-0.5051 0.7071 ( 10896 PWs)   bands (ev):

    -6.0667  -6.0517  -3.9851  -3.9632  -3.8941  -3.7325  -3.3263  -3.3205
    -3.2656  -3.2418  -3.0577  -2.9736   0.6770   0.8392   2.3595   2.6717
     2.9902   3.1597   7.5732   7.8392   8.1689   8.2372  10.0012  10.0900
    11.8928  11.9968  12.5564  12.5906  14.7737  14.8628

     occupation numbers 
     1.0000   1.0000   1.0000   1.0000   1.0000   1.0000   1.0000   1.0000
     1.0000   1.0000   1.0000   1.0000   1.0000   1.0000   1.0000   1.0000
     1.0000   1.0000   0.0000   0.0000   0.0000   0.0000   0.0000   0.0000
     0.0000   0.0000   0.0000   0.0000   0.0000   0.0000

          k =-0.1515-0.4546 0.6566 ( 10892 PWs)   bands (ev):

    -6.0392  -6.0198  -3.9785  -3.9565  -3.8970  -3.6958  -3.3272  -3.3176
    -3.2554  -3.2350  -3.0008  -2.8930   0.4782   0.6772   2.1416   2.4761
     2.8623   3.0123   7.7139   7.9557   8.5950   8.6656   9.8776  10.0047
    11.9472  12.0245  12.4452  12.6863  14.5315  14.5947

     occupation numbers 
     1.0000   1.0000   1.0000   1.0000   1.0000   1.0000   1.0000   1.0000
     1.0000   1.0000   1.0000   1.0000   1.0000   1.0000   1.0000   1.0000
     1.0000   1.0000   0.0000   0.0000   0.0000   0.0000   0.0000   0.0000
     0.0000   0.0000   0.0000   0.0000   0.0000   0.0000

          k =-0.1010-0.4041 0.6061 ( 10895 PWs)   bands (ev):

    -6.0271  -6.0050  -3.9748  -3.9526  -3.9023  -3.6769  -3.3301  -3.3175
    -3.2472  -3.2327  -2.9680  -2.8463   0.3806   0.6067   1.9981   2.3406
     2.8413   2.9639   7.7748   8.0063   8.9637   9.0948   9.9494  10.0947
    11.4809  11.5856  12.3340  12.5721  14.7666  14.8069

     occupation numbers 
     1.0000   1.0000   1.0000   1.0000   1.0000   1.0000   1.0000   1.0000
     1.0000   1.0000   1.0000   1.0000   1.0000   1.0000   1.0000   1.0000
     1.0000   1.0000   0.0000   0.0000   0.0000   0.0000   0.0000   0.0000
     0.0000   0.0000   0.0000   0.0000   0.0000   0.0000

          k =-0.0505-0.3536 0.5556 ( 10896 PWs)   bands (ev):

    -6.0322  -6.0099  -3.9746  -3.9553  -3.9057  -3.6783  -3.3339  -3.3190
    -3.2445  -3.2339  -2.9789  -2.8535   0.4058   0.6421   1.9586   2.3044
     2.9206   3.0393   7.7979   8.0492   9.1316   9.2204   9.8206   9.9008
    11.5437  11.6601  12.1611  12.3895  14.1373  14.1810

     occupation numbers 
     1.0000   1.0000   1.0000   1.0000   1.0000   1.0000   1.0000   1.0000
     1.0000   1.0000   1.0000   1.0000   1.0000   1.0000   1.0000   1.0000
     1.0000   1.0000   0.0000   0.0000   0.0000   0.0000   0.0000   0.0000
     0.0000   0.0000   0.0000   0.0000   0.0000   0.0000

          k = 0.0000-0.3030 0.5051 ( 10901 PWs)   bands (ev):

    -6.0536  -6.0337  -3.9792  -3.9639  -3.9055  -3.6996  -3.3389  -3.3223
    -3.2479  -3.2374  -3.0269  -2.9095   0.5334   0.7526   2.0722   2.4053
     3.0772   3.2043   7.7353   8.0123   9.0485   9.0977   9.4929   9.6199
    11.7855  11.9247  12.2342  12.2524  13.8692  13.9090

     occupation numbers 
     1.0000   1.0000   1.0000   1.0000   1.0000   1.0000   1.0000   1.0000
     1.0000   1.0000   1.0000   1.0000   1.0000   1.0000   1.0000   1.0000
     1.0000   1.0000   0.0000   0.0000   0.0000   0.0000   0.0000   0.0000
     0.0000   0.0000   0.0000   0.0000   0.0000   0.0000

          k =-0.1010-0.5051 0.7071 ( 10875 PWs)   bands (ev):

    -6.0221  -6.0041  -3.9757  -3.9528  -3.8795  -3.6965  -3.3176  -3.3021
    -3.2665  -3.2322  -2.9727  -2.8778   0.4227   0.5952   2.2137   2.5522
     2.6740   2.8336   7.6159   7.8617   8.0079   8.0450  10.6118  10.6813
    12.1327  12.2163  12.8813  13.1992  14.9136  14.9671

     occupation numbers 
     1.0000   1.0000   1.0000   1.0000   1.0000   1.0000   1.0000   1.0000
     1.0000   1.0000   1.0000   1.0000   1.0000   1.0000   1.0000   1.0000
     1.0000   1.0000   0.0000   0.0000   0.0000   0.0000   0.0000   0.0000
     0.0000   0.0000   0.0000   0.0000   0.0000   0.0000

          k =-0.0505-0.4546 0.6566 ( 10881 PWs)   bands (ev):

    -6.0130  -5.9913  -3.9714  -3.9459  -3.8951  -3.6748  -3.3202  -3.3057
    -3.2570  -3.2301  -2.9450  -2.8317   0.3563   0.5719   2.0384   2.3834
     2.6459   2.7477   7.7672   7.9758   8.5101   8.6071  10.4591  10.5696
    11.3863  11.4524  13.0675  13.3761  14.9999  15.0690

     occupation numbers 
     1.0000   1.0000   1.0000   1.0000   1.0000   1.0000   1.0000   1.0000
     1.0000   1.0000   1.0000   1.0000   1.0000   1.0000   1.0000   1.0000
     1.0000   1.0000   0.0000   0.0000   0.0000   0.0000   0.0000   0.0000
     0.0000   0.0000   0.0000   0.0000   0.0000   0.0000

          k = 0.0000-0.4041 0.6061 ( 10869 PWs)   bands (ev):

    -6.0166  -5.9934  -3.9708  -3.9436  -3.9081  -3.6685  -3.3254  -3.3120
    -3.2486  -3.2314  -2.9480  -2.8233   0.3604   0.6071   1.9101   2.2658
     2.7396   2.8424   7.8331   8.0526   9.0042   9.1925  10.1410  10.2498
    11.0618  11.1274  12.7858  13.0588  14.4041  14.4717

     occupation numbers 
     1.0000   1.0000   1.0000   1.0000   1.0000   1.0000   1.0000   1.0000
     1.0000   1.0000   1.0000   1.0000   1.0000   1.0000   1.0000   1.0000
     1.0000   1.0000   0.0000   0.0000   0.0000   0.0000   0.0000   0.0000
     0.0000   0.0000   0.0000   0.0000   0.0000   0.0000

          k =-0.7071 0.2020-0.0000 ( 10872 PWs)   bands (ev):

    -6.0065  -5.9875  -3.9722  -3.9491  -3.8743  -3.6844  -3.3156  -3.2940
    -3.2670  -3.2287  -2.9366  -2.8387   0.3317   0.5080   2.1746   2.4871
     2.6345   2.6579   7.6193   7.8638   7.9350   7.9696  11.2794  11.3655
    11.4890  11.6290  13.3778  13.7534  15.2445  15.3698

     occupation numbers 
     1.0000   1.0000   1.0000   1.0000   1.0000   1.0000   1.0000   1.0000
     1.0000   1.0000   1.0000   1.0000   1.0000   1.0000   1.0000   1.0000
     1.0000   1.0000   0.0000   0.0000   0.0000   0.0000   0.0000   0.0000
     0.0000   0.0000   0.0000   0.0000   0.0000   0.0000

          k =-0.1010-0.4041 0.7071 ( 10880 PWs)   bands (ev):

    -6.0207  -5.9981  -3.9694  -3.9494  -3.9057  -3.6732  -3.3256  -3.3113
    -3.2511  -3.2327  -2.9589  -2.8384   0.3910   0.6259   1.9961   2.3717
     2.6600   2.8031   8.0012   8.3470   8.8681   8.8788   9.7383   9.8810
    11.3719  11.4498  12.8568  13.1427  14.5698  14.6446

     occupation numbers 
     1.0000   1.0000   1.0000   1.0000   1.0000   1.0000   1.0000   1.0000
     1.0000   1.0000   1.0000   1.0000   1.0000   1.0000   1.0000   1.0000
     1.0000   1.0000   0.0000   0.0000   0.0000   0.0000   0.0000   0.0000
     0.0000   0.0000   0.0000   0.0000   0.0000   0.0000

          k =-0.0505-0.3536 0.6566 ( 10868 PWs)   bands (ev):

    -6.0143  -5.9904  -3.9660  -3.9451  -3.9108  -3.6651  -3.3254  -3.3091
    -3.2488  -3.2326  -2.9420  -2.8175   0.3596   0.6077   1.9549   2.3443
     2.5865   2.7043   8.0826   8.4299   9.0657   9.1533   9.7530   9.8959
    10.8977  10.9857  13.0891  13.3919  14.9775  15.0622

     occupation numbers 
     1.0000   1.0000   1.0000   1.0000   1.0000   1.0000   1.0000   1.0000
     1.0000   1.0000   1.0000   1.0000   1.0000   1.0000   1.0000   1.0000
     1.0000   1.0000   0.0000   0.0000   0.0000   0.0000   0.0000   0.0000
     0.0000   0.0000   0.0000   0.0000   0.0000   0.0000

          k =-0.7071 0.3030 0.0000 ( 10866 PWs)   bands (ev):

    -6.0092  -5.9855  -3.9651  -3.9434  -3.9072  -3.6644  -3.3223  -3.3043
    -3.2530  -3.2313  -2.9327  -2.8119   0.3460   0.5857   2.0108   2.4494
     2.5078   2.5225   8.0898   8.4559   8.8003   8.8023  10.1038  10.2426
    10.8339  10.8355  13.4504  13.8366  15.2678  15.3965

     occupation numbers 
     1.0000   1.0000   1.0000   1.0000   1.0000   1.0000   1.0000   1.0000
     1.0000   1.0000   1.0000   1.0000   1.0000   1.0000   1.0000   1.0000
     1.0000   1.0000   0.0000   0.0000   0.0000   0.0000   0.0000   0.0000
     0.0000   0.0000   0.0000   0.0000   0.0000   0.0000

     the Fermi energy is     4.7760 ev
     (compare with:     4.6455 eV, computed in scf)

     Writing all to output data dir /home/User/opencode_workspace/DFT/calculations/cdte/production_dos_soc/out/pwscf.save/ :
     XML data file, pseudopotentials, collected wavefunctions

     init_run     :     23.03s CPU     59.28s WALL (       1 calls)
     electrons    :   7591.06s CPU   8999.39s WALL (       1 calls)

     Called by init_run:
     wfcinit      :      0.00s CPU      0.00s WALL (       1 calls)
     wfcinit:atom :      0.92s CPU      1.02s WALL (     104 calls)
     wfcinit:wfcr :    142.42s CPU    161.65s WALL (     104 calls)
     potinit      :      5.55s CPU     11.40s WALL (       1 calls)
     hinit0       :     10.32s CPU     21.08s WALL (       1 calls)

     Called by electrons:
     c_bands      :   7589.36s CPU   8997.39s WALL (       1 calls)
     v_of_rho     :      1.82s CPU      3.80s WALL (       1 calls)
     v_h          :      0.49s CPU      1.00s WALL (       1 calls)
     v_xc         :      1.33s CPU      2.80s WALL (       1 calls)
     newd         :      0.54s CPU     13.41s WALL (       1 calls)

     Called by c_bands:
     init_us_2    :      0.92s CPU      1.23s WALL (     104 calls)
     cegterg      :   7417.87s CPU   8801.23s WALL (     508 calls)

     Called by sum_band:

     Called by *egterg:
     cdiaghg      :    184.85s CPU    208.76s WALL (    9551 calls)
     cegterg:over :    658.01s CPU    758.58s WALL (    9447 calls)
     cegterg:upda :    106.51s CPU    112.13s WALL (    9447 calls)
     cegterg:last :    242.06s CPU    251.33s WALL (    4340 calls)
     h_psi        :   5895.18s CPU   7119.43s WALL (   10059 calls)
     s_psi        :    106.05s CPU    112.74s WALL (   10059 calls)
     g_psi        :     30.03s CPU     31.79s WALL (    9447 calls)

     Called by h_psi:
     h_psi:calbec :    311.30s CPU    373.96s WALL (   10059 calls)
     vloc_psi     :   5503.71s CPU   6658.71s WALL (   10059 calls)
                                        0.00s GPU  (   10059 calls)
     add_vuspsi   :     71.28s CPU     77.55s WALL (   10059 calls)

     General routines
     calbec       :    310.97s CPU    373.62s WALL (   10059 calls)
     fft          :      2.11s CPU      4.46s WALL (      19 calls)
     ffts         :      0.81s CPU      1.62s WALL (       4 calls)
     fftw         :   5358.23s CPU   6493.78s WALL (  538428 calls)
     interpolate  :      1.27s CPU      2.60s WALL (       4 calls)
     davcio       :      4.79s CPU      8.69s WALL (     208 calls)

     Parallel routines

     PWSCF        :      2h 9m CPU      2h35m WALL


   This run was terminated on:   9:27:49  23Sep2026            

=------------------------------------------------------------------------------=
   JOB DONE.
=------------------------------------------------------------------------------=
