
     Program PWSCF v.7.5 starts on 22Sep2026 at 19: 0:24 

     This program is part of the open-source Quantum ESPRESSO suite
     for quantum simulation of materials; please cite
         "P. Giannozzi et al., J. Phys.:Condens. Matter 21 395502 (2009);
         "P. Giannozzi et al., J. Phys.:Condens. Matter 29 465901 (2017);
         "P. Giannozzi et al., J. Chem. Phys. 152 154105 (2020);
          URL http://www.quantum-espresso.org", 
     in publications or presentations arising from this work. More details at
     http://www.quantum-espresso.org/quote

     Parallel version (MPI & OpenMP), running on       6 processor cores
     Number of MPI processes:                 6
     Threads/MPI process:                     1

     MPI processes distributed on     1 nodes
     3231 MiB available memory on the printing compute node when the environment starts

     Reading input from pw.in

     Current dimensions of program PWSCF are:
     Max number of different atomic species (ntypx) = 10
     Max number of k-points (npk) =  40000
     Max angular momentum in pseudopotentials (lmaxx) =  4
     file Cd.pbe-n-rrkjus_psl.1.0.0.UPF: wavefunction(s)  4D renormalized
     file Te.pbe-n-rrkjus_psl.1.0.0.UPF: wavefunction(s)  5S renormalized
     Message from routine setup:
     using ibrav=0 with symmetry is DISCOURAGED, use correct ibrav instead

     R & G space division:  proc/nbgrp/npool/nimage =       6
     Subspace diagonalization in iterative solution of the eigenvalue problem:
     a serial algorithm will be used


     Parallelization info
     --------------------
     sticks:   dense  smooth     PW     G-vecs:    dense   smooth      PW
     Min         258     173     51                 6754     3686     587
     Max         260     174     53                 6756     3689     588
     Sum        1555    1039    313                40533    22123    3527

     Using Slab Decomposition



     bravais-lattice index     =            0
     lattice parameter (alat)  =       8.6615  a.u.
     unit-cell volume          =     459.4769 (a.u.)^3
     number of atoms/cell      =            2
     number of atomic types    =            2
     number of electrons       =        18.00
     number of Kohn-Sham states=            9
     kinetic-energy cutoff     =      50.0000  Ry
     charge density cutoff     =     300.0000  Ry
     scf convergence threshold =      1.0E-10
     mixing beta               =       0.3000
     number of iterations used =            8  plain     mixing
     Exchange-correlation= PBE
                           (   1   4   3   4   0   0   0)

     celldm(1)=   8.661496  celldm(2)=   0.000000  celldm(3)=   0.000000
     celldm(4)=   0.000000  celldm(5)=   0.000000  celldm(6)=   0.000000

     crystal axes: (cart. coord. in units of alat)
               a(1) = (   0.000000   0.707107   0.707107 )  
               a(2) = (   0.707107   0.000000   0.707107 )  
               a(3) = (   0.707107   0.707107   0.000000 )  

     reciprocal axes: (cart. coord. in units 2 pi/alat)
               b(1) = ( -0.707107  0.707107  0.707107 )  
               b(2) = (  0.707107 -0.707107  0.707107 )  
               b(3) = (  0.707107  0.707107 -0.707107 )  


     PseudoPot. # 1 for Cd read from file:
     /home/User/opencode_workspace/DFT/pseudopotentials/Cd.pbe-n-rrkjus_psl.1.0.0.UPF
     MD5 check sum: a744746c89d2344a134ead0d8ab94e7a
     Pseudo is Ultrasoft + core correction, Zval = 12.0
     Generated using &quot;atomic&quot; code by A. Dal Corso  v.6.3
     Using radial grid of 1239 points,  6 beta functions with: 
                l(1) =   0
                l(2) =   0
                l(3) =   1
                l(4) =   1
                l(5) =   2
                l(6) =   2
     Q(r) pseudized with 0 coefficients 


     PseudoPot. # 2 for Te read from file:
     /home/User/opencode_workspace/DFT/pseudopotentials/Te.pbe-n-rrkjus_psl.1.0.0.UPF
     MD5 check sum: 203a1e86ef55f0cd9de2762a27c58f54
     Pseudo is Ultrasoft + core correction, Zval =  6.0
     Generated using &quot;atomic&quot; code by A. Dal Corso  v.6.3
     Using radial grid of 1245 points,  6 beta functions with: 
                l(1) =   0
                l(2) =   0
                l(3) =   1
                l(4) =   1
                l(5) =   2
                l(6) =   2
     Q(r) pseudized with 0 coefficients 


     atomic species   valence    mass     pseudopotential
     Cd               12.00   112.41400     Cd( 1.00)
     Te                6.00   127.60000     Te( 1.00)

     24 Sym. Ops. (no inversion) found


                                    s                        frac. trans.

      isym =  1     identity                                     

 cryst.   s( 1) = (     1          0          0      )
                  (     0          1          0      )
                  (     0          0          1      )

 cart.    s( 1) = (  1.0000000  0.0000000  0.0000000 )
                  (  0.0000000  1.0000000  0.0000000 )
                  (  0.0000000  0.0000000  1.0000000 )


      isym =  2     180 deg rotation - cart. axis [0,0,1]        

 cryst.   s( 2) = (     0          1         -1      )
                  (     1          0         -1      )
                  (     0          0         -1      )

 cart.    s( 2) = ( -1.0000000  0.0000000  0.0000000 )
                  (  0.0000000 -1.0000000  0.0000000 )
                  (  0.0000000  0.0000000  1.0000000 )


      isym =  3     180 deg rotation - cart. axis [0,1,0]        

 cryst.   s( 3) = (     0         -1          1      )
                  (     0         -1          0      )
                  (     1         -1          0      )

 cart.    s( 3) = ( -1.0000000  0.0000000  0.0000000 )
                  (  0.0000000  1.0000000  0.0000000 )
                  (  0.0000000  0.0000000 -1.0000000 )


      isym =  4     180 deg rotation - cart. axis [1,0,0]        

 cryst.   s( 4) = (    -1          0          0      )
                  (    -1          0          1      )
                  (    -1          1          0      )

 cart.    s( 4) = (  1.0000000  0.0000000  0.0000000 )
                  (  0.0000000 -1.0000000  0.0000000 )
                  (  0.0000000  0.0000000 -1.0000000 )


      isym =  5     120 deg rotation - cart. axis [-1,-1,-1]     

 cryst.   s( 5) = (     0          0          1      )
                  (     1          0          0      )
                  (     0          1          0      )

 cart.    s( 5) = (  0.0000000  1.0000000  0.0000000 )
                  (  0.0000000  0.0000000  1.0000000 )
                  (  1.0000000  0.0000000  0.0000000 )


      isym =  6     120 deg rotation - cart. axis [-1,1,1]       

 cryst.   s( 6) = (     1         -1          0      )
                  (     0         -1          1      )
                  (     0         -1          0      )

 cart.    s( 6) = (  0.0000000 -1.0000000  0.0000000 )
                  (  0.0000000  0.0000000  1.0000000 )
                  ( -1.0000000  0.0000000  0.0000000 )


      isym =  7     120 deg rotation - cart. axis [1,1,-1]       

 cryst.   s( 7) = (    -1          1          0      )
                  (    -1          0          0      )
                  (    -1          0          1      )

 cart.    s( 7) = (  0.0000000  1.0000000  0.0000000 )
                  (  0.0000000  0.0000000 -1.0000000 )
                  ( -1.0000000  0.0000000  0.0000000 )


      isym =  8     120 deg rotation - cart. axis [1,-1,1]       

 cryst.   s( 8) = (     0          0         -1      )
                  (     0          1         -1      )
                  (     1          0         -1      )

 cart.    s( 8) = (  0.0000000 -1.0000000  0.0000000 )
                  (  0.0000000  0.0000000 -1.0000000 )
                  (  1.0000000  0.0000000  0.0000000 )


      isym =  9     120 deg rotation - cart. axis [1,1,1]        

 cryst.   s( 9) = (     0          1          0      )
                  (     0          0          1      )
                  (     1          0          0      )

 cart.    s( 9) = (  0.0000000  0.0000000  1.0000000 )
                  (  1.0000000  0.0000000  0.0000000 )
                  (  0.0000000  1.0000000  0.0000000 )


      isym = 10     120 deg rotation - cart. axis [-1,1,-1]      

 cryst.   s(10) = (    -1          0          1      )
                  (    -1          1          0      )
                  (    -1          0          0      )

 cart.    s(10) = (  0.0000000  0.0000000  1.0000000 )
                  ( -1.0000000  0.0000000  0.0000000 )
                  (  0.0000000 -1.0000000  0.0000000 )


      isym = 11     120 deg rotation - cart. axis [1,-1,-1]      

 cryst.   s(11) = (     1          0         -1      )
                  (     0          0         -1      )
                  (     0          1         -1      )

 cart.    s(11) = (  0.0000000  0.0000000 -1.0000000 )
                  ( -1.0000000  0.0000000  0.0000000 )
                  (  0.0000000  1.0000000  0.0000000 )


      isym = 12     120 deg rotation - cart. axis [-1,-1,1]      

 cryst.   s(12) = (     0         -1          0      )
                  (     1         -1          0      )
                  (     0         -1          1      )

 cart.    s(12) = (  0.0000000  0.0000000 -1.0000000 )
                  (  1.0000000  0.0000000  0.0000000 )
                  (  0.0000000 -1.0000000  0.0000000 )


      isym = 13     inv. 180 deg rotation - cart. axis [1,1,0]   

 cryst.   s(13) = (     1          0         -1      )
                  (     0          1         -1      )
                  (     0          0         -1      )

 cart.    s(13) = (  0.0000000 -1.0000000  0.0000000 )
                  ( -1.0000000  0.0000000  0.0000000 )
                  (  0.0000000  0.0000000  1.0000000 )


      isym = 14     inv. 180 deg rotation - cart. axis [1,-1,0]  

 cryst.   s(14) = (     0          1          0      )
                  (     1          0          0      )
                  (     0          0          1      )

 cart.    s(14) = (  0.0000000  1.0000000  0.0000000 )
                  (  1.0000000  0.0000000  0.0000000 )
                  (  0.0000000  0.0000000  1.0000000 )


      isym = 15     inv.  90 deg rotation - cart. axis [0,0,-1]  

 cryst.   s(15) = (     0         -1          0      )
                  (     0         -1          1      )
                  (     1         -1          0      )

 cart.    s(15) = (  0.0000000 -1.0000000  0.0000000 )
                  (  1.0000000  0.0000000  0.0000000 )
                  (  0.0000000  0.0000000 -1.0000000 )


      isym = 16     inv.  90 deg rotation - cart. axis [0,0,1]   

 cryst.   s(16) = (    -1          0          1      )
                  (    -1          0          0      )
                  (    -1          1          0      )

 cart.    s(16) = (  0.0000000  1.0000000  0.0000000 )
                  ( -1.0000000  0.0000000  0.0000000 )
                  (  0.0000000  0.0000000 -1.0000000 )


      isym = 17     inv. 180 deg rotation - cart. axis [1,0,1]   

 cryst.   s(17) = (     1         -1          0      )
                  (     0         -1          0      )
                  (     0         -1          1      )

 cart.    s(17) = (  0.0000000  0.0000000 -1.0000000 )
                  (  0.0000000  1.0000000  0.0000000 )
                  ( -1.0000000  0.0000000  0.0000000 )


      isym = 18     inv. 180 deg rotation - cart. axis [-1,0,1]  

 cryst.   s(18) = (     0          0          1      )
                  (     0          1          0      )
                  (     1          0          0      )

 cart.    s(18) = (  0.0000000  0.0000000  1.0000000 )
                  (  0.0000000  1.0000000  0.0000000 )
                  (  1.0000000  0.0000000  0.0000000 )


      isym = 19     inv.  90 deg rotation - cart. axis [0,1,0]   

 cryst.   s(19) = (     0          0         -1      )
                  (     1          0         -1      )
                  (     0          1         -1      )

 cart.    s(19) = (  0.0000000  0.0000000 -1.0000000 )
                  (  0.0000000 -1.0000000  0.0000000 )
                  (  1.0000000  0.0000000  0.0000000 )


      isym = 20     inv.  90 deg rotation - cart. axis [0,-1,0]  

 cryst.   s(20) = (    -1          1          0      )
                  (    -1          0          1      )
                  (    -1          0          0      )

 cart.    s(20) = (  0.0000000  0.0000000  1.0000000 )
                  (  0.0000000 -1.0000000  0.0000000 )
                  ( -1.0000000  0.0000000  0.0000000 )


      isym = 21     inv. 180 deg rotation - cart. axis [0,1,1]   

 cryst.   s(21) = (    -1          0          0      )
                  (    -1          1          0      )
                  (    -1          0          1      )

 cart.    s(21) = (  1.0000000  0.0000000  0.0000000 )
                  (  0.0000000  0.0000000 -1.0000000 )
                  (  0.0000000 -1.0000000  0.0000000 )


      isym = 22     inv. 180 deg rotation - cart. axis [0,1,-1]  

 cryst.   s(22) = (     1          0          0      )
                  (     0          0          1      )
                  (     0          1          0      )

 cart.    s(22) = (  1.0000000  0.0000000  0.0000000 )
                  (  0.0000000  0.0000000  1.0000000 )
                  (  0.0000000  1.0000000  0.0000000 )


      isym = 23     inv.  90 deg rotation - cart. axis [-1,0,0]  

 cryst.   s(23) = (     0          1         -1      )
                  (     0          0         -1      )
                  (     1          0         -1      )

 cart.    s(23) = ( -1.0000000  0.0000000  0.0000000 )
                  (  0.0000000  0.0000000 -1.0000000 )
                  (  0.0000000  1.0000000  0.0000000 )


      isym = 24     inv.  90 deg rotation - cart. axis [1,0,0]   

 cryst.   s(24) = (     0         -1          1      )
                  (     1         -1          0      )
                  (     0         -1          0      )

 cart.    s(24) = ( -1.0000000  0.0000000  0.0000000 )
                  (  0.0000000  0.0000000  1.0000000 )
                  (  0.0000000 -1.0000000  0.0000000 )


   Cartesian axes

     site n.     atom                  positions (alat units)
         1        Cd     tau(   1) = (   0.0000000   0.0000000   0.0000000  )
         2        Te     tau(   2) = (   0.3535534   0.3535534   0.3535534  )

   Crystallographic axes

     site n.     atom                  positions (cryst. coord.)
         1        Cd     tau(   1) = (  0.0000000  0.0000000  0.0000000  )
         2        Te     tau(   2) = (  0.2500000  0.2500000  0.2500000  )

     number of k points=    29
                       cart. coord. in units 2pi/alat
        k(    1) = (   0.0000000   0.0000000   0.0000000), wk =   0.0039062
        k(    2) = (   0.0883883   0.0883883  -0.0883883), wk =   0.0312500
        k(    3) = (   0.1767767   0.1767767  -0.1767767), wk =   0.0312500
        k(    4) = (   0.2651650   0.2651650  -0.2651650), wk =   0.0312500
        k(    5) = (  -0.3535534  -0.3535534   0.3535534), wk =   0.0156250
        k(    6) = (   0.1767767   0.0000000   0.0000000), wk =   0.0234375
        k(    7) = (   0.2651650   0.0883883  -0.0883883), wk =   0.0937500
        k(    8) = (   0.3535534   0.1767767  -0.1767767), wk =   0.0937500
        k(    9) = (  -0.2651650  -0.4419417   0.4419417), wk =   0.0937500
        k(   10) = (  -0.1767767  -0.3535534   0.3535534), wk =   0.0937500
        k(   11) = (  -0.0883883  -0.2651650   0.2651650), wk =   0.0937500
        k(   12) = (   0.0000000  -0.1767767   0.1767767), wk =   0.0468750
        k(   13) = (   0.3535534   0.0000000   0.0000000), wk =   0.0234375
        k(   14) = (   0.4419417   0.0883883  -0.0883883), wk =   0.0937500
        k(   15) = (  -0.1767767  -0.5303301   0.5303301), wk =   0.0937500
        k(   16) = (  -0.0883883  -0.4419417   0.4419417), wk =   0.0937500
        k(   17) = (   0.0000000  -0.3535534   0.3535534), wk =   0.0468750
        k(   18) = (   0.5303301   0.0000000   0.0000000), wk =   0.0234375
        k(   19) = (  -0.0883883  -0.6187184   0.6187184), wk =   0.0937500
        k(   20) = (   0.0000000  -0.5303301   0.5303301), wk =   0.0468750
        k(   21) = (  -0.7071068   0.0000000   0.0000000), wk =   0.0117188
        k(   22) = (   0.3535534   0.1767767   0.0000000), wk =   0.0937500
        k(   23) = (  -0.2651650  -0.4419417   0.6187184), wk =   0.1875000
        k(   24) = (  -0.1767767  -0.3535534   0.5303301), wk =   0.0937500
        k(   25) = (  -0.1767767  -0.5303301   0.7071068), wk =   0.0937500
        k(   26) = (  -0.0883883  -0.4419417   0.6187184), wk =   0.1875000
        k(   27) = (   0.0000000  -0.3535534   0.5303301), wk =   0.0937500
        k(   28) = (  -0.7071068   0.1767767   0.0000000), wk =   0.0468750
        k(   29) = (  -0.7071068   0.3535534   0.0000000), wk =   0.0234375

                       cryst. coord.
        k(    1) = (   0.0000000   0.0000000   0.0000000), wk =   0.0039062
        k(    2) = (   0.0000000   0.0000000   0.1250000), wk =   0.0312500
        k(    3) = (   0.0000000   0.0000000   0.2500000), wk =   0.0312500
        k(    4) = (   0.0000000   0.0000000   0.3750000), wk =   0.0312500
        k(    5) = (   0.0000000   0.0000000  -0.5000000), wk =   0.0156250
        k(    6) = (   0.0000000   0.1250000   0.1250000), wk =   0.0234375
        k(    7) = (   0.0000000   0.1250000   0.2500000), wk =   0.0937500
        k(    8) = (   0.0000000   0.1250000   0.3750000), wk =   0.0937500
        k(    9) = (   0.0000000   0.1250000  -0.5000000), wk =   0.0937500
        k(   10) = (   0.0000000   0.1250000  -0.3750000), wk =   0.0937500
        k(   11) = (   0.0000000   0.1250000  -0.2500000), wk =   0.0937500
        k(   12) = (   0.0000000   0.1250000  -0.1250000), wk =   0.0468750
        k(   13) = (   0.0000000   0.2500000   0.2500000), wk =   0.0234375
        k(   14) = (   0.0000000   0.2500000   0.3750000), wk =   0.0937500
        k(   15) = (   0.0000000   0.2500000  -0.5000000), wk =   0.0937500
        k(   16) = (   0.0000000   0.2500000  -0.3750000), wk =   0.0937500
        k(   17) = (   0.0000000   0.2500000  -0.2500000), wk =   0.0468750
        k(   18) = (   0.0000000   0.3750000   0.3750000), wk =   0.0234375
        k(   19) = (   0.0000000   0.3750000  -0.5000000), wk =   0.0937500
        k(   20) = (   0.0000000   0.3750000  -0.3750000), wk =   0.0468750
        k(   21) = (   0.0000000  -0.5000000  -0.5000000), wk =   0.0117188
        k(   22) = (   0.1250000   0.2500000   0.3750000), wk =   0.0937500
        k(   23) = (   0.1250000   0.2500000  -0.5000000), wk =   0.1875000
        k(   24) = (   0.1250000   0.2500000  -0.3750000), wk =   0.0937500
        k(   25) = (   0.1250000   0.3750000  -0.5000000), wk =   0.0937500
        k(   26) = (   0.1250000   0.3750000  -0.3750000), wk =   0.1875000
        k(   27) = (   0.1250000   0.3750000  -0.2500000), wk =   0.0937500
        k(   28) = (   0.1250000  -0.5000000  -0.3750000), wk =   0.0468750
        k(   29) = (   0.2500000  -0.5000000  -0.2500000), wk =   0.0234375

     Dense  grid:    40533 G-vectors     FFT dimensions: (  48,  48,  48)

     Smooth grid:    22123 G-vectors     FFT dimensions: (  40,  40,  40)

     Dynamical RAM for                 wfc:       0.06 MB

     Dynamical RAM for     wfc (w. buffer):       1.88 MB

     Dynamical RAM for           str. fact:       0.21 MB

     Dynamical RAM for           local pot:       0.00 MB

     Dynamical RAM for          nlocal pot:       0.25 MB

     Dynamical RAM for                qrad:       2.78 MB

     Dynamical RAM for          rho,v,vnew:       0.73 MB

     Dynamical RAM for               rhoin:       0.24 MB

     Dynamical RAM for            rho*nmix:       1.65 MB

     Dynamical RAM for           G-vectors:       0.41 MB

     Dynamical RAM for          h,s,v(r/c):       0.01 MB

     Dynamical RAM for          <psi|beta>:       0.00 MB

     Dynamical RAM for                 psi:       0.13 MB

     Dynamical RAM for                hpsi:       0.13 MB

     Dynamical RAM for                spsi:       0.13 MB

     Dynamical RAM for      wfcinit/wfcrot:       0.13 MB

     Dynamical RAM for           addusdens:      19.28 MB

     Estimated static dynamical RAM per process >       7.52 MB

     Estimated max dynamical RAM per process >      28.45 MB

     Estimated total dynamical RAM >     170.70 MB

     Initial potential from superposition of free atoms

     starting charge      17.9949, renormalised to      18.0000
     Starting wfcs are   13 randomized atomic wfcs

     total cpu time spent up to now is        0.9 secs

     per-process dynamical memory:    35.1 Mb

     Self-consistent Calculation

     iteration #  1     ecut=    50.00 Ry     beta= 0.30
     Davidson diagonalization with overlap

---- Real-time Memory Report at c_bands before calling an iterative solver
            77 MiB given to the printing process from OS
            34 MiB allocation reported by mallinfo(arena+hblkhd)
          3043 MiB available memory on the node where the printing process lives
------------------
     ethr =  1.00E-02,  avg # of iterations =  1.1

     Threshold (ethr) on eigenvalues was too large:
     Diagonalizing with lowered threshold

     Davidson diagonalization with overlap

---- Real-time Memory Report at c_bands before calling an iterative solver
            79 MiB given to the printing process from OS
            36 MiB allocation reported by mallinfo(arena+hblkhd)
          3041 MiB available memory on the node where the printing process lives
------------------
     ethr =  2.05E-04,  avg # of iterations =  5.0

     total cpu time spent up to now is        1.6 secs

     total energy              =    -128.97264374 Ry
     estimated scf accuracy    <       0.04138683 Ry

     iteration #  2     ecut=    50.00 Ry     beta= 0.30
     Davidson diagonalization with overlap

---- Real-time Memory Report at c_bands before calling an iterative solver
            80 MiB given to the printing process from OS
            37 MiB allocation reported by mallinfo(arena+hblkhd)
          3040 MiB available memory on the node where the printing process lives
------------------
     ethr =  2.30E-04,  avg # of iterations =  1.8

     total cpu time spent up to now is        1.9 secs

     total energy              =    -128.97087037 Ry
     estimated scf accuracy    <       0.01244875 Ry

     iteration #  3     ecut=    50.00 Ry     beta= 0.30
     Davidson diagonalization with overlap

---- Real-time Memory Report at c_bands before calling an iterative solver
            80 MiB given to the printing process from OS
            37 MiB allocation reported by mallinfo(arena+hblkhd)
          3040 MiB available memory on the node where the printing process lives
------------------
     ethr =  6.92E-05,  avg # of iterations =  2.1

     total cpu time spent up to now is        2.2 secs

     total energy              =    -128.97420131 Ry
     estimated scf accuracy    <       0.00135478 Ry

     iteration #  4     ecut=    50.00 Ry     beta= 0.30
     Davidson diagonalization with overlap

---- Real-time Memory Report at c_bands before calling an iterative solver
            80 MiB given to the printing process from OS
            37 MiB allocation reported by mallinfo(arena+hblkhd)
          3037 MiB available memory on the node where the printing process lives
------------------
     ethr =  7.53E-06,  avg # of iterations =  4.9

     total cpu time spent up to now is        2.7 secs

     total energy              =    -128.97488429 Ry
     estimated scf accuracy    <       0.00021107 Ry

     iteration #  5     ecut=    50.00 Ry     beta= 0.30
     Davidson diagonalization with overlap

---- Real-time Memory Report at c_bands before calling an iterative solver
            81 MiB given to the printing process from OS
            37 MiB allocation reported by mallinfo(arena+hblkhd)
          3037 MiB available memory on the node where the printing process lives
------------------
     ethr =  1.17E-06,  avg # of iterations =  5.2

     total cpu time spent up to now is        3.1 secs

     total energy              =    -128.97496759 Ry
     estimated scf accuracy    <       0.00007536 Ry

     iteration #  6     ecut=    50.00 Ry     beta= 0.30
     Davidson diagonalization with overlap

---- Real-time Memory Report at c_bands before calling an iterative solver
            81 MiB given to the printing process from OS
            37 MiB allocation reported by mallinfo(arena+hblkhd)
          3037 MiB available memory on the node where the printing process lives
------------------
     ethr =  4.19E-07,  avg # of iterations =  5.6

     total cpu time spent up to now is        3.6 secs

     total energy              =    -128.97499032 Ry
     estimated scf accuracy    <       0.00009573 Ry

     iteration #  7     ecut=    50.00 Ry     beta= 0.30
     Davidson diagonalization with overlap

---- Real-time Memory Report at c_bands before calling an iterative solver
            81 MiB given to the printing process from OS
            37 MiB allocation reported by mallinfo(arena+hblkhd)
          3036 MiB available memory on the node where the printing process lives
------------------
     ethr =  4.19E-07,  avg # of iterations =  2.0

     total cpu time spent up to now is        4.0 secs

     total energy              =    -128.97498309 Ry
     estimated scf accuracy    <       0.00002090 Ry

     iteration #  8     ecut=    50.00 Ry     beta= 0.30
     Davidson diagonalization with overlap

---- Real-time Memory Report at c_bands before calling an iterative solver
            81 MiB given to the printing process from OS
            37 MiB allocation reported by mallinfo(arena+hblkhd)
          3036 MiB available memory on the node where the printing process lives
------------------
     ethr =  1.16E-07,  avg # of iterations =  4.6

     total cpu time spent up to now is        4.5 secs

     total energy              =    -128.97499704 Ry
     estimated scf accuracy    <       0.00000598 Ry

     iteration #  9     ecut=    50.00 Ry     beta= 0.30
     Davidson diagonalization with overlap

---- Real-time Memory Report at c_bands before calling an iterative solver
            81 MiB given to the printing process from OS
            37 MiB allocation reported by mallinfo(arena+hblkhd)
          3036 MiB available memory on the node where the printing process lives
------------------
     ethr =  3.32E-08,  avg # of iterations =  4.1

     total cpu time spent up to now is        4.9 secs

     total energy              =    -128.97499794 Ry
     estimated scf accuracy    <       0.00000417 Ry

     iteration # 10     ecut=    50.00 Ry     beta= 0.30
     Davidson diagonalization with overlap

---- Real-time Memory Report at c_bands before calling an iterative solver
            81 MiB given to the printing process from OS
            37 MiB allocation reported by mallinfo(arena+hblkhd)
          3036 MiB available memory on the node where the printing process lives
------------------
     ethr =  2.31E-08,  avg # of iterations =  2.4

     total cpu time spent up to now is        5.2 secs

     total energy              =    -128.97499896 Ry
     estimated scf accuracy    <       0.00000275 Ry

     iteration # 11     ecut=    50.00 Ry     beta= 0.30
     Davidson diagonalization with overlap

---- Real-time Memory Report at c_bands before calling an iterative solver
            81 MiB given to the printing process from OS
            37 MiB allocation reported by mallinfo(arena+hblkhd)
          3036 MiB available memory on the node where the printing process lives
------------------
     ethr =  1.53E-08,  avg # of iterations =  1.3

     total cpu time spent up to now is        5.6 secs

     total energy              =    -128.97499770 Ry
     estimated scf accuracy    <       0.00000408 Ry

     iteration # 12     ecut=    50.00 Ry     beta= 0.30
     Davidson diagonalization with overlap

---- Real-time Memory Report at c_bands before calling an iterative solver
            81 MiB given to the printing process from OS
            37 MiB allocation reported by mallinfo(arena+hblkhd)
          3036 MiB available memory on the node where the printing process lives
------------------
     ethr =  1.53E-08,  avg # of iterations =  2.0

     total cpu time spent up to now is        5.9 secs

     total energy              =    -128.97499741 Ry
     estimated scf accuracy    <       0.00000178 Ry

     iteration # 13     ecut=    50.00 Ry     beta= 0.30
     Davidson diagonalization with overlap

---- Real-time Memory Report at c_bands before calling an iterative solver
            81 MiB given to the printing process from OS
            37 MiB allocation reported by mallinfo(arena+hblkhd)
          3036 MiB available memory on the node where the printing process lives
------------------
     ethr =  9.88E-09,  avg # of iterations =  2.9

     total cpu time spent up to now is        6.3 secs

     total energy              =    -128.97499749 Ry
     estimated scf accuracy    <       0.00000047 Ry

     iteration # 14     ecut=    50.00 Ry     beta= 0.30
     Davidson diagonalization with overlap

---- Real-time Memory Report at c_bands before calling an iterative solver
            81 MiB given to the printing process from OS
            37 MiB allocation reported by mallinfo(arena+hblkhd)
          3036 MiB available memory on the node where the printing process lives
------------------
     ethr =  2.60E-09,  avg # of iterations =  3.1

     total cpu time spent up to now is        6.7 secs

     total energy              =    -128.97499762 Ry
     estimated scf accuracy    <       0.00000002 Ry

     iteration # 15     ecut=    50.00 Ry     beta= 0.30
     Davidson diagonalization with overlap

---- Real-time Memory Report at c_bands before calling an iterative solver
            81 MiB given to the printing process from OS
            37 MiB allocation reported by mallinfo(arena+hblkhd)
          3036 MiB available memory on the node where the printing process lives
------------------
     ethr =  1.05E-10,  avg # of iterations =  6.8

     total cpu time spent up to now is        7.2 secs

     total energy              =    -128.97499765 Ry
     estimated scf accuracy    <       0.00000001 Ry

     iteration # 16     ecut=    50.00 Ry     beta= 0.30
     Davidson diagonalization with overlap

---- Real-time Memory Report at c_bands before calling an iterative solver
            81 MiB given to the printing process from OS
            37 MiB allocation reported by mallinfo(arena+hblkhd)
          3036 MiB available memory on the node where the printing process lives
------------------
     ethr =  5.82E-11,  avg # of iterations =  2.1

     total cpu time spent up to now is        7.6 secs

     total energy              =    -128.97499766 Ry
     estimated scf accuracy    <          9.8E-09 Ry

     iteration # 17     ecut=    50.00 Ry     beta= 0.30
     Davidson diagonalization with overlap

---- Real-time Memory Report at c_bands before calling an iterative solver
            81 MiB given to the printing process from OS
            37 MiB allocation reported by mallinfo(arena+hblkhd)
          3036 MiB available memory on the node where the printing process lives
------------------
     ethr =  5.47E-11,  avg # of iterations =  3.0

     total cpu time spent up to now is        8.0 secs

     total energy              =    -128.97499766 Ry
     estimated scf accuracy    <       0.00000004 Ry

     iteration # 18     ecut=    50.00 Ry     beta= 0.30
     Davidson diagonalization with overlap

---- Real-time Memory Report at c_bands before calling an iterative solver
            81 MiB given to the printing process from OS
            37 MiB allocation reported by mallinfo(arena+hblkhd)
          3036 MiB available memory on the node where the printing process lives
------------------
     ethr =  5.47E-11,  avg # of iterations =  3.6

     total cpu time spent up to now is        8.3 secs

     total energy              =    -128.97499764 Ry
     estimated scf accuracy    <       0.00000004 Ry

     iteration # 19     ecut=    50.00 Ry     beta= 0.30
     Davidson diagonalization with overlap

---- Real-time Memory Report at c_bands before calling an iterative solver
            81 MiB given to the printing process from OS
            37 MiB allocation reported by mallinfo(arena+hblkhd)
          3036 MiB available memory on the node where the printing process lives
------------------
     ethr =  5.47E-11,  avg # of iterations =  7.1

     total cpu time spent up to now is        8.9 secs

     total energy              =    -128.97499765 Ry
     estimated scf accuracy    <       0.00000002 Ry

     iteration # 20     ecut=    50.00 Ry     beta= 0.30
     Davidson diagonalization with overlap

---- Real-time Memory Report at c_bands before calling an iterative solver
            81 MiB given to the printing process from OS
            37 MiB allocation reported by mallinfo(arena+hblkhd)
          3036 MiB available memory on the node where the printing process lives
------------------
     ethr =  5.47E-11,  avg # of iterations =  6.0

     total cpu time spent up to now is        9.4 secs

     total energy              =    -128.97499765 Ry
     estimated scf accuracy    <       0.00000002 Ry

     iteration # 21     ecut=    50.00 Ry     beta= 0.30
     Davidson diagonalization with overlap

---- Real-time Memory Report at c_bands before calling an iterative solver
            81 MiB given to the printing process from OS
            37 MiB allocation reported by mallinfo(arena+hblkhd)
          3036 MiB available memory on the node where the printing process lives
------------------
     ethr =  5.47E-11,  avg # of iterations =  2.7

     total cpu time spent up to now is        9.8 secs

     total energy              =    -128.97499765 Ry
     estimated scf accuracy    <          5.8E-09 Ry

     iteration # 22     ecut=    50.00 Ry     beta= 0.30
     Davidson diagonalization with overlap

---- Real-time Memory Report at c_bands before calling an iterative solver
            81 MiB given to the printing process from OS
            37 MiB allocation reported by mallinfo(arena+hblkhd)
          3036 MiB available memory on the node where the printing process lives
------------------
     ethr =  3.22E-11,  avg # of iterations =  4.2

     total cpu time spent up to now is       10.2 secs

     total energy              =    -128.97499765 Ry
     estimated scf accuracy    <          3.9E-10 Ry

     iteration # 23     ecut=    50.00 Ry     beta= 0.30
     Davidson diagonalization with overlap

---- Real-time Memory Report at c_bands before calling an iterative solver
            81 MiB given to the printing process from OS
            37 MiB allocation reported by mallinfo(arena+hblkhd)
          3036 MiB available memory on the node where the printing process lives
------------------
     ethr =  2.15E-12,  avg # of iterations =  5.3

     total cpu time spent up to now is       10.6 secs

     total energy              =    -128.97499765 Ry
     estimated scf accuracy    <          6.1E-10 Ry

     iteration # 24     ecut=    50.00 Ry     beta= 0.30
     Davidson diagonalization with overlap

---- Real-time Memory Report at c_bands before calling an iterative solver
            81 MiB given to the printing process from OS
            37 MiB allocation reported by mallinfo(arena+hblkhd)
          3036 MiB available memory on the node where the printing process lives
------------------
     ethr =  2.15E-12,  avg # of iterations =  2.4

     total cpu time spent up to now is       11.0 secs

     total energy              =    -128.97499765 Ry
     estimated scf accuracy    <          1.4E-10 Ry

     iteration # 25     ecut=    50.00 Ry     beta= 0.30
     Davidson diagonalization with overlap

---- Real-time Memory Report at c_bands before calling an iterative solver
            81 MiB given to the printing process from OS
            37 MiB allocation reported by mallinfo(arena+hblkhd)
          3036 MiB available memory on the node where the printing process lives
------------------
     ethr =  7.73E-13,  avg # of iterations =  6.0

     total cpu time spent up to now is       11.4 secs

     total energy              =    -128.97499765 Ry
     estimated scf accuracy    <          5.9E-10 Ry

     iteration # 26     ecut=    50.00 Ry     beta= 0.30
     Davidson diagonalization with overlap

---- Real-time Memory Report at c_bands before calling an iterative solver
            81 MiB given to the printing process from OS
            37 MiB allocation reported by mallinfo(arena+hblkhd)
          3036 MiB available memory on the node where the printing process lives
------------------
     ethr =  7.73E-13,  avg # of iterations =  1.3

     total cpu time spent up to now is       11.7 secs

     total energy              =    -128.97499765 Ry
     estimated scf accuracy    <          7.4E-10 Ry

     iteration # 27     ecut=    50.00 Ry     beta= 0.30
     Davidson diagonalization with overlap

---- Real-time Memory Report at c_bands before calling an iterative solver
            81 MiB given to the printing process from OS
            37 MiB allocation reported by mallinfo(arena+hblkhd)
          3036 MiB available memory on the node where the printing process lives
------------------
     ethr =  7.73E-13,  avg # of iterations =  1.1

     total cpu time spent up to now is       12.0 secs

     total energy              =    -128.97499765 Ry
     estimated scf accuracy    <          7.3E-10 Ry

     iteration # 28     ecut=    50.00 Ry     beta= 0.30
     Davidson diagonalization with overlap

---- Real-time Memory Report at c_bands before calling an iterative solver
            81 MiB given to the printing process from OS
            37 MiB allocation reported by mallinfo(arena+hblkhd)
          3036 MiB available memory on the node where the printing process lives
------------------
     ethr =  7.73E-13,  avg # of iterations =  1.5

     total cpu time spent up to now is       12.4 secs

     total energy              =    -128.97499765 Ry
     estimated scf accuracy    <          7.4E-10 Ry

     iteration # 29     ecut=    50.00 Ry     beta= 0.30
     Davidson diagonalization with overlap

---- Real-time Memory Report at c_bands before calling an iterative solver
            81 MiB given to the printing process from OS
            37 MiB allocation reported by mallinfo(arena+hblkhd)
          3036 MiB available memory on the node where the printing process lives
------------------
     ethr =  7.73E-13,  avg # of iterations =  1.8

     total cpu time spent up to now is       12.7 secs

     total energy              =    -128.97499765 Ry
     estimated scf accuracy    <          9.9E-10 Ry

     iteration # 30     ecut=    50.00 Ry     beta= 0.30
     Davidson diagonalization with overlap

---- Real-time Memory Report at c_bands before calling an iterative solver
            81 MiB given to the printing process from OS
            37 MiB allocation reported by mallinfo(arena+hblkhd)
          3036 MiB available memory on the node where the printing process lives
------------------
     ethr =  7.73E-13,  avg # of iterations =  1.6

     total cpu time spent up to now is       13.0 secs

     total energy              =    -128.97499765 Ry
     estimated scf accuracy    <          1.2E-09 Ry

     iteration # 31     ecut=    50.00 Ry     beta= 0.30
     Davidson diagonalization with overlap

---- Real-time Memory Report at c_bands before calling an iterative solver
            81 MiB given to the printing process from OS
            37 MiB allocation reported by mallinfo(arena+hblkhd)
          3036 MiB available memory on the node where the printing process lives
------------------
     ethr =  7.73E-13,  avg # of iterations =  2.2

     total cpu time spent up to now is       13.3 secs

     total energy              =    -128.97499765 Ry
     estimated scf accuracy    <          1.4E-09 Ry

     iteration # 32     ecut=    50.00 Ry     beta= 0.30
     Davidson diagonalization with overlap

---- Real-time Memory Report at c_bands before calling an iterative solver
            81 MiB given to the printing process from OS
            37 MiB allocation reported by mallinfo(arena+hblkhd)
          3036 MiB available memory on the node where the printing process lives
------------------
     ethr =  7.73E-13,  avg # of iterations =  1.1

     total cpu time spent up to now is       13.6 secs

     total energy              =    -128.97499765 Ry
     estimated scf accuracy    <          1.3E-09 Ry

     iteration # 33     ecut=    50.00 Ry     beta= 0.30
     Davidson diagonalization with overlap

---- Real-time Memory Report at c_bands before calling an iterative solver
            81 MiB given to the printing process from OS
            37 MiB allocation reported by mallinfo(arena+hblkhd)
          3036 MiB available memory on the node where the printing process lives
------------------
     ethr =  7.73E-13,  avg # of iterations =  3.4

     total cpu time spent up to now is       14.1 secs

     total energy              =    -128.97499765 Ry
     estimated scf accuracy    <          4.1E-10 Ry

     iteration # 34     ecut=    50.00 Ry     beta= 0.30
     Davidson diagonalization with overlap

---- Real-time Memory Report at c_bands before calling an iterative solver
            81 MiB given to the printing process from OS
            37 MiB allocation reported by mallinfo(arena+hblkhd)
          3036 MiB available memory on the node where the printing process lives
------------------
     ethr =  7.73E-13,  avg # of iterations =  5.9

     total cpu time spent up to now is       14.7 secs

     End of self-consistent calculation

          k = 0.0000 0.0000 0.0000 (  2733 PWs)   bands (ev):

    -6.0527  -3.1503  -3.1503  -3.1503  -2.8908  -2.8908   5.1245   5.1245
     5.1245

     occupation numbers 
     1.0000   1.0000   1.0000   1.0000   1.0000   1.0000   1.0000   1.0000
     1.0000

          k = 0.0884 0.0884-0.0884 (  2725 PWs)   bands (ev):

    -5.9943  -3.1391  -3.1391  -3.1048  -2.8915  -2.8915   3.8999   4.9867
     4.9867

     occupation numbers 
     1.0000   1.0000   1.0000   1.0000   1.0000   1.0000   1.0000   1.0000
     1.0000

          k = 0.1768 0.1768-0.1768 (  2743 PWs)   bands (ev):

    -5.8527  -3.1145  -3.1145  -2.9519  -2.8907  -2.8907   2.3964   4.6952
     4.6952

     occupation numbers 
     1.0000   1.0000   1.0000   1.0000   1.0000   1.0000   1.0000   1.0000
     1.0000

          k = 0.2652 0.2652-0.2652 (  2740 PWs)   bands (ev):

    -5.7123  -3.0940  -3.0940  -2.8848  -2.8848  -2.6984   1.1956   4.4440
     4.4440

     occupation numbers 
     1.0000   1.0000   1.0000   1.0000   1.0000   1.0000   1.0000   1.0000
     1.0000

          k =-0.3536-0.3536 0.3536 (  2764 PWs)   bands (ev):

    -5.6552  -3.0873  -3.0873  -2.8808  -2.8808  -2.5385   0.6970   4.3486
     4.3486

     occupation numbers 
     1.0000   1.0000   1.0000   1.0000   1.0000   1.0000   1.0000   1.0000
     1.0000

          k = 0.1768 0.0000 0.0000 (  2734 PWs)   bands (ev):

    -5.9750  -3.1284  -3.1284  -3.1043  -2.8972  -2.8860   3.8714   4.7488
     4.7488

     occupation numbers 
     1.0000   1.0000   1.0000   1.0000   1.0000   1.0000   1.0000   1.0000
     1.0000

          k = 0.2652 0.0884-0.0884 (  2746 PWs)   bands (ev):

    -5.8614  -3.1101  -3.1024  -2.9983  -2.8931  -2.8819   2.7465   4.4158
     4.4464

     occupation numbers 
     1.0000   1.0000   1.0000   1.0000   1.0000   1.0000   1.0000   1.0000
     1.0000

          k = 0.3536 0.1768-0.1768 (  2742 PWs)   bands (ev):

    -5.7214  -3.0905  -3.0796  -2.9135  -2.8779  -2.7429   1.5485   4.0615
     4.1854

     occupation numbers 
     1.0000   1.0000   1.0000   1.0000   1.0000   1.0000   1.0000   1.0000
     1.0000

          k =-0.2652-0.4419 0.4419 (  2751 PWs)   bands (ev):

    -5.6379  -3.0793  -3.0716  -2.8956  -2.8790  -2.5248   0.8259   3.7591
     4.1547

     occupation numbers 
     1.0000   1.0000   1.0000   1.0000   1.0000   1.0000   1.0000   1.0000
     1.0000

          k =-0.1768-0.3536 0.3536 (  2741 PWs)   bands (ev):

    -5.6566  -3.0790  -3.0786  -2.8889  -2.8877  -2.5786   0.9892   3.6654
     4.3327

     occupation numbers 
     1.0000   1.0000   1.0000   1.0000   1.0000   1.0000   1.0000   1.0000
     1.0000

          k =-0.0884-0.2652 0.2652 (  2742 PWs)   bands (ev):

    -5.7676  -3.1004  -3.0901  -2.9005  -2.8981  -2.8179   1.9160   3.8430
     4.6472

     occupation numbers 
     1.0000   1.0000   1.0000   1.0000   1.0000   1.0000   1.0000   1.0000
     1.0000

          k = 0.0000-0.1768 0.1768 (  2745 PWs)   bands (ev):

    -5.9083  -3.1267  -3.1142  -3.0305  -2.8978  -2.8845   3.0793   4.3465
     4.9362

     occupation numbers 
     1.0000   1.0000   1.0000   1.0000   1.0000   1.0000   1.0000   1.0000
     1.0000

          k = 0.3536 0.0000 0.0000 (  2706 PWs)   bands (ev):

    -5.7879  -3.0723  -3.0723  -2.9914  -2.8742  -2.8618   2.4563   4.0367
     4.0367

     occupation numbers 
     1.0000   1.0000   1.0000   1.0000   1.0000   1.0000   1.0000   1.0000
     1.0000

          k = 0.4419 0.0884-0.0884 (  2751 PWs)   bands (ev):

    -5.6771  -3.0554  -3.0451  -2.9581  -2.8700  -2.7091   1.6791   3.5796
     3.7772

     occupation numbers 
     1.0000   1.0000   1.0000   1.0000   1.0000   1.0000   1.0000   1.0000
     1.0000

          k =-0.1768-0.5303 0.5303 (  2734 PWs)   bands (ev):

    -5.5955  -3.0533  -3.0344  -2.9309  -2.8732  -2.4846   1.0444   3.0438
     3.7456

     occupation numbers 
     1.0000   1.0000   1.0000   1.0000   1.0000   1.0000   1.0000   1.0000
     1.0000

          k =-0.0884-0.4419 0.4419 (  2732 PWs)   bands (ev):

    -5.5881  -3.0577  -3.0434  -2.9074  -2.8866  -2.4341   0.9664   2.7558
     3.9530

     occupation numbers 
     1.0000   1.0000   1.0000   1.0000   1.0000   1.0000   1.0000   1.0000
     1.0000

          k = 0.0000-0.3536 0.3536 (  2742 PWs)   bands (ev):

    -5.6580  -3.0699  -3.0683  -2.8980  -2.8972  -2.6160   1.4105   2.9757
     4.3170

     occupation numbers 
     1.0000   1.0000   1.0000   1.0000   1.0000   1.0000   1.0000   1.0000
     1.0000

          k = 0.5303 0.0000 0.0000 (  2742 PWs)   bands (ev):

    -5.6062  -3.0122  -3.0122  -2.9859  -2.8630  -2.5945   1.3114   3.4687
     3.4687

     occupation numbers 
     1.0000   1.0000   1.0000   1.0000   1.0000   1.0000   1.0000   1.0000
     1.0000

          k =-0.0884-0.6187 0.6187 (  2744 PWs)   bands (ev):

    -5.5523  -3.0175  -2.9991  -2.9665  -2.8639  -2.4302   0.9546   3.0412
     3.3929

     occupation numbers 
     1.0000   1.0000   1.0000   1.0000   1.0000   1.0000   1.0000   1.0000
     1.0000

          k = 0.0000-0.5303 0.5303 (  2726 PWs)   bands (ev):

    -5.5455  -3.0363  -3.0107  -2.9362  -2.8754  -2.3551   0.9148   2.5665
     3.5781

     occupation numbers 
     1.0000   1.0000   1.0000   1.0000   1.0000   1.0000   1.0000   1.0000
     1.0000

          k =-0.7071 0.0000 0.0000 (  2778 PWs)   bands (ev):

    -5.5342  -2.9957  -2.9860  -2.9860  -2.8584  -2.4012   0.8151   3.2586
     3.2586

     occupation numbers 
     1.0000   1.0000   1.0000   1.0000   1.0000   1.0000   1.0000   1.0000
     1.0000

          k = 0.3536 0.1768 0.0000 (  2748 PWs)   bands (ev):

    -5.7492  -3.0862  -3.0743  -2.9386  -2.8804  -2.8050   2.0366   3.6331
     4.3052

     occupation numbers 
     1.0000   1.0000   1.0000   1.0000   1.0000   1.0000   1.0000   1.0000
     1.0000

          k =-0.2652-0.4419 0.6187 (  2739 PWs)   bands (ev):

    -5.6395  -3.0665  -3.0564  -2.9178  -2.8798  -2.5807   1.2528   3.1780
     4.0043

     occupation numbers 
     1.0000   1.0000   1.0000   1.0000   1.0000   1.0000   1.0000   1.0000
     1.0000

          k =-0.1768-0.3536 0.5303 (  2752 PWs)   bands (ev):

    -5.5952  -3.0616  -3.0491  -2.9055  -2.8842  -2.4435   0.8854   3.0566
     3.8563

     occupation numbers 
     1.0000   1.0000   1.0000   1.0000   1.0000   1.0000   1.0000   1.0000
     1.0000

          k =-0.1768-0.5303 0.7071 (  2739 PWs)   bands (ev):

    -5.5958  -3.0336  -3.0289  -2.9501  -2.8700  -2.5258   1.2162   3.1251
     3.4930

     occupation numbers 
     1.0000   1.0000   1.0000   1.0000   1.0000   1.0000   1.0000   1.0000
     1.0000

          k =-0.0884-0.4419 0.6187 (  2741 PWs)   bands (ev):

    -5.5530  -3.0366  -3.0217  -2.9280  -2.8801  -2.3713   0.9566   2.7156
     3.3742

     occupation numbers 
     1.0000   1.0000   1.0000   1.0000   1.0000   1.0000   1.0000   1.0000
     1.0000

          k = 0.0000-0.3536 0.5303 (  2736 PWs)   bands (ev):

    -5.5707  -3.0466  -3.0335  -2.9144  -2.8876  -2.4061   1.0337   2.6273
     3.6196

     occupation numbers 
     1.0000   1.0000   1.0000   1.0000   1.0000   1.0000   1.0000   1.0000
     1.0000

          k =-0.7071 0.1768 0.0000 (  2730 PWs)   bands (ev):

    -5.5350  -3.0143  -3.0072  -2.9515  -2.8687  -2.3586   0.8717   3.0215
     3.0816

     occupation numbers 
     1.0000   1.0000   1.0000   1.0000   1.0000   1.0000   1.0000   1.0000
     1.0000

          k =-0.7071 0.3536 0.0000 (  2740 PWs)   bands (ev):

    -5.5358  -3.0267  -3.0216  -2.9194  -2.8890  -2.3182   0.9369   2.7989
     2.9237

     occupation numbers 
     1.0000   1.0000   1.0000   1.0000   1.0000   1.0000   1.0000   1.0000
     1.0000

     highest occupied level (ev):     5.1245

!    total energy              =    -128.97499765 Ry
     estimated scf accuracy    <          2.5E-11 Ry

     The total energy is the sum of the following terms:
     one-electron contribution =     -48.73334547 Ry
     hartree contribution      =      36.05937714 Ry
     xc contribution           =     -39.49980239 Ry
     ewald contribution        =     -76.80122694 Ry

     convergence has been achieved in  34 iterations

     Writing all to output data dir /home/User/opencode_workspace/DFT/calculations/cdte/conv_scf_e50/out/pwscf.save/ :
     XML data file, charge density, pseudopotentials, collected wavefunctions

     init_run     :      0.59s CPU      0.64s WALL (       1 calls)
     electrons    :     11.73s CPU     13.80s WALL (       1 calls)

     Called by init_run:
     wfcinit      :      0.10s CPU      0.12s WALL (       1 calls)
     wfcinit:atom :      0.00s CPU      0.00s WALL (      29 calls)
     wfcinit:wfcr :      0.09s CPU      0.11s WALL (      29 calls)
     potinit      :      0.15s CPU      0.16s WALL (       1 calls)
     hinit0       :      0.27s CPU      0.28s WALL (       1 calls)

     Called by electrons:
     c_bands      :      7.99s CPU      9.74s WALL (      35 calls)
     sum_band     :      2.47s CPU      2.75s WALL (      35 calls)
     v_of_rho     :      0.23s CPU      0.25s WALL (      35 calls)
     v_h          :      0.01s CPU      0.01s WALL (      35 calls)
     v_xc         :      0.22s CPU      0.24s WALL (      35 calls)
     newd         :      1.01s CPU      1.04s WALL (      35 calls)
     mix_rho      :      0.04s CPU      0.05s WALL (      35 calls)

     Called by c_bands:
     init_us_2    :      0.23s CPU      0.27s WALL (    2059 calls)
     cegterg      :      7.50s CPU      9.19s WALL (    1015 calls)

     Called by sum_band:
     sum_band:wei :      0.00s CPU      0.00s WALL (      35 calls)
     sum_band:loo :      1.25s CPU      1.51s WALL (      35 calls)
     sum_band:buf :      0.01s CPU      0.01s WALL (    1015 calls)
     sum_band:ini :      0.11s CPU      0.13s WALL (    1015 calls)
     sum_band:cal :      0.10s CPU      0.12s WALL (    1015 calls)
     sum_band:bec :      0.01s CPU      0.01s WALL (    1015 calls)
     addusdens    :      1.11s CPU      1.12s WALL (      35 calls)
                                        0.00s GPU  (      35 calls)
     addusd:skk   :      0.00s CPU      0.00s WALL (      70 calls)
                                        0.00s GPU  (      70 calls)

     Called by *egterg:
     cdiaghg      :      0.32s CPU      0.37s WALL (    4382 calls)
     cegterg:over :      0.22s CPU      0.26s WALL (    3396 calls)
     cegterg:upda :      0.07s CPU      0.08s WALL (    3396 calls)
     cegterg:last :      0.12s CPU      0.14s WALL (    2556 calls)
     h_psi        :      6.50s CPU      8.00s WALL (    4440 calls)
     s_psi        :      0.11s CPU      0.13s WALL (    4440 calls)
     g_psi        :      0.04s CPU      0.05s WALL (    3396 calls)

     Called by h_psi:
     h_psi:calbec :      0.36s CPU      0.44s WALL (    4440 calls)
     vloc_psi     :      5.95s CPU      7.34s WALL (    4440 calls)
                                        0.00s GPU  (    4440 calls)
     add_vuspsi   :      0.14s CPU      0.17s WALL (    4440 calls)

     General routines
     calbec       :      0.45s CPU      0.55s WALL (    5455 calls)
     fft          :      0.31s CPU      0.33s WALL (     454 calls)
     ffts         :      0.15s CPU      0.15s WALL (      70 calls)
     fftw         :      6.46s CPU      7.96s WALL (   65441 calls)
     interpolate  :      0.15s CPU      0.16s WALL (      35 calls)

     Parallel routines

     PWSCF        :     12.57s CPU     14.72s WALL


   This run was terminated on:  19: 0:38  22Sep2026            

=------------------------------------------------------------------------------=
   JOB DONE.
=------------------------------------------------------------------------------=
