
     Program PWSCF v.7.5 starts on 23Sep2026 at  6:40:22 

     This program is part of the open-source Quantum ESPRESSO suite
     for quantum simulation of materials; please cite
         "P. Giannozzi et al., J. Phys.:Condens. Matter 21 395502 (2009);
         "P. Giannozzi et al., J. Phys.:Condens. Matter 29 465901 (2017);
         "P. Giannozzi et al., J. Chem. Phys. 152 154105 (2020);
          URL http://www.quantum-espresso.org", 
     in publications or presentations arising from this work. More details at
     http://www.quantum-espresso.org/quote

     Parallel version (MPI & OpenMP), running on       6 processor cores
     Number of MPI processes:                 6
     Threads/MPI process:                     1

     MPI processes distributed on     1 nodes
     11365 MiB available memory on the printing compute node when the environment starts

     Reading input from pw.in

     Current dimensions of program PWSCF are:
     Max number of different atomic species (ntypx) = 10
     Max number of k-points (npk) =  40000
     Max angular momentum in pseudopotentials (lmaxx) =  4

     Atomic positions and unit cell read from directory:
     /home/User/opencode_workspace/DFT/calculations/cdte/optics_nc/out/pwscf.save/


     R & G space division:  proc/nbgrp/npool/nimage =       6
     Subspace diagonalization in iterative solution of the eigenvalue problem:
     a serial algorithm will be used


     Parallelization info
     --------------------
     sticks:   dense  smooth     PW     G-vecs:    dense   smooth      PW
     Min         214     214     63                 5137     5137     837
     Max         215     215     64                 5142     5142     841
     Sum        1285    1285    379                30827    30827    5029

     Using Slab Decomposition



     bravais-lattice index     =            0
     lattice parameter (alat)  =       8.8500  a.u.
     unit-cell volume          =     490.1280 (a.u.)^3
     number of atoms/cell      =            2
     number of atomic types    =            2
     number of electrons       =        36.00
     number of Kohn-Sham states=           50
     kinetic-energy cutoff     =      60.0000  Ry
     charge density cutoff     =     240.0000  Ry
     Exchange-correlation= PBE
                           (   1   4   3   4   0   0   0)

     celldm(1)=   8.849964  celldm(2)=   0.000000  celldm(3)=   0.000000
     celldm(4)=   0.000000  celldm(5)=   0.000000  celldm(6)=   0.000000

     crystal axes: (cart. coord. in units of alat)
               a(1) = (   0.000000   0.707107   0.707107 )  
               a(2) = (   0.707107   0.000000   0.707107 )  
               a(3) = (   0.707107   0.707107   0.000000 )  

     reciprocal axes: (cart. coord. in units 2 pi/alat)
               b(1) = ( -0.707107  0.707107  0.707107 )  
               b(2) = (  0.707107 -0.707107  0.707107 )  
               b(3) = (  0.707107  0.707107 -0.707107 )  


     PseudoPot. # 1 for Cd read from file:
     /home/User/opencode_workspace/DFT/pseudopotentials/Cd_ONCV_PBE-1.2.upf
     MD5 check sum: 810a600e5a5ac944c8c8f48f0d721646
     Pseudo is Norm-conserving, Zval = 20.0
     Generated using ONCVPSP code by D. R. Hamann
     Using radial grid of  602 points,  6 beta functions with: 
                l(1) =   0
                l(2) =   0
                l(3) =   1
                l(4) =   1
                l(5) =   2
                l(6) =   2

     PseudoPot. # 2 for Te read from file:
     /home/User/opencode_workspace/DFT/pseudopotentials/Te_ONCV_PBE-1.2.upf
     MD5 check sum: dd4de4dac1e38587f63aaf3700bb29d3
     Pseudo is Norm-conserving, Zval = 16.0
     Generated using ONCVPSP code by D. R. Hamann
     Using radial grid of  602 points,  6 beta functions with: 
                l(1) =   0
                l(2) =   0
                l(3) =   1
                l(4) =   1
                l(5) =   2
                l(6) =   2

     atomic species   valence    mass     pseudopotential
     Cd               20.00   112.41400     Cd( 1.00)
     Te               16.00   127.60000     Te( 1.00)

     No symmetry found


                                    s                        frac. trans.

      isym =  1     identity                                     

 cryst.   s( 1) = (     1          0          0      )
                  (     0          1          0      )
                  (     0          0          1      )

 cart.    s( 1) = (  1.0000000  0.0000000  0.0000000 )
                  (  0.0000000  1.0000000  0.0000000 )
                  (  0.0000000  0.0000000  1.0000000 )


   Cartesian axes

     site n.     atom                  positions (alat units)
         1        Cd     tau(   1) = (   0.0000000   0.0000000   0.0000000  )
         2        Te     tau(   2) = (   0.3535534   0.3535534   0.3535534  )

   Crystallographic axes

     site n.     atom                  positions (cryst. coord.)
         1        Cd     tau(   1) = (  0.0000000  0.0000000  0.0000000  )
         2        Te     tau(   2) = (  0.2500000  0.2500000  0.2500000  )

     number of k points=   216
                       cart. coord. in units 2pi/alat
        k(    1) = (   0.0000000   0.0000000   0.0000000), wk =   0.0092593
        k(    2) = (   0.1178511   0.1178511  -0.1178511), wk =   0.0092593
        k(    3) = (   0.2357023   0.2357023  -0.2357023), wk =   0.0092593
        k(    4) = (  -0.3535534  -0.3535534   0.3535534), wk =   0.0092593
        k(    5) = (  -0.2357023  -0.2357023   0.2357023), wk =   0.0092593
        k(    6) = (  -0.1178511  -0.1178511   0.1178511), wk =   0.0092593
        k(    7) = (   0.1178511  -0.1178511   0.1178511), wk =   0.0092593
        k(    8) = (   0.2357023   0.0000000   0.0000000), wk =   0.0092593
        k(    9) = (   0.3535534   0.1178511  -0.1178511), wk =   0.0092593
        k(   10) = (  -0.2357023  -0.4714045   0.4714045), wk =   0.0092593
        k(   11) = (  -0.1178511  -0.3535534   0.3535534), wk =   0.0092593
        k(   12) = (   0.0000000  -0.2357023   0.2357023), wk =   0.0092593
        k(   13) = (   0.2357023  -0.2357023   0.2357023), wk =   0.0092593
        k(   14) = (   0.3535534  -0.1178511   0.1178511), wk =   0.0092593
        k(   15) = (   0.4714045   0.0000000   0.0000000), wk =   0.0092593
        k(   16) = (  -0.1178511  -0.5892557   0.5892557), wk =   0.0092593
        k(   17) = (  -0.0000000  -0.4714045   0.4714045), wk =   0.0092593
        k(   18) = (   0.1178511  -0.3535534   0.3535534), wk =   0.0092593
        k(   19) = (  -0.3535534   0.3535534  -0.3535534), wk =   0.0092593
        k(   20) = (  -0.2357023   0.4714045  -0.4714045), wk =   0.0092593
        k(   21) = (  -0.1178511   0.5892557  -0.5892557), wk =   0.0092593
        k(   22) = (  -0.7071068   0.0000000   0.0000000), wk =   0.0092593
        k(   23) = (  -0.5892557   0.1178511  -0.1178511), wk =   0.0092593
        k(   24) = (  -0.4714045   0.2357023  -0.2357023), wk =   0.0092593
        k(   25) = (  -0.2357023   0.2357023  -0.2357023), wk =   0.0092593
        k(   26) = (  -0.1178511   0.3535534  -0.3535534), wk =   0.0092593
        k(   27) = (  -0.0000000   0.4714045  -0.4714045), wk =   0.0092593
        k(   28) = (  -0.5892557  -0.1178511   0.1178511), wk =   0.0092593
        k(   29) = (  -0.4714045   0.0000000   0.0000000), wk =   0.0092593
        k(   30) = (  -0.3535534   0.1178511  -0.1178511), wk =   0.0092593
        k(   31) = (  -0.1178511   0.1178511  -0.1178511), wk =   0.0092593
        k(   32) = (   0.0000000   0.2357023  -0.2357023), wk =   0.0092593
        k(   33) = (   0.1178511   0.3535534  -0.3535534), wk =   0.0092593
        k(   34) = (  -0.4714045  -0.2357023   0.2357023), wk =   0.0092593
        k(   35) = (  -0.3535534  -0.1178511   0.1178511), wk =   0.0092593
        k(   36) = (  -0.2357023   0.0000000   0.0000000), wk =   0.0092593
        k(   37) = (  -0.1178511   0.1178511   0.1178511), wk =   0.0092593
        k(   38) = (   0.0000000   0.2357023   0.0000000), wk =   0.0092593
        k(   39) = (   0.1178511   0.3535534  -0.1178511), wk =   0.0092593
        k(   40) = (  -0.4714045  -0.2357023   0.4714045), wk =   0.0092593
        k(   41) = (  -0.3535534  -0.1178511   0.3535534), wk =   0.0092593
        k(   42) = (  -0.2357023   0.0000000   0.2357023), wk =   0.0092593
        k(   43) = (   0.0000000   0.0000000   0.2357023), wk =   0.0092593
        k(   44) = (   0.1178511   0.1178511   0.1178511), wk =   0.0092593
        k(   45) = (   0.2357023   0.2357023   0.0000000), wk =   0.0092593
        k(   46) = (  -0.3535534  -0.3535534   0.5892557), wk =   0.0092593
        k(   47) = (  -0.2357023  -0.2357023   0.4714045), wk =   0.0092593
        k(   48) = (  -0.1178511  -0.1178511   0.3535534), wk =   0.0092593
        k(   49) = (   0.1178511  -0.1178511   0.3535534), wk =   0.0092593
        k(   50) = (   0.2357023   0.0000000   0.2357023), wk =   0.0092593
        k(   51) = (   0.3535534   0.1178511   0.1178511), wk =   0.0092593
        k(   52) = (  -0.2357023  -0.4714045   0.7071068), wk =   0.0092593
        k(   53) = (  -0.1178511  -0.3535534   0.5892557), wk =   0.0092593
        k(   54) = (   0.0000000  -0.2357023   0.4714045), wk =   0.0092593
        k(   55) = (  -0.4714045   0.4714045  -0.2357023), wk =   0.0092593
        k(   56) = (  -0.3535534   0.5892557  -0.3535534), wk =   0.0092593
        k(   57) = (  -0.2357023   0.7071068  -0.4714045), wk =   0.0092593
        k(   58) = (  -0.8249579   0.1178511   0.1178511), wk =   0.0092593
        k(   59) = (  -0.7071068   0.2357023   0.0000000), wk =   0.0092593
        k(   60) = (  -0.5892557   0.3535534  -0.1178511), wk =   0.0092593
        k(   61) = (  -0.3535534   0.3535534  -0.1178511), wk =   0.0092593
        k(   62) = (  -0.2357023   0.4714045  -0.2357023), wk =   0.0092593
        k(   63) = (  -0.1178511   0.5892557  -0.3535534), wk =   0.0092593
        k(   64) = (  -0.7071068   0.0000000   0.2357023), wk =   0.0092593
        k(   65) = (  -0.5892557   0.1178511   0.1178511), wk =   0.0092593
        k(   66) = (  -0.4714045   0.2357023  -0.0000000), wk =   0.0092593
        k(   67) = (  -0.2357023   0.2357023   0.0000000), wk =   0.0092593
        k(   68) = (  -0.1178511   0.3535534  -0.1178511), wk =   0.0092593
        k(   69) = (   0.0000000   0.4714045  -0.2357023), wk =   0.0092593
        k(   70) = (  -0.5892557  -0.1178511   0.3535534), wk =   0.0092593
        k(   71) = (  -0.4714045  -0.0000000   0.2357023), wk =   0.0092593
        k(   72) = (  -0.3535534   0.1178511   0.1178511), wk =   0.0092593
        k(   73) = (  -0.2357023   0.2357023   0.2357023), wk =   0.0092593
        k(   74) = (  -0.1178511   0.3535534   0.1178511), wk =   0.0092593
        k(   75) = (   0.0000000   0.4714045   0.0000000), wk =   0.0092593
        k(   76) = (  -0.5892557  -0.1178511   0.5892557), wk =   0.0092593
        k(   77) = (  -0.4714045  -0.0000000   0.4714045), wk =   0.0092593
        k(   78) = (  -0.3535534   0.1178511   0.3535534), wk =   0.0092593
        k(   79) = (  -0.1178511   0.1178511   0.3535534), wk =   0.0092593
        k(   80) = (   0.0000000   0.2357023   0.2357023), wk =   0.0092593
        k(   81) = (   0.1178511   0.3535534   0.1178511), wk =   0.0092593
        k(   82) = (  -0.4714045  -0.2357023   0.7071068), wk =   0.0092593
        k(   83) = (  -0.3535534  -0.1178511   0.5892557), wk =   0.0092593
        k(   84) = (  -0.2357023   0.0000000   0.4714045), wk =   0.0092593
        k(   85) = (   0.0000000   0.0000000   0.4714045), wk =   0.0092593
        k(   86) = (   0.1178511   0.1178511   0.3535534), wk =   0.0092593
        k(   87) = (   0.2357023   0.2357023   0.2357023), wk =   0.0092593
        k(   88) = (  -0.3535534  -0.3535534   0.8249579), wk =   0.0092593
        k(   89) = (  -0.2357023  -0.2357023   0.7071068), wk =   0.0092593
        k(   90) = (  -0.1178511  -0.1178511   0.5892557), wk =   0.0092593
        k(   91) = (  -0.5892557   0.5892557  -0.1178511), wk =   0.0092593
        k(   92) = (  -0.4714045   0.7071068  -0.2357023), wk =   0.0092593
        k(   93) = (  -0.3535534   0.8249579  -0.3535534), wk =   0.0092593
        k(   94) = (  -0.9428090   0.2357023   0.2357023), wk =   0.0092593
        k(   95) = (  -0.8249579   0.3535534   0.1178511), wk =   0.0092593
        k(   96) = (  -0.7071068   0.4714045  -0.0000000), wk =   0.0092593
        k(   97) = (  -0.4714045   0.4714045  -0.0000000), wk =   0.0092593
        k(   98) = (  -0.3535534   0.5892557  -0.1178511), wk =   0.0092593
        k(   99) = (  -0.2357023   0.7071068  -0.2357023), wk =   0.0092593
        k(  100) = (  -0.8249579   0.1178511   0.3535534), wk =   0.0092593
        k(  101) = (  -0.7071068   0.2357023   0.2357023), wk =   0.0092593
        k(  102) = (  -0.5892557   0.3535534   0.1178511), wk =   0.0092593
        k(  103) = (  -0.3535534   0.3535534   0.1178511), wk =   0.0092593
        k(  104) = (  -0.2357023   0.4714045   0.0000000), wk =   0.0092593
        k(  105) = (  -0.1178511   0.5892557  -0.1178511), wk =   0.0092593
        k(  106) = (  -0.7071068   0.0000000   0.4714045), wk =   0.0092593
        k(  107) = (  -0.5892557   0.1178511   0.3535534), wk =   0.0092593
        k(  108) = (  -0.4714045   0.2357023   0.2357023), wk =   0.0092593
        k(  109) = (   0.3535534  -0.3535534  -0.3535534), wk =   0.0092593
        k(  110) = (   0.4714045  -0.2357023  -0.4714045), wk =   0.0092593
        k(  111) = (   0.5892557  -0.1178511  -0.5892557), wk =   0.0092593
        k(  112) = (   0.0000000  -0.7071068   0.0000000), wk =   0.0092593
        k(  113) = (   0.1178511  -0.5892557  -0.1178511), wk =   0.0092593
        k(  114) = (   0.2357023  -0.4714045  -0.2357023), wk =   0.0092593
        k(  115) = (   0.4714045  -0.4714045  -0.2357023), wk =   0.0092593
        k(  116) = (   0.5892557  -0.3535534  -0.3535534), wk =   0.0092593
        k(  117) = (   0.7071068  -0.2357023  -0.4714045), wk =   0.0092593
        k(  118) = (   0.1178511  -0.8249579   0.1178511), wk =   0.0092593
        k(  119) = (   0.2357023  -0.7071068   0.0000000), wk =   0.0092593
        k(  120) = (   0.3535534  -0.5892557  -0.1178511), wk =   0.0092593
        k(  121) = (   0.5892557  -0.5892557  -0.1178511), wk =   0.0092593
        k(  122) = (   0.7071068  -0.4714045  -0.2357023), wk =   0.0092593
        k(  123) = (   0.8249579  -0.3535534  -0.3535534), wk =   0.0092593
        k(  124) = (   0.2357023  -0.9428090   0.2357023), wk =   0.0092593
        k(  125) = (   0.3535534  -0.8249579   0.1178511), wk =   0.0092593
        k(  126) = (   0.4714045  -0.7071068  -0.0000000), wk =   0.0092593
        k(  127) = (   0.0000000   0.0000000  -0.7071068), wk =   0.0092593
        k(  128) = (   0.1178511   0.1178511  -0.8249579), wk =   0.0092593
        k(  129) = (   0.2357023   0.2357023  -0.9428090), wk =   0.0092593
        k(  130) = (  -0.3535534  -0.3535534  -0.3535534), wk =   0.0092593
        k(  131) = (  -0.2357023  -0.2357023  -0.4714045), wk =   0.0092593
        k(  132) = (  -0.1178511  -0.1178511  -0.5892557), wk =   0.0092593
        k(  133) = (   0.1178511  -0.1178511  -0.5892557), wk =   0.0092593
        k(  134) = (   0.2357023   0.0000000  -0.7071068), wk =   0.0092593
        k(  135) = (   0.3535534   0.1178511  -0.8249579), wk =   0.0092593
        k(  136) = (  -0.2357023  -0.4714045  -0.2357023), wk =   0.0092593
        k(  137) = (  -0.1178511  -0.3535534  -0.3535534), wk =   0.0092593
        k(  138) = (   0.0000000  -0.2357023  -0.4714045), wk =   0.0092593
        k(  139) = (   0.2357023  -0.2357023  -0.4714045), wk =   0.0092593
        k(  140) = (   0.3535534  -0.1178511  -0.5892557), wk =   0.0092593
        k(  141) = (   0.4714045  -0.0000000  -0.7071068), wk =   0.0092593
        k(  142) = (  -0.1178511  -0.5892557  -0.1178511), wk =   0.0092593
        k(  143) = (   0.0000000  -0.4714045  -0.2357023), wk =   0.0092593
        k(  144) = (   0.1178511  -0.3535534  -0.3535534), wk =   0.0092593
        k(  145) = (   0.2357023  -0.2357023  -0.2357023), wk =   0.0092593
        k(  146) = (   0.3535534  -0.1178511  -0.3535534), wk =   0.0092593
        k(  147) = (   0.4714045  -0.0000000  -0.4714045), wk =   0.0092593
        k(  148) = (  -0.1178511  -0.5892557   0.1178511), wk =   0.0092593
        k(  149) = (   0.0000000  -0.4714045   0.0000000), wk =   0.0092593
        k(  150) = (   0.1178511  -0.3535534  -0.1178511), wk =   0.0092593
        k(  151) = (   0.3535534  -0.3535534  -0.1178511), wk =   0.0092593
        k(  152) = (   0.4714045  -0.2357023  -0.2357023), wk =   0.0092593
        k(  153) = (   0.5892557  -0.1178511  -0.3535534), wk =   0.0092593
        k(  154) = (   0.0000000  -0.7071068   0.2357023), wk =   0.0092593
        k(  155) = (   0.1178511  -0.5892557   0.1178511), wk =   0.0092593
        k(  156) = (   0.2357023  -0.4714045  -0.0000000), wk =   0.0092593
        k(  157) = (   0.4714045  -0.4714045  -0.0000000), wk =   0.0092593
        k(  158) = (   0.5892557  -0.3535534  -0.1178511), wk =   0.0092593
        k(  159) = (   0.7071068  -0.2357023  -0.2357023), wk =   0.0092593
        k(  160) = (   0.1178511  -0.8249579   0.3535534), wk =   0.0092593
        k(  161) = (   0.2357023  -0.7071068   0.2357023), wk =   0.0092593
        k(  162) = (   0.3535534  -0.5892557   0.1178511), wk =   0.0092593
        k(  163) = (  -0.1178511   0.1178511  -0.5892557), wk =   0.0092593
        k(  164) = (   0.0000000   0.2357023  -0.7071068), wk =   0.0092593
        k(  165) = (   0.1178511   0.3535534  -0.8249579), wk =   0.0092593
        k(  166) = (  -0.4714045  -0.2357023  -0.2357023), wk =   0.0092593
        k(  167) = (  -0.3535534  -0.1178511  -0.3535534), wk =   0.0092593
        k(  168) = (  -0.2357023   0.0000000  -0.4714045), wk =   0.0092593
        k(  169) = (   0.0000000   0.0000000  -0.4714045), wk =   0.0092593
        k(  170) = (   0.1178511   0.1178511  -0.5892557), wk =   0.0092593
        k(  171) = (   0.2357023   0.2357023  -0.7071068), wk =   0.0092593
        k(  172) = (  -0.3535534  -0.3535534  -0.1178511), wk =   0.0092593
        k(  173) = (  -0.2357023  -0.2357023  -0.2357023), wk =   0.0092593
        k(  174) = (  -0.1178511  -0.1178511  -0.3535534), wk =   0.0092593
        k(  175) = (   0.1178511  -0.1178511  -0.3535534), wk =   0.0092593
        k(  176) = (   0.2357023  -0.0000000  -0.4714045), wk =   0.0092593
        k(  177) = (   0.3535534   0.1178511  -0.5892557), wk =   0.0092593
        k(  178) = (  -0.2357023  -0.4714045   0.0000000), wk =   0.0092593
        k(  179) = (  -0.1178511  -0.3535534  -0.1178511), wk =   0.0092593
        k(  180) = (   0.0000000  -0.2357023  -0.2357023), wk =   0.0092593
        k(  181) = (   0.1178511  -0.1178511  -0.1178511), wk =   0.0092593
        k(  182) = (   0.2357023   0.0000000  -0.2357023), wk =   0.0092593
        k(  183) = (   0.3535534   0.1178511  -0.3535534), wk =   0.0092593
        k(  184) = (  -0.2357023  -0.4714045   0.2357023), wk =   0.0092593
        k(  185) = (  -0.1178511  -0.3535534   0.1178511), wk =   0.0092593
        k(  186) = (   0.0000000  -0.2357023   0.0000000), wk =   0.0092593
        k(  187) = (   0.2357023  -0.2357023   0.0000000), wk =   0.0092593
        k(  188) = (   0.3535534  -0.1178511  -0.1178511), wk =   0.0092593
        k(  189) = (   0.4714045   0.0000000  -0.2357023), wk =   0.0092593
        k(  190) = (  -0.1178511  -0.5892557   0.3535534), wk =   0.0092593
        k(  191) = (  -0.0000000  -0.4714045   0.2357023), wk =   0.0092593
        k(  192) = (   0.1178511  -0.3535534   0.1178511), wk =   0.0092593
        k(  193) = (   0.3535534  -0.3535534   0.1178511), wk =   0.0092593
        k(  194) = (   0.4714045  -0.2357023   0.0000000), wk =   0.0092593
        k(  195) = (   0.5892557  -0.1178511  -0.1178511), wk =   0.0092593
        k(  196) = (   0.0000000  -0.7071068   0.4714045), wk =   0.0092593
        k(  197) = (   0.1178511  -0.5892557   0.3535534), wk =   0.0092593
        k(  198) = (   0.2357023  -0.4714045   0.2357023), wk =   0.0092593
        k(  199) = (  -0.2357023   0.2357023  -0.4714045), wk =   0.0092593
        k(  200) = (  -0.1178511   0.3535534  -0.5892557), wk =   0.0092593
        k(  201) = (  -0.0000000   0.4714045  -0.7071068), wk =   0.0092593
        k(  202) = (  -0.5892557  -0.1178511  -0.1178511), wk =   0.0092593
        k(  203) = (  -0.4714045   0.0000000  -0.2357023), wk =   0.0092593
        k(  204) = (  -0.3535534   0.1178511  -0.3535534), wk =   0.0092593
        k(  205) = (  -0.1178511   0.1178511  -0.3535534), wk =   0.0092593
        k(  206) = (  -0.0000000   0.2357023  -0.4714045), wk =   0.0092593
        k(  207) = (   0.1178511   0.3535534  -0.5892557), wk =   0.0092593
        k(  208) = (  -0.4714045  -0.2357023   0.0000000), wk =   0.0092593
        k(  209) = (  -0.3535534  -0.1178511  -0.1178511), wk =   0.0092593
        k(  210) = (  -0.2357023   0.0000000  -0.2357023), wk =   0.0092593
        k(  211) = (   0.0000000   0.0000000  -0.2357023), wk =   0.0092593
        k(  212) = (   0.1178511   0.1178511  -0.3535534), wk =   0.0092593
        k(  213) = (   0.2357023   0.2357023  -0.4714045), wk =   0.0092593
        k(  214) = (  -0.3535534  -0.3535534   0.1178511), wk =   0.0092593
        k(  215) = (  -0.2357023  -0.2357023   0.0000000), wk =   0.0092593
        k(  216) = (  -0.1178511  -0.1178511  -0.1178511), wk =   0.0092593

                       cryst. coord.
        k(    1) = (   0.0000000   0.0000000   0.0000000), wk =   0.0092593
        k(    2) = (   0.0000000   0.0000000   0.1666667), wk =   0.0092593
        k(    3) = (   0.0000000   0.0000000   0.3333333), wk =   0.0092593
        k(    4) = (   0.0000000   0.0000000  -0.5000000), wk =   0.0092593
        k(    5) = (   0.0000000   0.0000000  -0.3333333), wk =   0.0092593
        k(    6) = (   0.0000000   0.0000000  -0.1666667), wk =   0.0092593
        k(    7) = (   0.0000000   0.1666667   0.0000000), wk =   0.0092593
        k(    8) = (   0.0000000   0.1666667   0.1666667), wk =   0.0092593
        k(    9) = (   0.0000000   0.1666667   0.3333333), wk =   0.0092593
        k(   10) = (   0.0000000   0.1666667  -0.5000000), wk =   0.0092593
        k(   11) = (   0.0000000   0.1666667  -0.3333333), wk =   0.0092593
        k(   12) = (   0.0000000   0.1666667  -0.1666667), wk =   0.0092593
        k(   13) = (   0.0000000   0.3333333   0.0000000), wk =   0.0092593
        k(   14) = (   0.0000000   0.3333333   0.1666667), wk =   0.0092593
        k(   15) = (   0.0000000   0.3333333   0.3333333), wk =   0.0092593
        k(   16) = (   0.0000000   0.3333333  -0.5000000), wk =   0.0092593
        k(   17) = (   0.0000000   0.3333333  -0.3333333), wk =   0.0092593
        k(   18) = (   0.0000000   0.3333333  -0.1666667), wk =   0.0092593
        k(   19) = (   0.0000000  -0.5000000   0.0000000), wk =   0.0092593
        k(   20) = (   0.0000000  -0.5000000   0.1666667), wk =   0.0092593
        k(   21) = (   0.0000000  -0.5000000   0.3333333), wk =   0.0092593
        k(   22) = (   0.0000000  -0.5000000  -0.5000000), wk =   0.0092593
        k(   23) = (   0.0000000  -0.5000000  -0.3333333), wk =   0.0092593
        k(   24) = (   0.0000000  -0.5000000  -0.1666667), wk =   0.0092593
        k(   25) = (   0.0000000  -0.3333333   0.0000000), wk =   0.0092593
        k(   26) = (   0.0000000  -0.3333333   0.1666667), wk =   0.0092593
        k(   27) = (   0.0000000  -0.3333333   0.3333333), wk =   0.0092593
        k(   28) = (   0.0000000  -0.3333333  -0.5000000), wk =   0.0092593
        k(   29) = (   0.0000000  -0.3333333  -0.3333333), wk =   0.0092593
        k(   30) = (   0.0000000  -0.3333333  -0.1666667), wk =   0.0092593
        k(   31) = (   0.0000000  -0.1666667   0.0000000), wk =   0.0092593
        k(   32) = (   0.0000000  -0.1666667   0.1666667), wk =   0.0092593
        k(   33) = (   0.0000000  -0.1666667   0.3333333), wk =   0.0092593
        k(   34) = (   0.0000000  -0.1666667  -0.5000000), wk =   0.0092593
        k(   35) = (   0.0000000  -0.1666667  -0.3333333), wk =   0.0092593
        k(   36) = (   0.0000000  -0.1666667  -0.1666667), wk =   0.0092593
        k(   37) = (   0.1666667   0.0000000   0.0000000), wk =   0.0092593
        k(   38) = (   0.1666667   0.0000000   0.1666667), wk =   0.0092593
        k(   39) = (   0.1666667   0.0000000   0.3333333), wk =   0.0092593
        k(   40) = (   0.1666667   0.0000000  -0.5000000), wk =   0.0092593
        k(   41) = (   0.1666667   0.0000000  -0.3333333), wk =   0.0092593
        k(   42) = (   0.1666667   0.0000000  -0.1666667), wk =   0.0092593
        k(   43) = (   0.1666667   0.1666667   0.0000000), wk =   0.0092593
        k(   44) = (   0.1666667   0.1666667   0.1666667), wk =   0.0092593
        k(   45) = (   0.1666667   0.1666667   0.3333333), wk =   0.0092593
        k(   46) = (   0.1666667   0.1666667  -0.5000000), wk =   0.0092593
        k(   47) = (   0.1666667   0.1666667  -0.3333333), wk =   0.0092593
        k(   48) = (   0.1666667   0.1666667  -0.1666667), wk =   0.0092593
        k(   49) = (   0.1666667   0.3333333   0.0000000), wk =   0.0092593
        k(   50) = (   0.1666667   0.3333333   0.1666667), wk =   0.0092593
        k(   51) = (   0.1666667   0.3333333   0.3333333), wk =   0.0092593
        k(   52) = (   0.1666667   0.3333333  -0.5000000), wk =   0.0092593
        k(   53) = (   0.1666667   0.3333333  -0.3333333), wk =   0.0092593
        k(   54) = (   0.1666667   0.3333333  -0.1666667), wk =   0.0092593
        k(   55) = (   0.1666667  -0.5000000   0.0000000), wk =   0.0092593
        k(   56) = (   0.1666667  -0.5000000   0.1666667), wk =   0.0092593
        k(   57) = (   0.1666667  -0.5000000   0.3333333), wk =   0.0092593
        k(   58) = (   0.1666667  -0.5000000  -0.5000000), wk =   0.0092593
        k(   59) = (   0.1666667  -0.5000000  -0.3333333), wk =   0.0092593
        k(   60) = (   0.1666667  -0.5000000  -0.1666667), wk =   0.0092593
        k(   61) = (   0.1666667  -0.3333333   0.0000000), wk =   0.0092593
        k(   62) = (   0.1666667  -0.3333333   0.1666667), wk =   0.0092593
        k(   63) = (   0.1666667  -0.3333333   0.3333333), wk =   0.0092593
        k(   64) = (   0.1666667  -0.3333333  -0.5000000), wk =   0.0092593
        k(   65) = (   0.1666667  -0.3333333  -0.3333333), wk =   0.0092593
        k(   66) = (   0.1666667  -0.3333333  -0.1666667), wk =   0.0092593
        k(   67) = (   0.1666667  -0.1666667   0.0000000), wk =   0.0092593
        k(   68) = (   0.1666667  -0.1666667   0.1666667), wk =   0.0092593
        k(   69) = (   0.1666667  -0.1666667   0.3333333), wk =   0.0092593
        k(   70) = (   0.1666667  -0.1666667  -0.5000000), wk =   0.0092593
        k(   71) = (   0.1666667  -0.1666667  -0.3333333), wk =   0.0092593
        k(   72) = (   0.1666667  -0.1666667  -0.1666667), wk =   0.0092593
        k(   73) = (   0.3333333   0.0000000   0.0000000), wk =   0.0092593
        k(   74) = (   0.3333333   0.0000000   0.1666667), wk =   0.0092593
        k(   75) = (   0.3333333   0.0000000   0.3333333), wk =   0.0092593
        k(   76) = (   0.3333333   0.0000000  -0.5000000), wk =   0.0092593
        k(   77) = (   0.3333333   0.0000000  -0.3333333), wk =   0.0092593
        k(   78) = (   0.3333333   0.0000000  -0.1666667), wk =   0.0092593
        k(   79) = (   0.3333333   0.1666667   0.0000000), wk =   0.0092593
        k(   80) = (   0.3333333   0.1666667   0.1666667), wk =   0.0092593
        k(   81) = (   0.3333333   0.1666667   0.3333333), wk =   0.0092593
        k(   82) = (   0.3333333   0.1666667  -0.5000000), wk =   0.0092593
        k(   83) = (   0.3333333   0.1666667  -0.3333333), wk =   0.0092593
        k(   84) = (   0.3333333   0.1666667  -0.1666667), wk =   0.0092593
        k(   85) = (   0.3333333   0.3333333   0.0000000), wk =   0.0092593
        k(   86) = (   0.3333333   0.3333333   0.1666667), wk =   0.0092593
        k(   87) = (   0.3333333   0.3333333   0.3333333), wk =   0.0092593
        k(   88) = (   0.3333333   0.3333333  -0.5000000), wk =   0.0092593
        k(   89) = (   0.3333333   0.3333333  -0.3333333), wk =   0.0092593
        k(   90) = (   0.3333333   0.3333333  -0.1666667), wk =   0.0092593
        k(   91) = (   0.3333333  -0.5000000   0.0000000), wk =   0.0092593
        k(   92) = (   0.3333333  -0.5000000   0.1666667), wk =   0.0092593
        k(   93) = (   0.3333333  -0.5000000   0.3333333), wk =   0.0092593
        k(   94) = (   0.3333333  -0.5000000  -0.5000000), wk =   0.0092593
        k(   95) = (   0.3333333  -0.5000000  -0.3333333), wk =   0.0092593
        k(   96) = (   0.3333333  -0.5000000  -0.1666667), wk =   0.0092593
        k(   97) = (   0.3333333  -0.3333333   0.0000000), wk =   0.0092593
        k(   98) = (   0.3333333  -0.3333333   0.1666667), wk =   0.0092593
        k(   99) = (   0.3333333  -0.3333333   0.3333333), wk =   0.0092593
        k(  100) = (   0.3333333  -0.3333333  -0.5000000), wk =   0.0092593
        k(  101) = (   0.3333333  -0.3333333  -0.3333333), wk =   0.0092593
        k(  102) = (   0.3333333  -0.3333333  -0.1666667), wk =   0.0092593
        k(  103) = (   0.3333333  -0.1666667   0.0000000), wk =   0.0092593
        k(  104) = (   0.3333333  -0.1666667   0.1666667), wk =   0.0092593
        k(  105) = (   0.3333333  -0.1666667   0.3333333), wk =   0.0092593
        k(  106) = (   0.3333333  -0.1666667  -0.5000000), wk =   0.0092593
        k(  107) = (   0.3333333  -0.1666667  -0.3333333), wk =   0.0092593
        k(  108) = (   0.3333333  -0.1666667  -0.1666667), wk =   0.0092593
        k(  109) = (  -0.5000000   0.0000000   0.0000000), wk =   0.0092593
        k(  110) = (  -0.5000000   0.0000000   0.1666667), wk =   0.0092593
        k(  111) = (  -0.5000000   0.0000000   0.3333333), wk =   0.0092593
        k(  112) = (  -0.5000000   0.0000000  -0.5000000), wk =   0.0092593
        k(  113) = (  -0.5000000   0.0000000  -0.3333333), wk =   0.0092593
        k(  114) = (  -0.5000000   0.0000000  -0.1666667), wk =   0.0092593
        k(  115) = (  -0.5000000   0.1666667   0.0000000), wk =   0.0092593
        k(  116) = (  -0.5000000   0.1666667   0.1666667), wk =   0.0092593
        k(  117) = (  -0.5000000   0.1666667   0.3333333), wk =   0.0092593
        k(  118) = (  -0.5000000   0.1666667  -0.5000000), wk =   0.0092593
        k(  119) = (  -0.5000000   0.1666667  -0.3333333), wk =   0.0092593
        k(  120) = (  -0.5000000   0.1666667  -0.1666667), wk =   0.0092593
        k(  121) = (  -0.5000000   0.3333333   0.0000000), wk =   0.0092593
        k(  122) = (  -0.5000000   0.3333333   0.1666667), wk =   0.0092593
        k(  123) = (  -0.5000000   0.3333333   0.3333333), wk =   0.0092593
        k(  124) = (  -0.5000000   0.3333333  -0.5000000), wk =   0.0092593
        k(  125) = (  -0.5000000   0.3333333  -0.3333333), wk =   0.0092593
        k(  126) = (  -0.5000000   0.3333333  -0.1666667), wk =   0.0092593
        k(  127) = (  -0.5000000  -0.5000000   0.0000000), wk =   0.0092593
        k(  128) = (  -0.5000000  -0.5000000   0.1666667), wk =   0.0092593
        k(  129) = (  -0.5000000  -0.5000000   0.3333333), wk =   0.0092593
        k(  130) = (  -0.5000000  -0.5000000  -0.5000000), wk =   0.0092593
        k(  131) = (  -0.5000000  -0.5000000  -0.3333333), wk =   0.0092593
        k(  132) = (  -0.5000000  -0.5000000  -0.1666667), wk =   0.0092593
        k(  133) = (  -0.5000000  -0.3333333   0.0000000), wk =   0.0092593
        k(  134) = (  -0.5000000  -0.3333333   0.1666667), wk =   0.0092593
        k(  135) = (  -0.5000000  -0.3333333   0.3333333), wk =   0.0092593
        k(  136) = (  -0.5000000  -0.3333333  -0.5000000), wk =   0.0092593
        k(  137) = (  -0.5000000  -0.3333333  -0.3333333), wk =   0.0092593
        k(  138) = (  -0.5000000  -0.3333333  -0.1666667), wk =   0.0092593
        k(  139) = (  -0.5000000  -0.1666667   0.0000000), wk =   0.0092593
        k(  140) = (  -0.5000000  -0.1666667   0.1666667), wk =   0.0092593
        k(  141) = (  -0.5000000  -0.1666667   0.3333333), wk =   0.0092593
        k(  142) = (  -0.5000000  -0.1666667  -0.5000000), wk =   0.0092593
        k(  143) = (  -0.5000000  -0.1666667  -0.3333333), wk =   0.0092593
        k(  144) = (  -0.5000000  -0.1666667  -0.1666667), wk =   0.0092593
        k(  145) = (  -0.3333333   0.0000000   0.0000000), wk =   0.0092593
        k(  146) = (  -0.3333333   0.0000000   0.1666667), wk =   0.0092593
        k(  147) = (  -0.3333333   0.0000000   0.3333333), wk =   0.0092593
        k(  148) = (  -0.3333333   0.0000000  -0.5000000), wk =   0.0092593
        k(  149) = (  -0.3333333   0.0000000  -0.3333333), wk =   0.0092593
        k(  150) = (  -0.3333333   0.0000000  -0.1666667), wk =   0.0092593
        k(  151) = (  -0.3333333   0.1666667   0.0000000), wk =   0.0092593
        k(  152) = (  -0.3333333   0.1666667   0.1666667), wk =   0.0092593
        k(  153) = (  -0.3333333   0.1666667   0.3333333), wk =   0.0092593
        k(  154) = (  -0.3333333   0.1666667  -0.5000000), wk =   0.0092593
        k(  155) = (  -0.3333333   0.1666667  -0.3333333), wk =   0.0092593
        k(  156) = (  -0.3333333   0.1666667  -0.1666667), wk =   0.0092593
        k(  157) = (  -0.3333333   0.3333333   0.0000000), wk =   0.0092593
        k(  158) = (  -0.3333333   0.3333333   0.1666667), wk =   0.0092593
        k(  159) = (  -0.3333333   0.3333333   0.3333333), wk =   0.0092593
        k(  160) = (  -0.3333333   0.3333333  -0.5000000), wk =   0.0092593
        k(  161) = (  -0.3333333   0.3333333  -0.3333333), wk =   0.0092593
        k(  162) = (  -0.3333333   0.3333333  -0.1666667), wk =   0.0092593
        k(  163) = (  -0.3333333  -0.5000000   0.0000000), wk =   0.0092593
        k(  164) = (  -0.3333333  -0.5000000   0.1666667), wk =   0.0092593
        k(  165) = (  -0.3333333  -0.5000000   0.3333333), wk =   0.0092593
        k(  166) = (  -0.3333333  -0.5000000  -0.5000000), wk =   0.0092593
        k(  167) = (  -0.3333333  -0.5000000  -0.3333333), wk =   0.0092593
        k(  168) = (  -0.3333333  -0.5000000  -0.1666667), wk =   0.0092593
        k(  169) = (  -0.3333333  -0.3333333   0.0000000), wk =   0.0092593
        k(  170) = (  -0.3333333  -0.3333333   0.1666667), wk =   0.0092593
        k(  171) = (  -0.3333333  -0.3333333   0.3333333), wk =   0.0092593
        k(  172) = (  -0.3333333  -0.3333333  -0.5000000), wk =   0.0092593
        k(  173) = (  -0.3333333  -0.3333333  -0.3333333), wk =   0.0092593
        k(  174) = (  -0.3333333  -0.3333333  -0.1666667), wk =   0.0092593
        k(  175) = (  -0.3333333  -0.1666667   0.0000000), wk =   0.0092593
        k(  176) = (  -0.3333333  -0.1666667   0.1666667), wk =   0.0092593
        k(  177) = (  -0.3333333  -0.1666667   0.3333333), wk =   0.0092593
        k(  178) = (  -0.3333333  -0.1666667  -0.5000000), wk =   0.0092593
        k(  179) = (  -0.3333333  -0.1666667  -0.3333333), wk =   0.0092593
        k(  180) = (  -0.3333333  -0.1666667  -0.1666667), wk =   0.0092593
        k(  181) = (  -0.1666667   0.0000000   0.0000000), wk =   0.0092593
        k(  182) = (  -0.1666667   0.0000000   0.1666667), wk =   0.0092593
        k(  183) = (  -0.1666667   0.0000000   0.3333333), wk =   0.0092593
        k(  184) = (  -0.1666667   0.0000000  -0.5000000), wk =   0.0092593
        k(  185) = (  -0.1666667   0.0000000  -0.3333333), wk =   0.0092593
        k(  186) = (  -0.1666667   0.0000000  -0.1666667), wk =   0.0092593
        k(  187) = (  -0.1666667   0.1666667   0.0000000), wk =   0.0092593
        k(  188) = (  -0.1666667   0.1666667   0.1666667), wk =   0.0092593
        k(  189) = (  -0.1666667   0.1666667   0.3333333), wk =   0.0092593
        k(  190) = (  -0.1666667   0.1666667  -0.5000000), wk =   0.0092593
        k(  191) = (  -0.1666667   0.1666667  -0.3333333), wk =   0.0092593
        k(  192) = (  -0.1666667   0.1666667  -0.1666667), wk =   0.0092593
        k(  193) = (  -0.1666667   0.3333333   0.0000000), wk =   0.0092593
        k(  194) = (  -0.1666667   0.3333333   0.1666667), wk =   0.0092593
        k(  195) = (  -0.1666667   0.3333333   0.3333333), wk =   0.0092593
        k(  196) = (  -0.1666667   0.3333333  -0.5000000), wk =   0.0092593
        k(  197) = (  -0.1666667   0.3333333  -0.3333333), wk =   0.0092593
        k(  198) = (  -0.1666667   0.3333333  -0.1666667), wk =   0.0092593
        k(  199) = (  -0.1666667  -0.5000000   0.0000000), wk =   0.0092593
        k(  200) = (  -0.1666667  -0.5000000   0.1666667), wk =   0.0092593
        k(  201) = (  -0.1666667  -0.5000000   0.3333333), wk =   0.0092593
        k(  202) = (  -0.1666667  -0.5000000  -0.5000000), wk =   0.0092593
        k(  203) = (  -0.1666667  -0.5000000  -0.3333333), wk =   0.0092593
        k(  204) = (  -0.1666667  -0.5000000  -0.1666667), wk =   0.0092593
        k(  205) = (  -0.1666667  -0.3333333   0.0000000), wk =   0.0092593
        k(  206) = (  -0.1666667  -0.3333333   0.1666667), wk =   0.0092593
        k(  207) = (  -0.1666667  -0.3333333   0.3333333), wk =   0.0092593
        k(  208) = (  -0.1666667  -0.3333333  -0.5000000), wk =   0.0092593
        k(  209) = (  -0.1666667  -0.3333333  -0.3333333), wk =   0.0092593
        k(  210) = (  -0.1666667  -0.3333333  -0.1666667), wk =   0.0092593
        k(  211) = (  -0.1666667  -0.1666667   0.0000000), wk =   0.0092593
        k(  212) = (  -0.1666667  -0.1666667   0.1666667), wk =   0.0092593
        k(  213) = (  -0.1666667  -0.1666667   0.3333333), wk =   0.0092593
        k(  214) = (  -0.1666667  -0.1666667  -0.5000000), wk =   0.0092593
        k(  215) = (  -0.1666667  -0.1666667  -0.3333333), wk =   0.0092593
        k(  216) = (  -0.1666667  -0.1666667  -0.1666667), wk =   0.0092593

     Dense  grid:    30827 G-vectors     FFT dimensions: (  45,  45,  45)

     Dynamical RAM for                 wfc:       0.49 MB

     Dynamical RAM for     wfc (w. buffer):       0.49 MB

     Dynamical RAM for           str. fact:       0.16 MB

     Dynamical RAM for           local pot:       0.00 MB

     Dynamical RAM for          nlocal pot:       0.35 MB

     Dynamical RAM for                qrad:       2.49 MB

     Dynamical RAM for          rho,v,vnew:       0.61 MB

     Dynamical RAM for           G-vectors:       0.33 MB

     Dynamical RAM for          h,s,v(r/c):       0.46 MB

     Dynamical RAM for          <psi|beta>:       0.03 MB

     Dynamical RAM for                 psi:       0.98 MB

     Dynamical RAM for                hpsi:       0.98 MB

     Dynamical RAM for      wfcinit/wfcrot:       1.04 MB

     Estimated static dynamical RAM per process >       5.28 MB

     Estimated max dynamical RAM per process >       7.72 MB

     Estimated total dynamical RAM >      46.32 MB

     The potential is recalculated from file :
     /home/User/opencode_workspace/DFT/calculations/cdte/optics_nc/out/pwscf.save/charge-density

     Starting wfcs are random

     Band Structure Calculation
     Davidson diagonalization with overlap

     Computing kpt #:     1  of   216
     total cpu time spent up to now is        4.6 secs

     Computing kpt #:     2  of   216
     total cpu time spent up to now is        8.5 secs

     Computing kpt #:     3  of   216
     total cpu time spent up to now is       11.6 secs

     Computing kpt #:     4  of   216
     total cpu time spent up to now is       15.0 secs

     Computing kpt #:     5  of   216
     total cpu time spent up to now is       18.3 secs

     Computing kpt #:     6  of   216
     total cpu time spent up to now is       22.0 secs

     Computing kpt #:     7  of   216
     total cpu time spent up to now is       26.0 secs

     Computing kpt #:     8  of   216
     total cpu time spent up to now is       29.8 secs

     Computing kpt #:     9  of   216
     total cpu time spent up to now is       33.7 secs

     Computing kpt #:    10  of   216
     total cpu time spent up to now is       37.3 secs

     Computing kpt #:    11  of   216
     total cpu time spent up to now is       41.5 secs

     Computing kpt #:    12  of   216
     total cpu time spent up to now is       45.3 secs

     Computing kpt #:    13  of   216
     total cpu time spent up to now is       48.2 secs

     Computing kpt #:    14  of   216
     total cpu time spent up to now is       51.9 secs

     Computing kpt #:    15  of   216
     total cpu time spent up to now is       55.4 secs

     Computing kpt #:    16  of   216
     total cpu time spent up to now is       59.0 secs

     Computing kpt #:    17  of   216
     total cpu time spent up to now is       62.8 secs

     Computing kpt #:    18  of   216
     total cpu time spent up to now is       67.1 secs

     Computing kpt #:    19  of   216
     total cpu time spent up to now is       70.3 secs

     Computing kpt #:    20  of   216
     total cpu time spent up to now is       74.3 secs

     Computing kpt #:    21  of   216
     total cpu time spent up to now is       79.7 secs

     Computing kpt #:    22  of   216
     total cpu time spent up to now is       83.5 secs

     Computing kpt #:    23  of   216
     total cpu time spent up to now is       87.3 secs

     Computing kpt #:    24  of   216
     total cpu time spent up to now is       91.1 secs

     Computing kpt #:    25  of   216
     total cpu time spent up to now is       94.4 secs

     Computing kpt #:    26  of   216
     total cpu time spent up to now is       98.5 secs

     Computing kpt #:    27  of   216
     total cpu time spent up to now is      103.5 secs

     Computing kpt #:    28  of   216
     total cpu time spent up to now is      107.7 secs

     Computing kpt #:    29  of   216
     total cpu time spent up to now is      111.2 secs

     Computing kpt #:    30  of   216
     total cpu time spent up to now is      114.8 secs

     Computing kpt #:    31  of   216
     total cpu time spent up to now is      118.4 secs

     Computing kpt #:    32  of   216
     total cpu time spent up to now is      122.3 secs

     Computing kpt #:    33  of   216
     total cpu time spent up to now is      125.9 secs

     Computing kpt #:    34  of   216
     total cpu time spent up to now is      129.5 secs

     Computing kpt #:    35  of   216
     total cpu time spent up to now is      133.4 secs

     Computing kpt #:    36  of   216
     total cpu time spent up to now is      137.7 secs

     Computing kpt #:    37  of   216
     total cpu time spent up to now is      141.3 secs

     Computing kpt #:    38  of   216
     total cpu time spent up to now is      145.3 secs

     Computing kpt #:    39  of   216
     total cpu time spent up to now is      149.4 secs

     Computing kpt #:    40  of   216
     total cpu time spent up to now is      153.1 secs

     Computing kpt #:    41  of   216
     total cpu time spent up to now is      157.5 secs

     Computing kpt #:    42  of   216
     total cpu time spent up to now is      163.3 secs

     Computing kpt #:    43  of   216
     total cpu time spent up to now is      167.9 secs

     Computing kpt #:    44  of   216
     total cpu time spent up to now is      171.9 secs

     Computing kpt #:    45  of   216
     total cpu time spent up to now is      176.7 secs

     Computing kpt #:    46  of   216
     total cpu time spent up to now is      180.6 secs

     Computing kpt #:    47  of   216
     total cpu time spent up to now is      184.3 secs

     Computing kpt #:    48  of   216
     total cpu time spent up to now is      189.0 secs

     Computing kpt #:    49  of   216
