
     Program PWSCF v.7.5 starts on 22Sep2026 at 19: 1:27 

     This program is part of the open-source Quantum ESPRESSO suite
     for quantum simulation of materials; please cite
         "P. Giannozzi et al., J. Phys.:Condens. Matter 21 395502 (2009);
         "P. Giannozzi et al., J. Phys.:Condens. Matter 29 465901 (2017);
         "P. Giannozzi et al., J. Chem. Phys. 152 154105 (2020);
          URL http://www.quantum-espresso.org", 
     in publications or presentations arising from this work. More details at
     http://www.quantum-espresso.org/quote

     Parallel version (MPI & OpenMP), running on       6 processor cores
     Number of MPI processes:                 6
     Threads/MPI process:                     1

     MPI processes distributed on     1 nodes
     3150 MiB available memory on the printing compute node when the environment starts

     Reading input from pw.in

     Current dimensions of program PWSCF are:
     Max number of different atomic species (ntypx) = 10
     Max number of k-points (npk) =  40000
     Max angular momentum in pseudopotentials (lmaxx) =  4
     file Cd.pbe-n-rrkjus_psl.1.0.0.UPF: wavefunction(s)  4D renormalized
     file Te.pbe-n-rrkjus_psl.1.0.0.UPF: wavefunction(s)  5S renormalized
     Message from routine setup:
     using ibrav=0 with symmetry is DISCOURAGED, use correct ibrav instead

     R & G space division:  proc/nbgrp/npool/nimage =       6
     Subspace diagonalization in iterative solution of the eigenvalue problem:
     a serial algorithm will be used


     Parallelization info
     --------------------
     sticks:   dense  smooth     PW     G-vecs:    dense   smooth      PW
     Min         361     241     70                11152     6054     960
     Max         363     243     71                11155     6055     964
     Sum        2173    1453    421                66923    36325    5769

     Using Slab Decomposition



     bravais-lattice index     =            0
     lattice parameter (alat)  =       8.6615  a.u.
     unit-cell volume          =     459.4769 (a.u.)^3
     number of atoms/cell      =            2
     number of atomic types    =            2
     number of electrons       =        18.00
     number of Kohn-Sham states=            9
     kinetic-energy cutoff     =      70.0000  Ry
     charge density cutoff     =     420.0000  Ry
     scf convergence threshold =      1.0E-10
     mixing beta               =       0.3000
     number of iterations used =            8  plain     mixing
     Exchange-correlation= PBE
                           (   1   4   3   4   0   0   0)

     celldm(1)=   8.661496  celldm(2)=   0.000000  celldm(3)=   0.000000
     celldm(4)=   0.000000  celldm(5)=   0.000000  celldm(6)=   0.000000

     crystal axes: (cart. coord. in units of alat)
               a(1) = (   0.000000   0.707107   0.707107 )  
               a(2) = (   0.707107   0.000000   0.707107 )  
               a(3) = (   0.707107   0.707107   0.000000 )  

     reciprocal axes: (cart. coord. in units 2 pi/alat)
               b(1) = ( -0.707107  0.707107  0.707107 )  
               b(2) = (  0.707107 -0.707107  0.707107 )  
               b(3) = (  0.707107  0.707107 -0.707107 )  


     PseudoPot. # 1 for Cd read from file:
     /home/User/opencode_workspace/DFT/pseudopotentials/Cd.pbe-n-rrkjus_psl.1.0.0.UPF
     MD5 check sum: a744746c89d2344a134ead0d8ab94e7a
     Pseudo is Ultrasoft + core correction, Zval = 12.0
     Generated using &quot;atomic&quot; code by A. Dal Corso  v.6.3
     Using radial grid of 1239 points,  6 beta functions with: 
                l(1) =   0
                l(2) =   0
                l(3) =   1
                l(4) =   1
                l(5) =   2
                l(6) =   2
     Q(r) pseudized with 0 coefficients 


     PseudoPot. # 2 for Te read from file:
     /home/User/opencode_workspace/DFT/pseudopotentials/Te.pbe-n-rrkjus_psl.1.0.0.UPF
     MD5 check sum: 203a1e86ef55f0cd9de2762a27c58f54
     Pseudo is Ultrasoft + core correction, Zval =  6.0
     Generated using &quot;atomic&quot; code by A. Dal Corso  v.6.3
     Using radial grid of 1245 points,  6 beta functions with: 
                l(1) =   0
                l(2) =   0
                l(3) =   1
                l(4) =   1
                l(5) =   2
                l(6) =   2
     Q(r) pseudized with 0 coefficients 


     atomic species   valence    mass     pseudopotential
     Cd               12.00   112.41400     Cd( 1.00)
     Te                6.00   127.60000     Te( 1.00)

     24 Sym. Ops. (no inversion) found


                                    s                        frac. trans.

      isym =  1     identity                                     

 cryst.   s( 1) = (     1          0          0      )
                  (     0          1          0      )
                  (     0          0          1      )

 cart.    s( 1) = (  1.0000000  0.0000000  0.0000000 )
                  (  0.0000000  1.0000000  0.0000000 )
                  (  0.0000000  0.0000000  1.0000000 )


      isym =  2     180 deg rotation - cart. axis [0,0,1]        

 cryst.   s( 2) = (     0          1         -1      )
                  (     1          0         -1      )
                  (     0          0         -1      )

 cart.    s( 2) = ( -1.0000000  0.0000000  0.0000000 )
                  (  0.0000000 -1.0000000  0.0000000 )
                  (  0.0000000  0.0000000  1.0000000 )


      isym =  3     180 deg rotation - cart. axis [0,1,0]        

 cryst.   s( 3) = (     0         -1          1      )
                  (     0         -1          0      )
                  (     1         -1          0      )

 cart.    s( 3) = ( -1.0000000  0.0000000  0.0000000 )
                  (  0.0000000  1.0000000  0.0000000 )
                  (  0.0000000  0.0000000 -1.0000000 )


      isym =  4     180 deg rotation - cart. axis [1,0,0]        

 cryst.   s( 4) = (    -1          0          0      )
                  (    -1          0          1      )
                  (    -1          1          0      )

 cart.    s( 4) = (  1.0000000  0.0000000  0.0000000 )
                  (  0.0000000 -1.0000000  0.0000000 )
                  (  0.0000000  0.0000000 -1.0000000 )


      isym =  5     120 deg rotation - cart. axis [-1,-1,-1]     

 cryst.   s( 5) = (     0          0          1      )
                  (     1          0          0      )
                  (     0          1          0      )

 cart.    s( 5) = (  0.0000000  1.0000000  0.0000000 )
                  (  0.0000000  0.0000000  1.0000000 )
                  (  1.0000000  0.0000000  0.0000000 )


      isym =  6     120 deg rotation - cart. axis [-1,1,1]       

 cryst.   s( 6) = (     1         -1          0      )
                  (     0         -1          1      )
                  (     0         -1          0      )

 cart.    s( 6) = (  0.0000000 -1.0000000  0.0000000 )
                  (  0.0000000  0.0000000  1.0000000 )
                  ( -1.0000000  0.0000000  0.0000000 )


      isym =  7     120 deg rotation - cart. axis [1,1,-1]       

 cryst.   s( 7) = (    -1          1          0      )
                  (    -1          0          0      )
                  (    -1          0          1      )

 cart.    s( 7) = (  0.0000000  1.0000000  0.0000000 )
                  (  0.0000000  0.0000000 -1.0000000 )
                  ( -1.0000000  0.0000000  0.0000000 )


      isym =  8     120 deg rotation - cart. axis [1,-1,1]       

 cryst.   s( 8) = (     0          0         -1      )
                  (     0          1         -1      )
                  (     1          0         -1      )

 cart.    s( 8) = (  0.0000000 -1.0000000  0.0000000 )
                  (  0.0000000  0.0000000 -1.0000000 )
                  (  1.0000000  0.0000000  0.0000000 )


      isym =  9     120 deg rotation - cart. axis [1,1,1]        

 cryst.   s( 9) = (     0          1          0      )
                  (     0          0          1      )
                  (     1          0          0      )

 cart.    s( 9) = (  0.0000000  0.0000000  1.0000000 )
                  (  1.0000000  0.0000000  0.0000000 )
                  (  0.0000000  1.0000000  0.0000000 )


      isym = 10     120 deg rotation - cart. axis [-1,1,-1]      

 cryst.   s(10) = (    -1          0          1      )
                  (    -1          1          0      )
                  (    -1          0          0      )

 cart.    s(10) = (  0.0000000  0.0000000  1.0000000 )
                  ( -1.0000000  0.0000000  0.0000000 )
                  (  0.0000000 -1.0000000  0.0000000 )


      isym = 11     120 deg rotation - cart. axis [1,-1,-1]      

 cryst.   s(11) = (     1          0         -1      )
                  (     0          0         -1      )
                  (     0          1         -1      )

 cart.    s(11) = (  0.0000000  0.0000000 -1.0000000 )
                  ( -1.0000000  0.0000000  0.0000000 )
                  (  0.0000000  1.0000000  0.0000000 )


      isym = 12     120 deg rotation - cart. axis [-1,-1,1]      

 cryst.   s(12) = (     0         -1          0      )
                  (     1         -1          0      )
                  (     0         -1          1      )

 cart.    s(12) = (  0.0000000  0.0000000 -1.0000000 )
                  (  1.0000000  0.0000000  0.0000000 )
                  (  0.0000000 -1.0000000  0.0000000 )


      isym = 13     inv. 180 deg rotation - cart. axis [1,1,0]   

 cryst.   s(13) = (     1          0         -1      )
                  (     0          1         -1      )
                  (     0          0         -1      )

 cart.    s(13) = (  0.0000000 -1.0000000  0.0000000 )
                  ( -1.0000000  0.0000000  0.0000000 )
                  (  0.0000000  0.0000000  1.0000000 )


      isym = 14     inv. 180 deg rotation - cart. axis [1,-1,0]  

 cryst.   s(14) = (     0          1          0      )
                  (     1          0          0      )
                  (     0          0          1      )

 cart.    s(14) = (  0.0000000  1.0000000  0.0000000 )
                  (  1.0000000  0.0000000  0.0000000 )
                  (  0.0000000  0.0000000  1.0000000 )


      isym = 15     inv.  90 deg rotation - cart. axis [0,0,-1]  

 cryst.   s(15) = (     0         -1          0      )
                  (     0         -1          1      )
                  (     1         -1          0      )

 cart.    s(15) = (  0.0000000 -1.0000000  0.0000000 )
                  (  1.0000000  0.0000000  0.0000000 )
                  (  0.0000000  0.0000000 -1.0000000 )


      isym = 16     inv.  90 deg rotation - cart. axis [0,0,1]   

 cryst.   s(16) = (    -1          0          1      )
                  (    -1          0          0      )
                  (    -1          1          0      )

 cart.    s(16) = (  0.0000000  1.0000000  0.0000000 )
                  ( -1.0000000  0.0000000  0.0000000 )
                  (  0.0000000  0.0000000 -1.0000000 )


      isym = 17     inv. 180 deg rotation - cart. axis [1,0,1]   

 cryst.   s(17) = (     1         -1          0      )
                  (     0         -1          0      )
                  (     0         -1          1      )

 cart.    s(17) = (  0.0000000  0.0000000 -1.0000000 )
                  (  0.0000000  1.0000000  0.0000000 )
                  ( -1.0000000  0.0000000  0.0000000 )


      isym = 18     inv. 180 deg rotation - cart. axis [-1,0,1]  

 cryst.   s(18) = (     0          0          1      )
                  (     0          1          0      )
                  (     1          0          0      )

 cart.    s(18) = (  0.0000000  0.0000000  1.0000000 )
                  (  0.0000000  1.0000000  0.0000000 )
                  (  1.0000000  0.0000000  0.0000000 )


      isym = 19     inv.  90 deg rotation - cart. axis [0,1,0]   

 cryst.   s(19) = (     0          0         -1      )
                  (     1          0         -1      )
                  (     0          1         -1      )

 cart.    s(19) = (  0.0000000  0.0000000 -1.0000000 )
                  (  0.0000000 -1.0000000  0.0000000 )
                  (  1.0000000  0.0000000  0.0000000 )


      isym = 20     inv.  90 deg rotation - cart. axis [0,-1,0]  

 cryst.   s(20) = (    -1          1          0      )
                  (    -1          0          1      )
                  (    -1          0          0      )

 cart.    s(20) = (  0.0000000  0.0000000  1.0000000 )
                  (  0.0000000 -1.0000000  0.0000000 )
                  ( -1.0000000  0.0000000  0.0000000 )


      isym = 21     inv. 180 deg rotation - cart. axis [0,1,1]   

 cryst.   s(21) = (    -1          0          0      )
                  (    -1          1          0      )
                  (    -1          0          1      )

 cart.    s(21) = (  1.0000000  0.0000000  0.0000000 )
                  (  0.0000000  0.0000000 -1.0000000 )
                  (  0.0000000 -1.0000000  0.0000000 )


      isym = 22     inv. 180 deg rotation - cart. axis [0,1,-1]  

 cryst.   s(22) = (     1          0          0      )
                  (     0          0          1      )
                  (     0          1          0      )

 cart.    s(22) = (  1.0000000  0.0000000  0.0000000 )
                  (  0.0000000  0.0000000  1.0000000 )
                  (  0.0000000  1.0000000  0.0000000 )


      isym = 23     inv.  90 deg rotation - cart. axis [-1,0,0]  

 cryst.   s(23) = (     0          1         -1      )
                  (     0          0         -1      )
                  (     1          0         -1      )

 cart.    s(23) = ( -1.0000000  0.0000000  0.0000000 )
                  (  0.0000000  0.0000000 -1.0000000 )
                  (  0.0000000  1.0000000  0.0000000 )


      isym = 24     inv.  90 deg rotation - cart. axis [1,0,0]   

 cryst.   s(24) = (     0         -1          1      )
                  (     1         -1          0      )
                  (     0         -1          0      )

 cart.    s(24) = ( -1.0000000  0.0000000  0.0000000 )
                  (  0.0000000  0.0000000  1.0000000 )
                  (  0.0000000 -1.0000000  0.0000000 )


   Cartesian axes

     site n.     atom                  positions (alat units)
         1        Cd     tau(   1) = (   0.0000000   0.0000000   0.0000000  )
         2        Te     tau(   2) = (   0.3535534   0.3535534   0.3535534  )

   Crystallographic axes

     site n.     atom                  positions (cryst. coord.)
         1        Cd     tau(   1) = (  0.0000000  0.0000000  0.0000000  )
         2        Te     tau(   2) = (  0.2500000  0.2500000  0.2500000  )

     number of k points=    29
                       cart. coord. in units 2pi/alat
        k(    1) = (   0.0000000   0.0000000   0.0000000), wk =   0.0039062
        k(    2) = (   0.0883883   0.0883883  -0.0883883), wk =   0.0312500
        k(    3) = (   0.1767767   0.1767767  -0.1767767), wk =   0.0312500
        k(    4) = (   0.2651650   0.2651650  -0.2651650), wk =   0.0312500
        k(    5) = (  -0.3535534  -0.3535534   0.3535534), wk =   0.0156250
        k(    6) = (   0.1767767   0.0000000   0.0000000), wk =   0.0234375
        k(    7) = (   0.2651650   0.0883883  -0.0883883), wk =   0.0937500
        k(    8) = (   0.3535534   0.1767767  -0.1767767), wk =   0.0937500
        k(    9) = (  -0.2651650  -0.4419417   0.4419417), wk =   0.0937500
        k(   10) = (  -0.1767767  -0.3535534   0.3535534), wk =   0.0937500
        k(   11) = (  -0.0883883  -0.2651650   0.2651650), wk =   0.0937500
        k(   12) = (   0.0000000  -0.1767767   0.1767767), wk =   0.0468750
        k(   13) = (   0.3535534   0.0000000   0.0000000), wk =   0.0234375
        k(   14) = (   0.4419417   0.0883883  -0.0883883), wk =   0.0937500
        k(   15) = (  -0.1767767  -0.5303301   0.5303301), wk =   0.0937500
        k(   16) = (  -0.0883883  -0.4419417   0.4419417), wk =   0.0937500
        k(   17) = (   0.0000000  -0.3535534   0.3535534), wk =   0.0468750
        k(   18) = (   0.5303301   0.0000000   0.0000000), wk =   0.0234375
        k(   19) = (  -0.0883883  -0.6187184   0.6187184), wk =   0.0937500
        k(   20) = (   0.0000000  -0.5303301   0.5303301), wk =   0.0468750
        k(   21) = (  -0.7071068   0.0000000   0.0000000), wk =   0.0117188
        k(   22) = (   0.3535534   0.1767767   0.0000000), wk =   0.0937500
        k(   23) = (  -0.2651650  -0.4419417   0.6187184), wk =   0.1875000
        k(   24) = (  -0.1767767  -0.3535534   0.5303301), wk =   0.0937500
        k(   25) = (  -0.1767767  -0.5303301   0.7071068), wk =   0.0937500
        k(   26) = (  -0.0883883  -0.4419417   0.6187184), wk =   0.1875000
        k(   27) = (   0.0000000  -0.3535534   0.5303301), wk =   0.0937500
        k(   28) = (  -0.7071068   0.1767767   0.0000000), wk =   0.0468750
        k(   29) = (  -0.7071068   0.3535534   0.0000000), wk =   0.0234375

                       cryst. coord.
        k(    1) = (   0.0000000   0.0000000   0.0000000), wk =   0.0039062
        k(    2) = (   0.0000000   0.0000000   0.1250000), wk =   0.0312500
        k(    3) = (   0.0000000   0.0000000   0.2500000), wk =   0.0312500
        k(    4) = (   0.0000000   0.0000000   0.3750000), wk =   0.0312500
        k(    5) = (   0.0000000   0.0000000  -0.5000000), wk =   0.0156250
        k(    6) = (   0.0000000   0.1250000   0.1250000), wk =   0.0234375
        k(    7) = (   0.0000000   0.1250000   0.2500000), wk =   0.0937500
        k(    8) = (   0.0000000   0.1250000   0.3750000), wk =   0.0937500
        k(    9) = (   0.0000000   0.1250000  -0.5000000), wk =   0.0937500
        k(   10) = (   0.0000000   0.1250000  -0.3750000), wk =   0.0937500
        k(   11) = (   0.0000000   0.1250000  -0.2500000), wk =   0.0937500
        k(   12) = (   0.0000000   0.1250000  -0.1250000), wk =   0.0468750
        k(   13) = (   0.0000000   0.2500000   0.2500000), wk =   0.0234375
        k(   14) = (   0.0000000   0.2500000   0.3750000), wk =   0.0937500
        k(   15) = (   0.0000000   0.2500000  -0.5000000), wk =   0.0937500
        k(   16) = (   0.0000000   0.2500000  -0.3750000), wk =   0.0937500
        k(   17) = (   0.0000000   0.2500000  -0.2500000), wk =   0.0468750
        k(   18) = (   0.0000000   0.3750000   0.3750000), wk =   0.0234375
        k(   19) = (   0.0000000   0.3750000  -0.5000000), wk =   0.0937500
        k(   20) = (   0.0000000   0.3750000  -0.3750000), wk =   0.0468750
        k(   21) = (   0.0000000  -0.5000000  -0.5000000), wk =   0.0117188
        k(   22) = (   0.1250000   0.2500000   0.3750000), wk =   0.0937500
        k(   23) = (   0.1250000   0.2500000  -0.5000000), wk =   0.1875000
        k(   24) = (   0.1250000   0.2500000  -0.3750000), wk =   0.0937500
        k(   25) = (   0.1250000   0.3750000  -0.5000000), wk =   0.0937500
        k(   26) = (   0.1250000   0.3750000  -0.3750000), wk =   0.1875000
        k(   27) = (   0.1250000   0.3750000  -0.2500000), wk =   0.0937500
        k(   28) = (   0.1250000  -0.5000000  -0.3750000), wk =   0.0468750
        k(   29) = (   0.2500000  -0.5000000  -0.2500000), wk =   0.0234375

     Dense  grid:    66923 G-vectors     FFT dimensions: (  60,  60,  60)

     Smooth grid:    36325 G-vectors     FFT dimensions: (  48,  48,  48)

     Dynamical RAM for                 wfc:       0.10 MB

     Dynamical RAM for     wfc (w. buffer):       3.12 MB

     Dynamical RAM for           str. fact:       0.34 MB

     Dynamical RAM for           local pot:       0.00 MB

     Dynamical RAM for          nlocal pot:       0.42 MB

     Dynamical RAM for                qrad:       3.29 MB

     Dynamical RAM for          rho,v,vnew:       1.33 MB

     Dynamical RAM for               rhoin:       0.44 MB

     Dynamical RAM for            rho*nmix:       2.72 MB

     Dynamical RAM for           G-vectors:       0.68 MB

     Dynamical RAM for          h,s,v(r/c):       0.01 MB

     Dynamical RAM for          <psi|beta>:       0.00 MB

     Dynamical RAM for                 psi:       0.21 MB

     Dynamical RAM for                hpsi:       0.21 MB

     Dynamical RAM for                spsi:       0.21 MB

     Dynamical RAM for      wfcinit/wfcrot:       0.21 MB

     Dynamical RAM for           addusdens:      31.83 MB

     Estimated static dynamical RAM per process >      11.51 MB

     Estimated max dynamical RAM per process >      46.06 MB

     Estimated total dynamical RAM >     276.37 MB

     Initial potential from superposition of free atoms

     starting charge      17.9949, renormalised to      18.0000
     Starting wfcs are   13 randomized atomic wfcs

     total cpu time spent up to now is        1.2 secs

     per-process dynamical memory:    49.1 Mb

     Self-consistent Calculation

     iteration #  1     ecut=    70.00 Ry     beta= 0.30
     Davidson diagonalization with overlap

---- Real-time Memory Report at c_bands before calling an iterative solver
            91 MiB given to the printing process from OS
            47 MiB allocation reported by mallinfo(arena+hblkhd)
          2848 MiB available memory on the node where the printing process lives
------------------
     ethr =  1.00E-02,  avg # of iterations =  1.1

     Threshold (ethr) on eigenvalues was too large:
     Diagonalizing with lowered threshold

     Davidson diagonalization with overlap

---- Real-time Memory Report at c_bands before calling an iterative solver
            95 MiB given to the printing process from OS
            53 MiB allocation reported by mallinfo(arena+hblkhd)
          2848 MiB available memory on the node where the printing process lives
------------------
     ethr =  2.05E-04,  avg # of iterations =  5.1

     total cpu time spent up to now is        2.8 secs

     total energy              =    -128.97458642 Ry
     estimated scf accuracy    <       0.04146393 Ry

     iteration #  2     ecut=    70.00 Ry     beta= 0.30
     Davidson diagonalization with overlap

---- Real-time Memory Report at c_bands before calling an iterative solver
            96 MiB given to the printing process from OS
            54 MiB allocation reported by mallinfo(arena+hblkhd)
          2841 MiB available memory on the node where the printing process lives
------------------
     ethr =  2.30E-04,  avg # of iterations =  1.8

     total cpu time spent up to now is        3.4 secs

     total energy              =    -128.97283030 Ry
     estimated scf accuracy    <       0.01252145 Ry

     iteration #  3     ecut=    70.00 Ry     beta= 0.30
     Davidson diagonalization with overlap

---- Real-time Memory Report at c_bands before calling an iterative solver
            97 MiB given to the printing process from OS
            54 MiB allocation reported by mallinfo(arena+hblkhd)
          2841 MiB available memory on the node where the printing process lives
------------------
     ethr =  6.96E-05,  avg # of iterations =  2.3

     total cpu time spent up to now is        4.1 secs

     total energy              =    -128.97628690 Ry
     estimated scf accuracy    <       0.00135842 Ry

     iteration #  4     ecut=    70.00 Ry     beta= 0.30
     Davidson diagonalization with overlap

---- Real-time Memory Report at c_bands before calling an iterative solver
            97 MiB given to the printing process from OS
            54 MiB allocation reported by mallinfo(arena+hblkhd)
          2840 MiB available memory on the node where the printing process lives
------------------
     ethr =  7.55E-06,  avg # of iterations =  4.3

     total cpu time spent up to now is        5.0 secs

     total energy              =    -128.97696721 Ry
     estimated scf accuracy    <       0.00020864 Ry

     iteration #  5     ecut=    70.00 Ry     beta= 0.30
     Davidson diagonalization with overlap

---- Real-time Memory Report at c_bands before calling an iterative solver
            97 MiB given to the printing process from OS
            54 MiB allocation reported by mallinfo(arena+hblkhd)
          2839 MiB available memory on the node where the printing process lives
------------------
     ethr =  1.16E-06,  avg # of iterations =  5.4

     total cpu time spent up to now is        6.0 secs

     total energy              =    -128.97707245 Ry
     estimated scf accuracy    <       0.00007036 Ry

     iteration #  6     ecut=    70.00 Ry     beta= 0.30
     Davidson diagonalization with overlap

---- Real-time Memory Report at c_bands before calling an iterative solver
            97 MiB given to the printing process from OS
            55 MiB allocation reported by mallinfo(arena+hblkhd)
          2839 MiB available memory on the node where the printing process lives
------------------
     ethr =  3.91E-07,  avg # of iterations =  7.2

     total cpu time spent up to now is        7.2 secs

     total energy              =    -128.97710399 Ry
     estimated scf accuracy    <       0.00014905 Ry

     iteration #  7     ecut=    70.00 Ry     beta= 0.30
     Davidson diagonalization with overlap

---- Real-time Memory Report at c_bands before calling an iterative solver
            98 MiB given to the printing process from OS
            55 MiB allocation reported by mallinfo(arena+hblkhd)
          2838 MiB available memory on the node where the printing process lives
------------------
     ethr =  3.91E-07,  avg # of iterations =  1.7

     total cpu time spent up to now is        7.8 secs

     total energy              =    -128.97706183 Ry
     estimated scf accuracy    <       0.00006696 Ry

     iteration #  8     ecut=    70.00 Ry     beta= 0.30
     Davidson diagonalization with overlap

---- Real-time Memory Report at c_bands before calling an iterative solver
            98 MiB given to the printing process from OS
            55 MiB allocation reported by mallinfo(arena+hblkhd)
          2798 MiB available memory on the node where the printing process lives
------------------
     ethr =  3.72E-07,  avg # of iterations =  5.2

     total cpu time spent up to now is        8.6 secs

     total energy              =    -128.97709556 Ry
     estimated scf accuracy    <       0.00001531 Ry

     iteration #  9     ecut=    70.00 Ry     beta= 0.30
     Davidson diagonalization with overlap

---- Real-time Memory Report at c_bands before calling an iterative solver
            98 MiB given to the printing process from OS
            55 MiB allocation reported by mallinfo(arena+hblkhd)
          2673 MiB available memory on the node where the printing process lives
------------------
     ethr =  8.51E-08,  avg # of iterations =  3.1

     total cpu time spent up to now is        9.2 secs

     total energy              =    -128.97709249 Ry
     estimated scf accuracy    <       0.00001423 Ry

     iteration # 10     ecut=    70.00 Ry     beta= 0.30
     Davidson diagonalization with overlap

---- Real-time Memory Report at c_bands before calling an iterative solver
            98 MiB given to the printing process from OS
            55 MiB allocation reported by mallinfo(arena+hblkhd)
          2672 MiB available memory on the node where the printing process lives
------------------
     ethr =  7.90E-08,  avg # of iterations =  2.3

     total cpu time spent up to now is        9.8 secs

     total energy              =    -128.97710948 Ry
     estimated scf accuracy    <       0.00000535 Ry

     iteration # 11     ecut=    70.00 Ry     beta= 0.30
     Davidson diagonalization with overlap

---- Real-time Memory Report at c_bands before calling an iterative solver
            98 MiB given to the printing process from OS
            55 MiB allocation reported by mallinfo(arena+hblkhd)
          2674 MiB available memory on the node where the printing process lives
------------------
     ethr =  2.97E-08,  avg # of iterations =  7.2

     total cpu time spent up to now is       10.6 secs

     total energy              =    -128.97708130 Ry
     estimated scf accuracy    <       0.00005991 Ry

     iteration # 12     ecut=    70.00 Ry     beta= 0.30
     Davidson diagonalization with overlap

---- Real-time Memory Report at c_bands before calling an iterative solver
            98 MiB given to the printing process from OS
            55 MiB allocation reported by mallinfo(arena+hblkhd)
          2682 MiB available memory on the node where the printing process lives
------------------
     ethr =  2.97E-08,  avg # of iterations =  8.7

     total cpu time spent up to now is       11.9 secs

     total energy              =    -128.97709375 Ry
     estimated scf accuracy    <       0.00000108 Ry

     iteration # 13     ecut=    70.00 Ry     beta= 0.30
     Davidson diagonalization with overlap

---- Real-time Memory Report at c_bands before calling an iterative solver
            98 MiB given to the printing process from OS
            55 MiB allocation reported by mallinfo(arena+hblkhd)
          2690 MiB available memory on the node where the printing process lives
------------------
     ethr =  5.98E-09,  avg # of iterations =  5.0

     total cpu time spent up to now is       12.8 secs

     total energy              =    -128.97709186 Ry
     estimated scf accuracy    <       0.00000434 Ry

     iteration # 14     ecut=    70.00 Ry     beta= 0.30
     Davidson diagonalization with overlap

---- Real-time Memory Report at c_bands before calling an iterative solver
            98 MiB given to the printing process from OS
            55 MiB allocation reported by mallinfo(arena+hblkhd)
          2698 MiB available memory on the node where the printing process lives
------------------
     ethr =  5.98E-09,  avg # of iterations =  5.8

     total cpu time spent up to now is       13.8 secs

     total energy              =    -128.97709280 Ry
     estimated scf accuracy    <       0.00000001 Ry

     iteration # 15     ecut=    70.00 Ry     beta= 0.30
     Davidson diagonalization with overlap

---- Real-time Memory Report at c_bands before calling an iterative solver
            98 MiB given to the printing process from OS
            55 MiB allocation reported by mallinfo(arena+hblkhd)
          2705 MiB available memory on the node where the printing process lives
------------------
     ethr =  5.96E-11,  avg # of iterations =  7.7

     total cpu time spent up to now is       14.9 secs

     total energy              =    -128.97709282 Ry
     estimated scf accuracy    <       0.00000004 Ry

     iteration # 16     ecut=    70.00 Ry     beta= 0.30
     Davidson diagonalization with overlap

---- Real-time Memory Report at c_bands before calling an iterative solver
            98 MiB given to the printing process from OS
            55 MiB allocation reported by mallinfo(arena+hblkhd)
          2711 MiB available memory on the node where the printing process lives
------------------
     ethr =  5.96E-11,  avg # of iterations =  2.0

     total cpu time spent up to now is       15.4 secs

     total energy              =    -128.97709280 Ry
     estimated scf accuracy    <       0.00000002 Ry

     iteration # 17     ecut=    70.00 Ry     beta= 0.30
     Davidson diagonalization with overlap

---- Real-time Memory Report at c_bands before calling an iterative solver
            98 MiB given to the printing process from OS
            55 MiB allocation reported by mallinfo(arena+hblkhd)
          2711 MiB available memory on the node where the printing process lives
------------------
     ethr =  5.96E-11,  avg # of iterations =  7.4

     total cpu time spent up to now is       16.3 secs

     total energy              =    -128.97709282 Ry
     estimated scf accuracy    <       0.00000001 Ry

     iteration # 18     ecut=    70.00 Ry     beta= 0.30
     Davidson diagonalization with overlap

---- Real-time Memory Report at c_bands before calling an iterative solver
            98 MiB given to the printing process from OS
            55 MiB allocation reported by mallinfo(arena+hblkhd)
          2717 MiB available memory on the node where the printing process lives
------------------
     ethr =  5.96E-11,  avg # of iterations =  1.0

     total cpu time spent up to now is       16.8 secs

     total energy              =    -128.97709282 Ry
     estimated scf accuracy    <       0.00000001 Ry

     iteration # 19     ecut=    70.00 Ry     beta= 0.30
     Davidson diagonalization with overlap

---- Real-time Memory Report at c_bands before calling an iterative solver
            98 MiB given to the printing process from OS
            55 MiB allocation reported by mallinfo(arena+hblkhd)
          2721 MiB available memory on the node where the printing process lives
------------------
     ethr =  5.76E-11,  avg # of iterations =  1.0

     total cpu time spent up to now is       17.3 secs

     total energy              =    -128.97709282 Ry
     estimated scf accuracy    <       0.00000001 Ry

     iteration # 20     ecut=    70.00 Ry     beta= 0.30
     Davidson diagonalization with overlap

---- Real-time Memory Report at c_bands before calling an iterative solver
            98 MiB given to the printing process from OS
            55 MiB allocation reported by mallinfo(arena+hblkhd)
          2722 MiB available memory on the node where the printing process lives
------------------
     ethr =  5.58E-11,  avg # of iterations =  1.0

     total cpu time spent up to now is       17.7 secs

     total energy              =    -128.97709281 Ry
     estimated scf accuracy    <          6.1E-09 Ry

     iteration # 21     ecut=    70.00 Ry     beta= 0.30
     Davidson diagonalization with overlap

---- Real-time Memory Report at c_bands before calling an iterative solver
            98 MiB given to the printing process from OS
            55 MiB allocation reported by mallinfo(arena+hblkhd)
          2726 MiB available memory on the node where the printing process lives
------------------
     ethr =  3.41E-11,  avg # of iterations =  1.5

     total cpu time spent up to now is       18.2 secs

     total energy              =    -128.97709281 Ry
     estimated scf accuracy    <          3.1E-09 Ry

     iteration # 22     ecut=    70.00 Ry     beta= 0.30
     Davidson diagonalization with overlap

---- Real-time Memory Report at c_bands before calling an iterative solver
            98 MiB given to the printing process from OS
            55 MiB allocation reported by mallinfo(arena+hblkhd)
          2726 MiB available memory on the node where the printing process lives
------------------
     ethr =  1.73E-11,  avg # of iterations =  5.8

     total cpu time spent up to now is       19.1 secs

     total energy              =    -128.97709281 Ry
     estimated scf accuracy    <          7.8E-10 Ry

     iteration # 23     ecut=    70.00 Ry     beta= 0.30
     Davidson diagonalization with overlap

---- Real-time Memory Report at c_bands before calling an iterative solver
            98 MiB given to the printing process from OS
            55 MiB allocation reported by mallinfo(arena+hblkhd)
          2752 MiB available memory on the node where the printing process lives
------------------
     ethr =  4.34E-12,  avg # of iterations =  2.2

     total cpu time spent up to now is       19.7 secs

     total energy              =    -128.97709281 Ry
     estimated scf accuracy    <          6.8E-10 Ry

     iteration # 24     ecut=    70.00 Ry     beta= 0.30
     Davidson diagonalization with overlap

---- Real-time Memory Report at c_bands before calling an iterative solver
            98 MiB given to the printing process from OS
            55 MiB allocation reported by mallinfo(arena+hblkhd)
          2771 MiB available memory on the node where the printing process lives
------------------
     ethr =  3.76E-12,  avg # of iterations =  4.2

     total cpu time spent up to now is       20.4 secs

     End of self-consistent calculation

          k = 0.0000 0.0000 0.0000 (  4573 PWs)   bands (ev):

    -6.0529  -3.1519  -3.1519  -3.1519  -2.8910  -2.8910   5.1244   5.1244
     5.1244

     occupation numbers 
     1.0000   1.0000   1.0000   1.0000   1.0000   1.0000   1.0000   1.0000
     1.0000

          k = 0.0884 0.0884-0.0884 (  4558 PWs)   bands (ev):

    -5.9946  -3.1408  -3.1408  -3.1064  -2.8918  -2.8918   3.8996   4.9866
     4.9866

     occupation numbers 
     1.0000   1.0000   1.0000   1.0000   1.0000   1.0000   1.0000   1.0000
     1.0000

          k = 0.1768 0.1768-0.1768 (  4543 PWs)   bands (ev):

    -5.8530  -3.1161  -3.1161  -2.9534  -2.8910  -2.8910   2.3961   4.6951
     4.6951

     occupation numbers 
     1.0000   1.0000   1.0000   1.0000   1.0000   1.0000   1.0000   1.0000
     1.0000

          k = 0.2652 0.2652-0.2652 (  4552 PWs)   bands (ev):

    -5.7127  -3.0955  -3.0955  -2.8852  -2.8852  -2.6998   1.1953   4.4440
     4.4440

     occupation numbers 
     1.0000   1.0000   1.0000   1.0000   1.0000   1.0000   1.0000   1.0000
     1.0000

          k =-0.3536-0.3536 0.3536 (  4512 PWs)   bands (ev):

    -5.6556  -3.0885  -3.0885  -2.8810  -2.8810  -2.5399   0.6967   4.3486
     4.3486

     occupation numbers 
     1.0000   1.0000   1.0000   1.0000   1.0000   1.0000   1.0000   1.0000
     1.0000

          k = 0.1768 0.0000 0.0000 (  4557 PWs)   bands (ev):

    -5.9752  -3.1300  -3.1300  -3.1059  -2.8974  -2.8863   3.8711   4.7486
     4.7486

     occupation numbers 
     1.0000   1.0000   1.0000   1.0000   1.0000   1.0000   1.0000   1.0000
     1.0000

          k = 0.2652 0.0884-0.0884 (  4561 PWs)   bands (ev):

    -5.8617  -3.1117  -3.1040  -2.9996  -2.8935  -2.8821   2.7462   4.4157
     4.4463

     occupation numbers 
     1.0000   1.0000   1.0000   1.0000   1.0000   1.0000   1.0000   1.0000
     1.0000

          k = 0.3536 0.1768-0.1768 (  4556 PWs)   bands (ev):

    -5.7218  -3.0921  -3.0812  -2.9139  -2.8782  -2.7443   1.5483   4.0614
     4.1853

     occupation numbers 
     1.0000   1.0000   1.0000   1.0000   1.0000   1.0000   1.0000   1.0000
     1.0000

          k =-0.2652-0.4419 0.4419 (  4532 PWs)   bands (ev):

    -5.6384  -3.0807  -3.0731  -2.8960  -2.8793  -2.5261   0.8256   3.7590
     4.1546

     occupation numbers 
     1.0000   1.0000   1.0000   1.0000   1.0000   1.0000   1.0000   1.0000
     1.0000

          k =-0.1768-0.3536 0.3536 (  4536 PWs)   bands (ev):

    -5.6571  -3.0805  -3.0800  -2.8893  -2.8882  -2.5801   0.9889   3.6652
     4.3326

     occupation numbers 
     1.0000   1.0000   1.0000   1.0000   1.0000   1.0000   1.0000   1.0000
     1.0000

          k =-0.0884-0.2652 0.2652 (  4553 PWs)   bands (ev):

    -5.7680  -3.1021  -3.0916  -2.9010  -2.8985  -2.8191   1.9157   3.8429
     4.6471

     occupation numbers 
     1.0000   1.0000   1.0000   1.0000   1.0000   1.0000   1.0000   1.0000
     1.0000

          k = 0.0000-0.1768 0.1768 (  4549 PWs)   bands (ev):

    -5.9085  -3.1283  -3.1157  -3.0319  -2.8979  -2.8848   3.0790   4.3464
     4.9361

     occupation numbers 
     1.0000   1.0000   1.0000   1.0000   1.0000   1.0000   1.0000   1.0000
     1.0000

          k = 0.3536 0.0000 0.0000 (  4552 PWs)   bands (ev):

    -5.7883  -3.0743  -3.0743  -2.9924  -2.8747  -2.8629   2.4560   4.0365
     4.0365

     occupation numbers 
     1.0000   1.0000   1.0000   1.0000   1.0000   1.0000   1.0000   1.0000
     1.0000

          k = 0.4419 0.0884-0.0884 (  4554 PWs)   bands (ev):

    -5.6775  -3.0570  -3.0467  -2.9584  -2.8702  -2.7103   1.6788   3.5795
     3.7771

     occupation numbers 
     1.0000   1.0000   1.0000   1.0000   1.0000   1.0000   1.0000   1.0000
     1.0000

          k =-0.1768-0.5303 0.5303 (  4528 PWs)   bands (ev):

    -5.5960  -3.0548  -3.0360  -2.9315  -2.8736  -2.4861   1.0442   3.0436
     3.7455

     occupation numbers 
     1.0000   1.0000   1.0000   1.0000   1.0000   1.0000   1.0000   1.0000
     1.0000

          k =-0.0884-0.4419 0.4419 (  4534 PWs)   bands (ev):

    -5.5886  -3.0591  -3.0452  -2.9080  -2.8869  -2.4355   0.9662   2.7557
     3.9530

     occupation numbers 
     1.0000   1.0000   1.0000   1.0000   1.0000   1.0000   1.0000   1.0000
     1.0000

          k = 0.0000-0.3536 0.3536 (  4544 PWs)   bands (ev):

    -5.6585  -3.0717  -3.0697  -2.8983  -2.8975  -2.6174   1.4102   2.9755
     4.3170

     occupation numbers 
     1.0000   1.0000   1.0000   1.0000   1.0000   1.0000   1.0000   1.0000
     1.0000

          k = 0.5303 0.0000 0.0000 (  4544 PWs)   bands (ev):

    -5.6067  -3.0139  -3.0139  -2.9863  -2.8632  -2.5957   1.3112   3.4686
     3.4686

     occupation numbers 
     1.0000   1.0000   1.0000   1.0000   1.0000   1.0000   1.0000   1.0000
     1.0000

          k =-0.0884-0.6187 0.6187 (  4531 PWs)   bands (ev):

    -5.5528  -3.0187  -3.0008  -2.9672  -2.8641  -2.4314   0.9544   3.0411
     3.3928

     occupation numbers 
     1.0000   1.0000   1.0000   1.0000   1.0000   1.0000   1.0000   1.0000
     1.0000

          k = 0.0000-0.5303 0.5303 (  4526 PWs)   bands (ev):

    -5.5460  -3.0377  -3.0125  -2.9370  -2.8759  -2.3565   0.9146   2.5663
     3.5780

     occupation numbers 
     1.0000   1.0000   1.0000   1.0000   1.0000   1.0000   1.0000   1.0000
     1.0000

          k =-0.7071 0.0000 0.0000 (  4568 PWs)   bands (ev):

    -5.5347  -2.9957  -2.9874  -2.9874  -2.8584  -2.4022   0.8149   3.2585
     3.2585

     occupation numbers 
     1.0000   1.0000   1.0000   1.0000   1.0000   1.0000   1.0000   1.0000
     1.0000

          k = 0.3536 0.1768 0.0000 (  4554 PWs)   bands (ev):

    -5.7495  -3.0878  -3.0759  -2.9391  -2.8807  -2.8062   2.0363   3.6330
     4.3051

     occupation numbers 
     1.0000   1.0000   1.0000   1.0000   1.0000   1.0000   1.0000   1.0000
     1.0000

          k =-0.2652-0.4419 0.6187 (  4543 PWs)   bands (ev):

    -5.6399  -3.0681  -3.0580  -2.9183  -2.8801  -2.5822   1.2525   3.1779
     4.0042

     occupation numbers 
     1.0000   1.0000   1.0000   1.0000   1.0000   1.0000   1.0000   1.0000
     1.0000

          k =-0.1768-0.3536 0.5303 (  4546 PWs)   bands (ev):

    -5.5957  -3.0630  -3.0506  -2.9060  -2.8844  -2.4449   0.8852   3.0565
     3.8562

     occupation numbers 
     1.0000   1.0000   1.0000   1.0000   1.0000   1.0000   1.0000   1.0000
     1.0000

          k =-0.1768-0.5303 0.7071 (  4546 PWs)   bands (ev):

    -5.5963  -3.0353  -3.0304  -2.9508  -2.8702  -2.5272   1.2160   3.1250
     3.4929

     occupation numbers 
     1.0000   1.0000   1.0000   1.0000   1.0000   1.0000   1.0000   1.0000
     1.0000

          k =-0.0884-0.4419 0.6187 (  4539 PWs)   bands (ev):

    -5.5535  -3.0381  -3.0232  -2.9286  -2.8804  -2.3727   0.9564   2.7154
     3.3741

     occupation numbers 
     1.0000   1.0000   1.0000   1.0000   1.0000   1.0000   1.0000   1.0000
     1.0000

          k = 0.0000-0.3536 0.5303 (  4535 PWs)   bands (ev):

    -5.5713  -3.0481  -3.0350  -2.9150  -2.8879  -2.4075   1.0335   2.6271
     3.6195

     occupation numbers 
     1.0000   1.0000   1.0000   1.0000   1.0000   1.0000   1.0000   1.0000
     1.0000

          k =-0.7071 0.1768 0.0000 (  4538 PWs)   bands (ev):

    -5.5355  -3.0154  -3.0091  -2.9524  -2.8690  -2.3600   0.8716   3.0214
     3.0815

     occupation numbers 
     1.0000   1.0000   1.0000   1.0000   1.0000   1.0000   1.0000   1.0000
     1.0000

          k =-0.7071 0.3536 0.0000 (  4540 PWs)   bands (ev):

    -5.5363  -3.0284  -3.0227  -2.9201  -2.8893  -2.3196   0.9368   2.7988
     2.9235

     occupation numbers 
     1.0000   1.0000   1.0000   1.0000   1.0000   1.0000   1.0000   1.0000
     1.0000

     highest occupied level (ev):     5.1244

!    total energy              =    -128.97709281 Ry
     estimated scf accuracy    <          8.4E-11 Ry

     The total energy is the sum of the following terms:
     one-electron contribution =     -48.73605341 Ry
     hartree contribution      =      36.06069661 Ry
     xc contribution           =     -39.50050907 Ry
     ewald contribution        =     -76.80122694 Ry

     convergence has been achieved in  24 iterations

     Writing all to output data dir /home/User/opencode_workspace/DFT/calculations/cdte/conv_scf_e70/out/pwscf.save/ :
     XML data file, charge density, pseudopotentials, collected wavefunctions

     init_run     :      0.84s CPU      0.92s WALL (       1 calls)
     electrons    :     17.30s CPU     19.21s WALL (       1 calls)

     Called by init_run:
     wfcinit      :      0.17s CPU      0.20s WALL (       1 calls)
     wfcinit:atom :      0.00s CPU      0.00s WALL (      29 calls)
     wfcinit:wfcr :      0.15s CPU      0.18s WALL (      29 calls)
     potinit      :      0.20s CPU      0.20s WALL (       1 calls)
     hinit0       :      0.34s CPU      0.35s WALL (       1 calls)

     Called by electrons:
     c_bands      :     12.15s CPU     13.77s WALL (      25 calls)
     sum_band     :      3.35s CPU      3.60s WALL (      25 calls)
     v_of_rho     :      0.35s CPU      0.37s WALL (      25 calls)
     v_h          :      0.02s CPU      0.02s WALL (      25 calls)
     v_xc         :      0.33s CPU      0.35s WALL (      25 calls)
     newd         :      1.44s CPU      1.49s WALL (      25 calls)
     mix_rho      :      0.05s CPU      0.05s WALL (      25 calls)

     Called by c_bands:
     init_us_2    :      0.31s CPU      0.35s WALL (    1479 calls)
     cegterg      :     11.47s CPU     13.04s WALL (     725 calls)

     Called by sum_band:
     sum_band:wei :      0.00s CPU      0.00s WALL (      25 calls)
     sum_band:loo :      1.66s CPU      1.88s WALL (      25 calls)
     sum_band:buf :      0.01s CPU      0.01s WALL (     725 calls)
     sum_band:ini :      0.15s CPU      0.17s WALL (     725 calls)
     sum_band:cal :      0.13s CPU      0.15s WALL (     725 calls)
     sum_band:bec :      0.01s CPU      0.01s WALL (     725 calls)
     addusdens    :      1.42s CPU      1.44s WALL (      25 calls)
                                        0.00s GPU  (      25 calls)
     addusd:skk   :      0.00s CPU      0.00s WALL (      50 calls)
                                        0.00s GPU  (      50 calls)

     Called by *egterg:
     cdiaghg      :      0.34s CPU      0.38s WALL (    3592 calls)
     cegterg:over :      0.39s CPU      0.43s WALL (    2896 calls)
     cegterg:upda :      0.10s CPU      0.11s WALL (    2896 calls)
     cegterg:last :      0.19s CPU      0.21s WALL (    2027 calls)
     h_psi        :      9.98s CPU     11.41s WALL (    3650 calls)
     s_psi        :      0.16s CPU      0.19s WALL (    3650 calls)
     g_psi        :      0.07s CPU      0.07s WALL (    2896 calls)

     Called by h_psi:
     h_psi:calbec :      0.58s CPU      0.66s WALL (    3650 calls)
     vloc_psi     :      9.13s CPU     10.46s WALL (    3650 calls)
                                        0.00s GPU  (    3650 calls)
     add_vuspsi   :      0.20s CPU      0.23s WALL (    3650 calls)

     General routines
     calbec       :      0.70s CPU      0.80s WALL (    4375 calls)
     fft          :      0.41s CPU      0.44s WALL (     324 calls)
     ffts         :      0.19s CPU      0.19s WALL (      50 calls)
     fftw         :      9.77s CPU     11.19s WALL (   51123 calls)
     interpolate  :      0.19s CPU      0.20s WALL (      25 calls)

     Parallel routines

     PWSCF        :     18.42s CPU     20.46s WALL


   This run was terminated on:  19: 1:47  22Sep2026            

=------------------------------------------------------------------------------=
   JOB DONE.
=------------------------------------------------------------------------------=
