
     Program PWSCF v.7.5 starts on 22Sep2026 at 16: 2:44 

     This program is part of the open-source Quantum ESPRESSO suite
     for quantum simulation of materials; please cite
         "P. Giannozzi et al., J. Phys.:Condens. Matter 21 395502 (2009);
         "P. Giannozzi et al., J. Phys.:Condens. Matter 29 465901 (2017);
         "P. Giannozzi et al., J. Chem. Phys. 152 154105 (2020);
          URL http://www.quantum-espresso.org", 
     in publications or presentations arising from this work. More details at
     http://www.quantum-espresso.org/quote

     Parallel version (MPI & OpenMP), running on       4 processor cores
     Number of MPI processes:                 4
     Threads/MPI process:                     1

     MPI processes distributed on     1 nodes
     1672 MiB available memory on the printing compute node when the environment starts

     Reading input from pw.in

     Current dimensions of program PWSCF are:
     Max number of different atomic species (ntypx) = 10
     Max number of k-points (npk) =  40000
     Max angular momentum in pseudopotentials (lmaxx) =  4
     file Cd.pbe-n-rrkjus_psl.1.0.0.UPF: wavefunction(s)  4D renormalized
     file Te.pbe-n-rrkjus_psl.1.0.0.UPF: wavefunction(s)  5S renormalized
     Message from routine setup:
     using ibrav=0 with symmetry is DISCOURAGED, use correct ibrav instead

     R & G space division:  proc/nbgrp/npool/nimage =       4
     Subspace diagonalization in iterative solution of the eigenvalue problem:
     a serial algorithm will be used


     Parallelization info
     --------------------
     sticks:   dense  smooth     PW     G-vecs:    dense   smooth      PW
     Min         309     156     49                 7202     2544     451
     Max         310     157     50                 7205     2545     453
     Sum        1237     625    199                28811    10177    1807

     Using Slab Decomposition



     bravais-lattice index     =            0
     lattice parameter (alat)  =       8.6615  a.u.
     unit-cell volume          =     459.4769 (a.u.)^3
     number of atoms/cell      =            2
     number of atomic types    =            2
     number of electrons       =        18.00
     number of Kohn-Sham states=            9
     kinetic-energy cutoff     =      30.0000  Ry
     charge density cutoff     =     240.0000  Ry
     scf convergence threshold =      1.0E-10
     mixing beta               =       0.3000
     number of iterations used =            8  plain     mixing
     Exchange-correlation= PBE
                           (   1   4   3   4   0   0   0)

     celldm(1)=   8.661496  celldm(2)=   0.000000  celldm(3)=   0.000000
     celldm(4)=   0.000000  celldm(5)=   0.000000  celldm(6)=   0.000000

     crystal axes: (cart. coord. in units of alat)
               a(1) = (   0.000000   0.707107   0.707107 )  
               a(2) = (   0.707107   0.000000   0.707107 )  
               a(3) = (   0.707107   0.707107   0.000000 )  

     reciprocal axes: (cart. coord. in units 2 pi/alat)
               b(1) = ( -0.707107  0.707107  0.707107 )  
               b(2) = (  0.707107 -0.707107  0.707107 )  
               b(3) = (  0.707107  0.707107 -0.707107 )  


     PseudoPot. # 1 for Cd read from file:
     /home/User/opencode_workspace/DFT/pseudopotentials/Cd.pbe-n-rrkjus_psl.1.0.0.UPF
     MD5 check sum: a744746c89d2344a134ead0d8ab94e7a
     Pseudo is Ultrasoft + core correction, Zval = 12.0
     Generated using &quot;atomic&quot; code by A. Dal Corso  v.6.3
     Using radial grid of 1239 points,  6 beta functions with: 
                l(1) =   0
                l(2) =   0
                l(3) =   1
                l(4) =   1
                l(5) =   2
                l(6) =   2
     Q(r) pseudized with 0 coefficients 


     PseudoPot. # 2 for Te read from file:
     /home/User/opencode_workspace/DFT/pseudopotentials/Te.pbe-n-rrkjus_psl.1.0.0.UPF
     MD5 check sum: 203a1e86ef55f0cd9de2762a27c58f54
     Pseudo is Ultrasoft + core correction, Zval =  6.0
     Generated using &quot;atomic&quot; code by A. Dal Corso  v.6.3
     Using radial grid of 1245 points,  6 beta functions with: 
                l(1) =   0
                l(2) =   0
                l(3) =   1
                l(4) =   1
                l(5) =   2
                l(6) =   2
     Q(r) pseudized with 0 coefficients 


     atomic species   valence    mass     pseudopotential
     Cd               12.00   112.41400     Cd( 1.00)
     Te                6.00   127.60000     Te( 1.00)

     24 Sym. Ops. (no inversion) found


                                    s                        frac. trans.

      isym =  1     identity                                     

 cryst.   s( 1) = (     1          0          0      )
                  (     0          1          0      )
                  (     0          0          1      )

 cart.    s( 1) = (  1.0000000  0.0000000  0.0000000 )
                  (  0.0000000  1.0000000  0.0000000 )
                  (  0.0000000  0.0000000  1.0000000 )


      isym =  2     180 deg rotation - cart. axis [0,0,1]        

 cryst.   s( 2) = (     0          1         -1      )
                  (     1          0         -1      )
                  (     0          0         -1      )

 cart.    s( 2) = ( -1.0000000  0.0000000  0.0000000 )
                  (  0.0000000 -1.0000000  0.0000000 )
                  (  0.0000000  0.0000000  1.0000000 )


      isym =  3     180 deg rotation - cart. axis [0,1,0]        

 cryst.   s( 3) = (     0         -1          1      )
                  (     0         -1          0      )
                  (     1         -1          0      )

 cart.    s( 3) = ( -1.0000000  0.0000000  0.0000000 )
                  (  0.0000000  1.0000000  0.0000000 )
                  (  0.0000000  0.0000000 -1.0000000 )


      isym =  4     180 deg rotation - cart. axis [1,0,0]        

 cryst.   s( 4) = (    -1          0          0      )
                  (    -1          0          1      )
                  (    -1          1          0      )

 cart.    s( 4) = (  1.0000000  0.0000000  0.0000000 )
                  (  0.0000000 -1.0000000  0.0000000 )
                  (  0.0000000  0.0000000 -1.0000000 )


      isym =  5     120 deg rotation - cart. axis [-1,-1,-1]     

 cryst.   s( 5) = (     0          0          1      )
                  (     1          0          0      )
                  (     0          1          0      )

 cart.    s( 5) = (  0.0000000  1.0000000  0.0000000 )
                  (  0.0000000  0.0000000  1.0000000 )
                  (  1.0000000  0.0000000  0.0000000 )


      isym =  6     120 deg rotation - cart. axis [-1,1,1]       

 cryst.   s( 6) = (     1         -1          0      )
                  (     0         -1          1      )
                  (     0         -1          0      )

 cart.    s( 6) = (  0.0000000 -1.0000000  0.0000000 )
                  (  0.0000000  0.0000000  1.0000000 )
                  ( -1.0000000  0.0000000  0.0000000 )


      isym =  7     120 deg rotation - cart. axis [1,1,-1]       

 cryst.   s( 7) = (    -1          1          0      )
                  (    -1          0          0      )
                  (    -1          0          1      )

 cart.    s( 7) = (  0.0000000  1.0000000  0.0000000 )
                  (  0.0000000  0.0000000 -1.0000000 )
                  ( -1.0000000  0.0000000  0.0000000 )


      isym =  8     120 deg rotation - cart. axis [1,-1,1]       

 cryst.   s( 8) = (     0          0         -1      )
                  (     0          1         -1      )
                  (     1          0         -1      )

 cart.    s( 8) = (  0.0000000 -1.0000000  0.0000000 )
                  (  0.0000000  0.0000000 -1.0000000 )
                  (  1.0000000  0.0000000  0.0000000 )


      isym =  9     120 deg rotation - cart. axis [1,1,1]        

 cryst.   s( 9) = (     0          1          0      )
                  (     0          0          1      )
                  (     1          0          0      )

 cart.    s( 9) = (  0.0000000  0.0000000  1.0000000 )
                  (  1.0000000  0.0000000  0.0000000 )
                  (  0.0000000  1.0000000  0.0000000 )


      isym = 10     120 deg rotation - cart. axis [-1,1,-1]      

 cryst.   s(10) = (    -1          0          1      )
                  (    -1          1          0      )
                  (    -1          0          0      )

 cart.    s(10) = (  0.0000000  0.0000000  1.0000000 )
                  ( -1.0000000  0.0000000  0.0000000 )
                  (  0.0000000 -1.0000000  0.0000000 )


      isym = 11     120 deg rotation - cart. axis [1,-1,-1]      

 cryst.   s(11) = (     1          0         -1      )
                  (     0          0         -1      )
                  (     0          1         -1      )

 cart.    s(11) = (  0.0000000  0.0000000 -1.0000000 )
                  ( -1.0000000  0.0000000  0.0000000 )
                  (  0.0000000  1.0000000  0.0000000 )


      isym = 12     120 deg rotation - cart. axis [-1,-1,1]      

 cryst.   s(12) = (     0         -1          0      )
                  (     1         -1          0      )
                  (     0         -1          1      )

 cart.    s(12) = (  0.0000000  0.0000000 -1.0000000 )
                  (  1.0000000  0.0000000  0.0000000 )
                  (  0.0000000 -1.0000000  0.0000000 )


      isym = 13     inv. 180 deg rotation - cart. axis [1,1,0]   

 cryst.   s(13) = (     1          0         -1      )
                  (     0          1         -1      )
                  (     0          0         -1      )

 cart.    s(13) = (  0.0000000 -1.0000000  0.0000000 )
                  ( -1.0000000  0.0000000  0.0000000 )
                  (  0.0000000  0.0000000  1.0000000 )


      isym = 14     inv. 180 deg rotation - cart. axis [1,-1,0]  

 cryst.   s(14) = (     0          1          0      )
                  (     1          0          0      )
                  (     0          0          1      )

 cart.    s(14) = (  0.0000000  1.0000000  0.0000000 )
                  (  1.0000000  0.0000000  0.0000000 )
                  (  0.0000000  0.0000000  1.0000000 )


      isym = 15     inv.  90 deg rotation - cart. axis [0,0,-1]  

 cryst.   s(15) = (     0         -1          0      )
                  (     0         -1          1      )
                  (     1         -1          0      )

 cart.    s(15) = (  0.0000000 -1.0000000  0.0000000 )
                  (  1.0000000  0.0000000  0.0000000 )
                  (  0.0000000  0.0000000 -1.0000000 )


      isym = 16     inv.  90 deg rotation - cart. axis [0,0,1]   

 cryst.   s(16) = (    -1          0          1      )
                  (    -1          0          0      )
                  (    -1          1          0      )

 cart.    s(16) = (  0.0000000  1.0000000  0.0000000 )
                  ( -1.0000000  0.0000000  0.0000000 )
                  (  0.0000000  0.0000000 -1.0000000 )


      isym = 17     inv. 180 deg rotation - cart. axis [1,0,1]   

 cryst.   s(17) = (     1         -1          0      )
                  (     0         -1          0      )
                  (     0         -1          1      )

 cart.    s(17) = (  0.0000000  0.0000000 -1.0000000 )
                  (  0.0000000  1.0000000  0.0000000 )
                  ( -1.0000000  0.0000000  0.0000000 )


      isym = 18     inv. 180 deg rotation - cart. axis [-1,0,1]  

 cryst.   s(18) = (     0          0          1      )
                  (     0          1          0      )
                  (     1          0          0      )

 cart.    s(18) = (  0.0000000  0.0000000  1.0000000 )
                  (  0.0000000  1.0000000  0.0000000 )
                  (  1.0000000  0.0000000  0.0000000 )


      isym = 19     inv.  90 deg rotation - cart. axis [0,1,0]   

 cryst.   s(19) = (     0          0         -1      )
                  (     1          0         -1      )
                  (     0          1         -1      )

 cart.    s(19) = (  0.0000000  0.0000000 -1.0000000 )
                  (  0.0000000 -1.0000000  0.0000000 )
                  (  1.0000000  0.0000000  0.0000000 )


      isym = 20     inv.  90 deg rotation - cart. axis [0,-1,0]  

 cryst.   s(20) = (    -1          1          0      )
                  (    -1          0          1      )
                  (    -1          0          0      )

 cart.    s(20) = (  0.0000000  0.0000000  1.0000000 )
                  (  0.0000000 -1.0000000  0.0000000 )
                  ( -1.0000000  0.0000000  0.0000000 )


      isym = 21     inv. 180 deg rotation - cart. axis [0,1,1]   

 cryst.   s(21) = (    -1          0          0      )
                  (    -1          1          0      )
                  (    -1          0          1      )

 cart.    s(21) = (  1.0000000  0.0000000  0.0000000 )
                  (  0.0000000  0.0000000 -1.0000000 )
                  (  0.0000000 -1.0000000  0.0000000 )


      isym = 22     inv. 180 deg rotation - cart. axis [0,1,-1]  

 cryst.   s(22) = (     1          0          0      )
                  (     0          0          1      )
                  (     0          1          0      )

 cart.    s(22) = (  1.0000000  0.0000000  0.0000000 )
                  (  0.0000000  0.0000000  1.0000000 )
                  (  0.0000000  1.0000000  0.0000000 )


      isym = 23     inv.  90 deg rotation - cart. axis [-1,0,0]  

 cryst.   s(23) = (     0          1         -1      )
                  (     0          0         -1      )
                  (     1          0         -1      )

 cart.    s(23) = ( -1.0000000  0.0000000  0.0000000 )
                  (  0.0000000  0.0000000 -1.0000000 )
                  (  0.0000000  1.0000000  0.0000000 )


      isym = 24     inv.  90 deg rotation - cart. axis [1,0,0]   

 cryst.   s(24) = (     0         -1          1      )
                  (     1         -1          0      )
                  (     0         -1          0      )

 cart.    s(24) = ( -1.0000000  0.0000000  0.0000000 )
                  (  0.0000000  0.0000000  1.0000000 )
                  (  0.0000000 -1.0000000  0.0000000 )


   Cartesian axes

     site n.     atom                  positions (alat units)
         1        Cd     tau(   1) = (   0.0000000   0.0000000   0.0000000  )
         2        Te     tau(   2) = (   0.3535534   0.3535534   0.3535534  )

   Crystallographic axes

     site n.     atom                  positions (cryst. coord.)
         1        Cd     tau(   1) = (  0.0000000  0.0000000  0.0000000  )
         2        Te     tau(   2) = (  0.2500000  0.2500000  0.2500000  )

     number of k points=    10
                       cart. coord. in units 2pi/alat
        k(    1) = (   0.0883883   0.0883883   0.0883883), wk =   0.0625000
        k(    2) = (   0.2651650   0.2651650  -0.0883883), wk =   0.1875000
        k(    3) = (  -0.2651650  -0.2651650   0.4419417), wk =   0.1875000
        k(    4) = (  -0.0883883  -0.0883883   0.2651650), wk =   0.1875000
        k(    5) = (   0.4419417   0.0883883   0.0883883), wk =   0.1875000
        k(    6) = (  -0.0883883  -0.4419417   0.6187184), wk =   0.3750000
        k(    7) = (   0.0883883  -0.2651650   0.4419417), wk =   0.3750000
        k(    8) = (  -0.6187184   0.0883883   0.0883883), wk =   0.1875000
        k(    9) = (   0.2651650   0.2651650   0.2651650), wk =   0.0625000
        k(   10) = (  -0.2651650  -0.2651650   0.7954951), wk =   0.1875000

                       cryst. coord.
        k(    1) = (   0.1250000   0.1250000   0.1250000), wk =   0.0625000
        k(    2) = (   0.1250000   0.1250000   0.3750000), wk =   0.1875000
        k(    3) = (   0.1250000   0.1250000  -0.3750000), wk =   0.1875000
        k(    4) = (   0.1250000   0.1250000  -0.1250000), wk =   0.1875000
        k(    5) = (   0.1250000   0.3750000   0.3750000), wk =   0.1875000
        k(    6) = (   0.1250000   0.3750000  -0.3750000), wk =   0.3750000
        k(    7) = (   0.1250000   0.3750000  -0.1250000), wk =   0.3750000
        k(    8) = (   0.1250000  -0.3750000  -0.3750000), wk =   0.1875000
        k(    9) = (   0.3750000   0.3750000   0.3750000), wk =   0.0625000
        k(   10) = (   0.3750000   0.3750000  -0.3750000), wk =   0.1875000

     Dense  grid:    28811 G-vectors     FFT dimensions: (  45,  45,  45)

     Smooth grid:    10177 G-vectors     FFT dimensions: (  32,  32,  32)

     Dynamical RAM for                 wfc:       0.04 MB

     Dynamical RAM for     wfc (w. buffer):       0.48 MB

     Dynamical RAM for           str. fact:       0.22 MB

     Dynamical RAM for           local pot:       0.00 MB

     Dynamical RAM for          nlocal pot:       0.17 MB

     Dynamical RAM for                qrad:       2.49 MB

     Dynamical RAM for          rho,v,vnew:       0.89 MB

     Dynamical RAM for               rhoin:       0.30 MB

     Dynamical RAM for            rho*nmix:       1.76 MB

     Dynamical RAM for           G-vectors:       0.43 MB

     Dynamical RAM for          h,s,v(r/c):       0.01 MB

     Dynamical RAM for          <psi|beta>:       0.00 MB

     Dynamical RAM for                 psi:       0.09 MB

     Dynamical RAM for                hpsi:       0.09 MB

     Dynamical RAM for                spsi:       0.09 MB

     Dynamical RAM for      wfcinit/wfcrot:       0.09 MB

     Dynamical RAM for           addusdens:      20.55 MB

     Estimated static dynamical RAM per process >       6.23 MB

     Estimated max dynamical RAM per process >      28.54 MB

     Estimated total dynamical RAM >     114.16 MB

     Initial potential from superposition of free atoms

     starting charge      17.9949, renormalised to      18.0000
     Starting wfcs are   13 randomized atomic wfcs

     total cpu time spent up to now is        0.6 secs

     per-process dynamical memory:    36.4 Mb

     Self-consistent Calculation

     iteration #  1     ecut=    30.00 Ry     beta= 0.30
     Davidson diagonalization with overlap

---- Real-time Memory Report at c_bands before calling an iterative solver
            78 MiB given to the printing process from OS
            35 MiB allocation reported by mallinfo(arena+hblkhd)
          1517 MiB available memory on the node where the printing process lives
------------------
     ethr =  1.00E-02,  avg # of iterations =  1.1

     Threshold (ethr) on eigenvalues was too large:
     Diagonalizing with lowered threshold

     Davidson diagonalization with overlap

---- Real-time Memory Report at c_bands before calling an iterative solver
            79 MiB given to the printing process from OS
            35 MiB allocation reported by mallinfo(arena+hblkhd)
          1517 MiB available memory on the node where the printing process lives
------------------
     ethr =  2.33E-04,  avg # of iterations =  4.8

     total cpu time spent up to now is        0.9 secs

     total energy              =    -128.93881413 Ry
     estimated scf accuracy    <       0.04060205 Ry

     iteration #  2     ecut=    30.00 Ry     beta= 0.30
     Davidson diagonalization with overlap

---- Real-time Memory Report at c_bands before calling an iterative solver
            79 MiB given to the printing process from OS
            36 MiB allocation reported by mallinfo(arena+hblkhd)
          1516 MiB available memory on the node where the printing process lives
------------------
     ethr =  2.26E-04,  avg # of iterations =  2.0

     total cpu time spent up to now is        1.0 secs

     total energy              =    -128.93816286 Ry
     estimated scf accuracy    <       0.01230618 Ry

     iteration #  3     ecut=    30.00 Ry     beta= 0.30
     Davidson diagonalization with overlap

---- Real-time Memory Report at c_bands before calling an iterative solver
            79 MiB given to the printing process from OS
            36 MiB allocation reported by mallinfo(arena+hblkhd)
          1516 MiB available memory on the node where the printing process lives
------------------
     ethr =  6.84E-05,  avg # of iterations =  2.1

     total cpu time spent up to now is        1.2 secs

     total energy              =    -128.94103222 Ry
     estimated scf accuracy    <       0.00134850 Ry

     iteration #  4     ecut=    30.00 Ry     beta= 0.30
     Davidson diagonalization with overlap

---- Real-time Memory Report at c_bands before calling an iterative solver
            80 MiB given to the printing process from OS
            36 MiB allocation reported by mallinfo(arena+hblkhd)
          1516 MiB available memory on the node where the printing process lives
------------------
     ethr =  7.49E-06,  avg # of iterations =  4.8

     total cpu time spent up to now is        1.3 secs

     total energy              =    -128.94169641 Ry
     estimated scf accuracy    <       0.00023610 Ry

     iteration #  5     ecut=    30.00 Ry     beta= 0.30
     Davidson diagonalization with overlap

---- Real-time Memory Report at c_bands before calling an iterative solver
            80 MiB given to the printing process from OS
            36 MiB allocation reported by mallinfo(arena+hblkhd)
          1516 MiB available memory on the node where the printing process lives
------------------
     ethr =  1.31E-06,  avg # of iterations =  3.9

     total cpu time spent up to now is        1.5 secs

     total energy              =    -128.94179033 Ry
     estimated scf accuracy    <       0.00006548 Ry

     iteration #  6     ecut=    30.00 Ry     beta= 0.30
     Davidson diagonalization with overlap

---- Real-time Memory Report at c_bands before calling an iterative solver
            80 MiB given to the printing process from OS
            36 MiB allocation reported by mallinfo(arena+hblkhd)
          1516 MiB available memory on the node where the printing process lives
------------------
     ethr =  3.64E-07,  avg # of iterations =  4.3

     total cpu time spent up to now is        1.6 secs

     total energy              =    -128.94181196 Ry
     estimated scf accuracy    <       0.00001977 Ry

     iteration #  7     ecut=    30.00 Ry     beta= 0.30
     Davidson diagonalization with overlap

---- Real-time Memory Report at c_bands before calling an iterative solver
            80 MiB given to the printing process from OS
            36 MiB allocation reported by mallinfo(arena+hblkhd)
          1516 MiB available memory on the node where the printing process lives
------------------
     ethr =  1.10E-07,  avg # of iterations =  4.3

     total cpu time spent up to now is        1.7 secs

     total energy              =    -128.94181661 Ry
     estimated scf accuracy    <       0.00000355 Ry

     iteration #  8     ecut=    30.00 Ry     beta= 0.30
     Davidson diagonalization with overlap

---- Real-time Memory Report at c_bands before calling an iterative solver
            80 MiB given to the printing process from OS
            36 MiB allocation reported by mallinfo(arena+hblkhd)
          1516 MiB available memory on the node where the printing process lives
------------------
     ethr =  1.97E-08,  avg # of iterations =  6.4

     total cpu time spent up to now is        1.9 secs

     total energy              =    -128.94181814 Ry
     estimated scf accuracy    <       0.00000669 Ry

     iteration #  9     ecut=    30.00 Ry     beta= 0.30
     Davidson diagonalization with overlap

---- Real-time Memory Report at c_bands before calling an iterative solver
            80 MiB given to the printing process from OS
            36 MiB allocation reported by mallinfo(arena+hblkhd)
          1516 MiB available memory on the node where the printing process lives
------------------
     ethr =  1.97E-08,  avg # of iterations =  3.0

     total cpu time spent up to now is        2.1 secs

     total energy              =    -128.94182052 Ry
     estimated scf accuracy    <       0.00000080 Ry

     iteration # 10     ecut=    30.00 Ry     beta= 0.30
     Davidson diagonalization with overlap

---- Real-time Memory Report at c_bands before calling an iterative solver
            80 MiB given to the printing process from OS
            36 MiB allocation reported by mallinfo(arena+hblkhd)
          1516 MiB available memory on the node where the printing process lives
------------------
     ethr =  4.46E-09,  avg # of iterations =  3.3

     total cpu time spent up to now is        2.2 secs

     total energy              =    -128.94182058 Ry
     estimated scf accuracy    <       0.00000155 Ry

     iteration # 11     ecut=    30.00 Ry     beta= 0.30
     Davidson diagonalization with overlap

---- Real-time Memory Report at c_bands before calling an iterative solver
            80 MiB given to the printing process from OS
            36 MiB allocation reported by mallinfo(arena+hblkhd)
          1516 MiB available memory on the node where the printing process lives
------------------
     ethr =  4.46E-09,  avg # of iterations =  2.5

     total cpu time spent up to now is        2.3 secs

     total energy              =    -128.94182055 Ry
     estimated scf accuracy    <       0.00000060 Ry

     iteration # 12     ecut=    30.00 Ry     beta= 0.30
     Davidson diagonalization with overlap

---- Real-time Memory Report at c_bands before calling an iterative solver
            80 MiB given to the printing process from OS
            36 MiB allocation reported by mallinfo(arena+hblkhd)
          1516 MiB available memory on the node where the printing process lives
------------------
     ethr =  3.35E-09,  avg # of iterations =  4.3

     total cpu time spent up to now is        2.5 secs

     total energy              =    -128.94182077 Ry
     estimated scf accuracy    <       0.00000019 Ry

     iteration # 13     ecut=    30.00 Ry     beta= 0.30
     Davidson diagonalization with overlap

---- Real-time Memory Report at c_bands before calling an iterative solver
            80 MiB given to the printing process from OS
            36 MiB allocation reported by mallinfo(arena+hblkhd)
          1516 MiB available memory on the node where the printing process lives
------------------
     ethr =  1.03E-09,  avg # of iterations =  2.5

     total cpu time spent up to now is        2.6 secs

     total energy              =    -128.94182077 Ry
     estimated scf accuracy    <       0.00000009 Ry

     iteration # 14     ecut=    30.00 Ry     beta= 0.30
     Davidson diagonalization with overlap

---- Real-time Memory Report at c_bands before calling an iterative solver
            80 MiB given to the printing process from OS
            36 MiB allocation reported by mallinfo(arena+hblkhd)
          1516 MiB available memory on the node where the printing process lives
------------------
     ethr =  4.80E-10,  avg # of iterations =  4.2

     total cpu time spent up to now is        2.8 secs

     total energy              =    -128.94182080 Ry
     estimated scf accuracy    <          7.6E-09 Ry

     iteration # 15     ecut=    30.00 Ry     beta= 0.30
     Davidson diagonalization with overlap

---- Real-time Memory Report at c_bands before calling an iterative solver
            80 MiB given to the printing process from OS
            36 MiB allocation reported by mallinfo(arena+hblkhd)
          1516 MiB available memory on the node where the printing process lives
------------------
     ethr =  4.22E-11,  avg # of iterations =  7.1

     total cpu time spent up to now is        2.9 secs

     total energy              =    -128.94182081 Ry
     estimated scf accuracy    <          9.0E-09 Ry

     iteration # 16     ecut=    30.00 Ry     beta= 0.30
     Davidson diagonalization with overlap

---- Real-time Memory Report at c_bands before calling an iterative solver
            80 MiB given to the printing process from OS
            36 MiB allocation reported by mallinfo(arena+hblkhd)
          1516 MiB available memory on the node where the printing process lives
------------------
     ethr =  4.22E-11,  avg # of iterations =  2.0

     total cpu time spent up to now is        3.1 secs

     total energy              =    -128.94182081 Ry
     estimated scf accuracy    <          3.1E-09 Ry

     iteration # 17     ecut=    30.00 Ry     beta= 0.30
     Davidson diagonalization with overlap

---- Real-time Memory Report at c_bands before calling an iterative solver
            80 MiB given to the printing process from OS
            36 MiB allocation reported by mallinfo(arena+hblkhd)
          1516 MiB available memory on the node where the printing process lives
------------------
     ethr =  1.75E-11,  avg # of iterations =  2.6

     total cpu time spent up to now is        3.2 secs

     total energy              =    -128.94182082 Ry
     estimated scf accuracy    <          4.6E-10 Ry

     iteration # 18     ecut=    30.00 Ry     beta= 0.30
     Davidson diagonalization with overlap

---- Real-time Memory Report at c_bands before calling an iterative solver
            80 MiB given to the printing process from OS
            36 MiB allocation reported by mallinfo(arena+hblkhd)
          1516 MiB available memory on the node where the printing process lives
------------------
     ethr =  2.54E-12,  avg # of iterations =  5.6

     total cpu time spent up to now is        3.4 secs

     End of self-consistent calculation

          k = 0.0884 0.0884 0.0884 (  1279 PWs)   bands (ev):

    -5.9887  -3.1081  -3.1081  -3.0779  -2.8744  -2.8744   3.9064   4.9919
     4.9919

     occupation numbers 
     1.0000   1.0000   1.0000   1.0000   1.0000   1.0000   1.0000   1.0000
     1.0000

          k = 0.2652 0.2652-0.0884 (  1282 PWs)   bands (ev):

    -5.7613  -3.0717  -3.0626  -2.8813  -2.8790  -2.7918   1.9226   3.8492
     4.6517

     occupation numbers 
     1.0000   1.0000   1.0000   1.0000   1.0000   1.0000   1.0000   1.0000
     1.0000

          k =-0.2652-0.2652 0.4419 (  1266 PWs)   bands (ev):

    -5.6297  -3.0519  -3.0422  -2.8676  -2.8504  -2.4892   0.8326   3.7651
     4.1594

     occupation numbers 
     1.0000   1.0000   1.0000   1.0000   1.0000   1.0000   1.0000   1.0000
     1.0000

          k =-0.0884-0.0884 0.2652 (  1288 PWs)   bands (ev):

    -5.8556  -3.0806  -3.0802  -2.9758  -2.8736  -2.8655   2.7531   4.4206
     4.4519

     occupation numbers 
     1.0000   1.0000   1.0000   1.0000   1.0000   1.0000   1.0000   1.0000
     1.0000

          k = 0.4419 0.0884 0.0884 (  1280 PWs)   bands (ev):

    -5.6705  -3.0269  -3.0129  -2.9392  -2.8540  -2.6849   1.6855   3.5856
     3.7826

     occupation numbers 
     1.0000   1.0000   1.0000   1.0000   1.0000   1.0000   1.0000   1.0000
     1.0000

          k =-0.0884-0.4419 0.6187 (  1269 PWs)   bands (ev):

    -5.5446  -3.0066  -2.9884  -2.9027  -2.8591  -2.3414   0.9621   2.7232
     3.3802

     occupation numbers 
     1.0000   1.0000   1.0000   1.0000   1.0000   1.0000   1.0000   1.0000
     1.0000

          k = 0.0884-0.2652 0.4419 (  1268 PWs)   bands (ev):

    -5.6319  -3.0353  -3.0248  -2.8934  -2.8537  -2.5513   1.2592   3.1851
     4.0096

     occupation numbers 
     1.0000   1.0000   1.0000   1.0000   1.0000   1.0000   1.0000   1.0000
     1.0000

          k =-0.6187 0.0884 0.0884 (  1273 PWs)   bands (ev):

    -5.5451  -2.9896  -2.9617  -2.9410  -2.8424  -2.4085   0.9606   3.0477
     3.3983

     occupation numbers 
     1.0000   1.0000   1.0000   1.0000   1.0000   1.0000   1.0000   1.0000
     1.0000

          k = 0.2652 0.2652 0.2652 (  1275 PWs)   bands (ev):

    -5.7051  -3.0646  -3.0646  -2.8637  -2.8637  -2.6677   1.2029   4.4486
     4.4486

     occupation numbers 
     1.0000   1.0000   1.0000   1.0000   1.0000   1.0000   1.0000   1.0000
     1.0000

          k =-0.2652-0.2652 0.7955 (  1272 PWs)   bands (ev):

    -5.5802  -3.0341  -3.0121  -2.8810  -2.8613  -2.4049   0.9723   2.7634
     3.9580

     occupation numbers 
     1.0000   1.0000   1.0000   1.0000   1.0000   1.0000   1.0000   1.0000
     1.0000

     highest occupied level (ev):     4.9919

!    total energy              =    -128.94182082 Ry
     estimated scf accuracy    <          2.9E-11 Ry

     The total energy is the sum of the following terms:
     one-electron contribution =     -48.68657622 Ry
     hartree contribution      =      36.04963735 Ry
     xc contribution           =     -39.50365499 Ry
     ewald contribution        =     -76.80122696 Ry

     convergence has been achieved in  18 iterations

     Writing all to output data dir /home/User/opencode_workspace/DFT/calculations/cdte/smoke/out/pwscf.save/ :
     XML data file, charge density, pseudopotentials, collected wavefunctions

     init_run     :      0.38s CPU      0.42s WALL (       1 calls)
     electrons    :      2.45s CPU      2.73s WALL (       1 calls)

     Called by init_run:
     wfcinit      :      0.03s CPU      0.03s WALL (       1 calls)
     wfcinit:atom :      0.00s CPU      0.00s WALL (      10 calls)
     wfcinit:wfcr :      0.02s CPU      0.03s WALL (      10 calls)
     potinit      :      0.09s CPU      0.10s WALL (       1 calls)
     hinit0       :      0.20s CPU      0.20s WALL (       1 calls)

     Called by electrons:
     c_bands      :      0.91s CPU      1.14s WALL (      19 calls)
     sum_band     :      0.81s CPU      0.85s WALL (      19 calls)
     v_of_rho     :      0.15s CPU      0.17s WALL (      19 calls)
     v_h          :      0.01s CPU      0.01s WALL (      19 calls)
     v_xc         :      0.14s CPU      0.16s WALL (      19 calls)
     newd         :      0.58s CPU      0.60s WALL (      19 calls)
     mix_rho      :      0.02s CPU      0.02s WALL (      19 calls)

     Called by c_bands:
     init_us_2    :      0.03s CPU      0.04s WALL (     390 calls)
     cegterg      :      0.84s CPU      1.06s WALL (     190 calls)

     Called by sum_band:
     sum_band:wei :      0.00s CPU      0.00s WALL (      19 calls)
     sum_band:loo :      0.13s CPU      0.16s WALL (      19 calls)
     sum_band:buf :      0.00s CPU      0.00s WALL (     190 calls)
     sum_band:ini :      0.01s CPU      0.02s WALL (     190 calls)
     sum_band:cal :      0.01s CPU      0.01s WALL (     190 calls)
     sum_band:bec :      0.00s CPU      0.00s WALL (     190 calls)
     addusdens    :      0.62s CPU      0.62s WALL (      19 calls)
                                        0.00s GPU  (      19 calls)
     addusd:skk   :      0.00s CPU      0.00s WALL (      38 calls)
                                        0.00s GPU  (      38 calls)

     Called by *egterg:
     cdiaghg      :      0.06s CPU      0.07s WALL (     888 calls)
     cegterg:over :      0.03s CPU      0.04s WALL (     708 calls)
     cegterg:upda :      0.01s CPU      0.01s WALL (     708 calls)
     cegterg:last :      0.02s CPU      0.02s WALL (     512 calls)
     h_psi        :      0.70s CPU      0.88s WALL (     908 calls)
     s_psi        :      0.02s CPU      0.02s WALL (     908 calls)
     g_psi        :      0.01s CPU      0.01s WALL (     708 calls)

     Called by h_psi:
     h_psi:calbec :      0.04s CPU      0.06s WALL (     908 calls)
     vloc_psi     :      0.63s CPU      0.79s WALL (     908 calls)
                                        0.00s GPU  (     908 calls)
     add_vuspsi   :      0.02s CPU      0.02s WALL (     908 calls)

     General routines
     calbec       :      0.05s CPU      0.07s WALL (    1098 calls)
     fft          :      0.15s CPU      0.16s WALL (     246 calls)
     ffts         :      0.08s CPU      0.08s WALL (      38 calls)
     fftw         :      0.66s CPU      0.82s WALL (   12996 calls)
     interpolate  :      0.08s CPU      0.09s WALL (      19 calls)

     Parallel routines

     PWSCF        :      3.04s CPU      3.39s WALL


   This run was terminated on:  16: 2:47  22Sep2026            

=------------------------------------------------------------------------------=
   JOB DONE.
=------------------------------------------------------------------------------=
