
     Program PWSCF v.7.5 starts on 23Sep2026 at  2:56:55 

     This program is part of the open-source Quantum ESPRESSO suite
     for quantum simulation of materials; please cite
         "P. Giannozzi et al., J. Phys.:Condens. Matter 21 395502 (2009);
         "P. Giannozzi et al., J. Phys.:Condens. Matter 29 465901 (2017);
         "P. Giannozzi et al., J. Chem. Phys. 152 154105 (2020);
          URL http://www.quantum-espresso.org", 
     in publications or presentations arising from this work. More details at
     http://www.quantum-espresso.org/quote

     Parallel version (MPI & OpenMP), running on       2 processor cores
     Number of MPI processes:                 2
     Threads/MPI process:                     1

     MPI processes distributed on     1 nodes
     3446 MiB available memory on the printing compute node when the environment starts

     Reading input from pw.in

     Current dimensions of program PWSCF are:
     Max number of different atomic species (ntypx) = 10
     Max number of k-points (npk) =  40000
     Max angular momentum in pseudopotentials (lmaxx) =  4
     file Cd.pbe-n-rrkjus_psl.1.0.0.UPF: wavefunction(s)  4D renormalized
     file Te.pbe-n-rrkjus_psl.1.0.0.UPF: wavefunction(s)  5S renormalized

     Atomic positions and unit cell read from directory:
     /home/User/opencode_workspace/DFT/calculations/cdte/optics_nosoc/out/pwscf.save/

     Message from routine setup:
     using ibrav=0 with symmetry is DISCOURAGED, use correct ibrav instead

     R & G space division:  proc/nbgrp/npool/nimage =       2
     Subspace diagonalization in iterative solution of the eigenvalue problem:
     a serial algorithm will be used


     Parallelization info
     --------------------
     sticks:   dense  smooth     PW     G-vecs:    dense   smooth      PW
     Min        1938    1293    366                80010    43512    6469
     Max        1939    1294    367                80011    43515    6470
     Sum        3877    2587    733               160021    87027   12939

     Using Slab Decomposition



     bravais-lattice index     =            0
     lattice parameter (alat)  =       8.8500  a.u.
     unit-cell volume          =     490.1280 (a.u.)^3
     number of atoms/cell      =            2
     number of atomic types    =            2
     number of electrons       =        18.00
     number of Kohn-Sham states=           48
     kinetic-energy cutoff     =     120.0000  Ry
     charge density cutoff     =     720.0000  Ry
     Exchange-correlation= PBE
                           (   1   4   3   4   0   0   0)

     celldm(1)=   8.849964  celldm(2)=   0.000000  celldm(3)=   0.000000
     celldm(4)=   0.000000  celldm(5)=   0.000000  celldm(6)=   0.000000

     crystal axes: (cart. coord. in units of alat)
               a(1) = (   0.000000   0.707107   0.707107 )  
               a(2) = (   0.707107   0.000000   0.707107 )  
               a(3) = (   0.707107   0.707107   0.000000 )  

     reciprocal axes: (cart. coord. in units 2 pi/alat)
               b(1) = ( -0.707107  0.707107  0.707107 )  
               b(2) = (  0.707107 -0.707107  0.707107 )  
               b(3) = (  0.707107  0.707107 -0.707107 )  


     PseudoPot. # 1 for Cd read from file:
     /home/User/opencode_workspace/DFT/pseudopotentials/Cd.pbe-n-rrkjus_psl.1.0.0.UPF
     MD5 check sum: a744746c89d2344a134ead0d8ab94e7a
     Pseudo is Ultrasoft + core correction, Zval = 12.0
     Generated using &quot;atomic&quot; code by A. Dal Corso  v.6.3
     Using radial grid of 1239 points,  6 beta functions with: 
                l(1) =   0
                l(2) =   0
                l(3) =   1
                l(4) =   1
                l(5) =   2
                l(6) =   2
     Q(r) pseudized with 0 coefficients 


     PseudoPot. # 2 for Te read from file:
     /home/User/opencode_workspace/DFT/pseudopotentials/Te.pbe-n-rrkjus_psl.1.0.0.UPF
     MD5 check sum: 203a1e86ef55f0cd9de2762a27c58f54
     Pseudo is Ultrasoft + core correction, Zval =  6.0
     Generated using &quot;atomic&quot; code by A. Dal Corso  v.6.3
     Using radial grid of 1245 points,  6 beta functions with: 
                l(1) =   0
                l(2) =   0
                l(3) =   1
                l(4) =   1
                l(5) =   2
                l(6) =   2
     Q(r) pseudized with 0 coefficients 


     atomic species   valence    mass     pseudopotential
     Cd               12.00   112.41400     Cd( 1.00)
     Te                6.00   127.60000     Te( 1.00)

     24 Sym. Ops. (no inversion) found


                                    s                        frac. trans.

      isym =  1     identity                                     

 cryst.   s( 1) = (     1          0          0      )
                  (     0          1          0      )
                  (     0          0          1      )

 cart.    s( 1) = (  1.0000000  0.0000000  0.0000000 )
                  (  0.0000000  1.0000000  0.0000000 )
                  (  0.0000000  0.0000000  1.0000000 )


      isym =  2     180 deg rotation - cart. axis [0,0,1]        

 cryst.   s( 2) = (     0          1         -1      )
                  (     1          0         -1      )
                  (     0          0         -1      )

 cart.    s( 2) = ( -1.0000000  0.0000000  0.0000000 )
                  (  0.0000000 -1.0000000  0.0000000 )
                  (  0.0000000  0.0000000  1.0000000 )


      isym =  3     180 deg rotation - cart. axis [0,1,0]        

 cryst.   s( 3) = (     0         -1          1      )
                  (     0         -1          0      )
                  (     1         -1          0      )

 cart.    s( 3) = ( -1.0000000  0.0000000  0.0000000 )
                  (  0.0000000  1.0000000  0.0000000 )
                  (  0.0000000  0.0000000 -1.0000000 )


      isym =  4     180 deg rotation - cart. axis [1,0,0]        

 cryst.   s( 4) = (    -1          0          0      )
                  (    -1          0          1      )
                  (    -1          1          0      )

 cart.    s( 4) = (  1.0000000  0.0000000  0.0000000 )
                  (  0.0000000 -1.0000000  0.0000000 )
                  (  0.0000000  0.0000000 -1.0000000 )


      isym =  5     120 deg rotation - cart. axis [-1,-1,-1]     

 cryst.   s( 5) = (     0          0          1      )
                  (     1          0          0      )
                  (     0          1          0      )

 cart.    s( 5) = (  0.0000000  1.0000000  0.0000000 )
                  (  0.0000000  0.0000000  1.0000000 )
                  (  1.0000000  0.0000000  0.0000000 )


      isym =  6     120 deg rotation - cart. axis [-1,1,1]       

 cryst.   s( 6) = (     1         -1          0      )
                  (     0         -1          1      )
                  (     0         -1          0      )

 cart.    s( 6) = (  0.0000000 -1.0000000  0.0000000 )
                  (  0.0000000  0.0000000  1.0000000 )
                  ( -1.0000000  0.0000000  0.0000000 )


      isym =  7     120 deg rotation - cart. axis [1,1,-1]       

 cryst.   s( 7) = (    -1          1          0      )
                  (    -1          0          0      )
                  (    -1          0          1      )

 cart.    s( 7) = (  0.0000000  1.0000000  0.0000000 )
                  (  0.0000000  0.0000000 -1.0000000 )
                  ( -1.0000000  0.0000000  0.0000000 )


      isym =  8     120 deg rotation - cart. axis [1,-1,1]       

 cryst.   s( 8) = (     0          0         -1      )
                  (     0          1         -1      )
                  (     1          0         -1      )

 cart.    s( 8) = (  0.0000000 -1.0000000  0.0000000 )
                  (  0.0000000  0.0000000 -1.0000000 )
                  (  1.0000000  0.0000000  0.0000000 )


      isym =  9     120 deg rotation - cart. axis [1,1,1]        

 cryst.   s( 9) = (     0          1          0      )
                  (     0          0          1      )
                  (     1          0          0      )

 cart.    s( 9) = (  0.0000000  0.0000000  1.0000000 )
                  (  1.0000000  0.0000000  0.0000000 )
                  (  0.0000000  1.0000000  0.0000000 )


      isym = 10     120 deg rotation - cart. axis [-1,1,-1]      

 cryst.   s(10) = (    -1          0          1      )
                  (    -1          1          0      )
                  (    -1          0          0      )

 cart.    s(10) = (  0.0000000  0.0000000  1.0000000 )
                  ( -1.0000000  0.0000000  0.0000000 )
                  (  0.0000000 -1.0000000  0.0000000 )


      isym = 11     120 deg rotation - cart. axis [1,-1,-1]      

 cryst.   s(11) = (     1          0         -1      )
                  (     0          0         -1      )
                  (     0          1         -1      )

 cart.    s(11) = (  0.0000000  0.0000000 -1.0000000 )
                  ( -1.0000000  0.0000000  0.0000000 )
                  (  0.0000000  1.0000000  0.0000000 )


      isym = 12     120 deg rotation - cart. axis [-1,-1,1]      

 cryst.   s(12) = (     0         -1          0      )
                  (     1         -1          0      )
                  (     0         -1          1      )

 cart.    s(12) = (  0.0000000  0.0000000 -1.0000000 )
                  (  1.0000000  0.0000000  0.0000000 )
                  (  0.0000000 -1.0000000  0.0000000 )


      isym = 13     inv. 180 deg rotation - cart. axis [1,1,0]   

 cryst.   s(13) = (     1          0         -1      )
                  (     0          1         -1      )
                  (     0          0         -1      )

 cart.    s(13) = (  0.0000000 -1.0000000  0.0000000 )
                  ( -1.0000000  0.0000000  0.0000000 )
                  (  0.0000000  0.0000000  1.0000000 )


      isym = 14     inv. 180 deg rotation - cart. axis [1,-1,0]  

 cryst.   s(14) = (     0          1          0      )
                  (     1          0          0      )
                  (     0          0          1      )

 cart.    s(14) = (  0.0000000  1.0000000  0.0000000 )
                  (  1.0000000  0.0000000  0.0000000 )
                  (  0.0000000  0.0000000  1.0000000 )


      isym = 15     inv.  90 deg rotation - cart. axis [0,0,-1]  

 cryst.   s(15) = (     0         -1          0      )
                  (     0         -1          1      )
                  (     1         -1          0      )

 cart.    s(15) = (  0.0000000 -1.0000000  0.0000000 )
                  (  1.0000000  0.0000000  0.0000000 )
                  (  0.0000000  0.0000000 -1.0000000 )


      isym = 16     inv.  90 deg rotation - cart. axis [0,0,1]   

 cryst.   s(16) = (    -1          0          1      )
                  (    -1          0          0      )
                  (    -1          1          0      )

 cart.    s(16) = (  0.0000000  1.0000000  0.0000000 )
                  ( -1.0000000  0.0000000  0.0000000 )
                  (  0.0000000  0.0000000 -1.0000000 )


      isym = 17     inv. 180 deg rotation - cart. axis [1,0,1]   

 cryst.   s(17) = (     1         -1          0      )
                  (     0         -1          0      )
                  (     0         -1          1      )

 cart.    s(17) = (  0.0000000  0.0000000 -1.0000000 )
                  (  0.0000000  1.0000000  0.0000000 )
                  ( -1.0000000  0.0000000  0.0000000 )


      isym = 18     inv. 180 deg rotation - cart. axis [-1,0,1]  

 cryst.   s(18) = (     0          0          1      )
                  (     0          1          0      )
                  (     1          0          0      )

 cart.    s(18) = (  0.0000000  0.0000000  1.0000000 )
                  (  0.0000000  1.0000000  0.0000000 )
                  (  1.0000000  0.0000000  0.0000000 )


      isym = 19     inv.  90 deg rotation - cart. axis [0,1,0]   

 cryst.   s(19) = (     0          0         -1      )
                  (     1          0         -1      )
                  (     0          1         -1      )

 cart.    s(19) = (  0.0000000  0.0000000 -1.0000000 )
                  (  0.0000000 -1.0000000  0.0000000 )
                  (  1.0000000  0.0000000  0.0000000 )


      isym = 20     inv.  90 deg rotation - cart. axis [0,-1,0]  

 cryst.   s(20) = (    -1          1          0      )
                  (    -1          0          1      )
                  (    -1          0          0      )

 cart.    s(20) = (  0.0000000  0.0000000  1.0000000 )
                  (  0.0000000 -1.0000000  0.0000000 )
                  ( -1.0000000  0.0000000  0.0000000 )


      isym = 21     inv. 180 deg rotation - cart. axis [0,1,1]   

 cryst.   s(21) = (    -1          0          0      )
                  (    -1          1          0      )
                  (    -1          0          1      )

 cart.    s(21) = (  1.0000000  0.0000000  0.0000000 )
                  (  0.0000000  0.0000000 -1.0000000 )
                  (  0.0000000 -1.0000000  0.0000000 )


      isym = 22     inv. 180 deg rotation - cart. axis [0,1,-1]  

 cryst.   s(22) = (     1          0          0      )
                  (     0          0          1      )
                  (     0          1          0      )

 cart.    s(22) = (  1.0000000  0.0000000  0.0000000 )
                  (  0.0000000  0.0000000  1.0000000 )
                  (  0.0000000  1.0000000  0.0000000 )


      isym = 23     inv.  90 deg rotation - cart. axis [-1,0,0]  

 cryst.   s(23) = (     0          1         -1      )
                  (     0          0         -1      )
                  (     1          0         -1      )

 cart.    s(23) = ( -1.0000000  0.0000000  0.0000000 )
                  (  0.0000000  0.0000000 -1.0000000 )
                  (  0.0000000  1.0000000  0.0000000 )


      isym = 24     inv.  90 deg rotation - cart. axis [1,0,0]   

 cryst.   s(24) = (     0         -1          1      )
                  (     1         -1          0      )
                  (     0         -1          0      )

 cart.    s(24) = ( -1.0000000  0.0000000  0.0000000 )
                  (  0.0000000  0.0000000  1.0000000 )
                  (  0.0000000 -1.0000000  0.0000000 )


   Cartesian axes

     site n.     atom                  positions (alat units)
         1        Cd     tau(   1) = (   0.0000000   0.0000000   0.0000000  )
         2        Te     tau(   2) = (   0.3535534   0.3535534   0.3535534  )

   Crystallographic axes

     site n.     atom                  positions (cryst. coord.)
         1        Cd     tau(   1) = (  0.0000000  0.0000000  0.0000000  )
         2        Te     tau(   2) = (  0.2500000  0.2500000  0.2500000  )

     number of k points=    47
                       cart. coord. in units 2pi/alat
        k(    1) = (   0.0000000   0.0000000   0.0000000), wk =   0.0020000
        k(    2) = (   0.0707107   0.0707107  -0.0707107), wk =   0.0160000
        k(    3) = (   0.1414214   0.1414214  -0.1414214), wk =   0.0160000
        k(    4) = (   0.2121320   0.2121320  -0.2121320), wk =   0.0160000
        k(    5) = (   0.2828427   0.2828427  -0.2828427), wk =   0.0160000
        k(    6) = (  -0.3535534  -0.3535534   0.3535534), wk =   0.0080000
        k(    7) = (   0.1414214   0.0000000   0.0000000), wk =   0.0120000
        k(    8) = (   0.2121320   0.0707107  -0.0707107), wk =   0.0480000
        k(    9) = (   0.2828427   0.1414214  -0.1414214), wk =   0.0480000
        k(   10) = (   0.3535534   0.2121320  -0.2121320), wk =   0.0480000
        k(   11) = (  -0.2828427  -0.4242641   0.4242641), wk =   0.0480000
        k(   12) = (  -0.2121320  -0.3535534   0.3535534), wk =   0.0480000
        k(   13) = (  -0.1414214  -0.2828427   0.2828427), wk =   0.0480000
        k(   14) = (  -0.0707107  -0.2121320   0.2121320), wk =   0.0480000
        k(   15) = (   0.0000000  -0.1414214   0.1414214), wk =   0.0240000
        k(   16) = (   0.2828427   0.0000000   0.0000000), wk =   0.0120000
        k(   17) = (   0.3535534   0.0707107  -0.0707107), wk =   0.0480000
        k(   18) = (   0.4242641   0.1414214  -0.1414214), wk =   0.0480000
        k(   19) = (  -0.2121320  -0.4949747   0.4949747), wk =   0.0480000
        k(   20) = (  -0.1414214  -0.4242641   0.4242641), wk =   0.0480000
        k(   21) = (  -0.0707107  -0.3535534   0.3535534), wk =   0.0480000
        k(   22) = (   0.0000000  -0.2828427   0.2828427), wk =   0.0240000
        k(   23) = (   0.4242641   0.0000000   0.0000000), wk =   0.0120000
        k(   24) = (   0.4949747   0.0707107  -0.0707107), wk =   0.0480000
        k(   25) = (  -0.1414214  -0.5656854   0.5656854), wk =   0.0480000
        k(   26) = (  -0.0707107  -0.4949747   0.4949747), wk =   0.0480000
        k(   27) = (  -0.0000000  -0.4242641   0.4242641), wk =   0.0240000
        k(   28) = (   0.5656854   0.0000000   0.0000000), wk =   0.0120000
        k(   29) = (  -0.0707107  -0.6363961   0.6363961), wk =   0.0480000
        k(   30) = (   0.0000000  -0.5656854   0.5656854), wk =   0.0240000
        k(   31) = (  -0.7071068   0.0000000   0.0000000), wk =   0.0060000
        k(   32) = (   0.2828427   0.1414214  -0.0000000), wk =   0.0480000
        k(   33) = (   0.3535534   0.2121320  -0.0707107), wk =   0.0960000
        k(   34) = (  -0.2828427  -0.4242641   0.5656854), wk =   0.0960000
        k(   35) = (  -0.2121320  -0.3535534   0.4949747), wk =   0.0480000
        k(   36) = (   0.4242641   0.1414214   0.0000000), wk =   0.0480000
        k(   37) = (  -0.2121320  -0.4949747   0.6363961), wk =   0.0960000
        k(   38) = (  -0.1414214  -0.4242641   0.5656854), wk =   0.0960000
        k(   39) = (  -0.0707107  -0.3535534   0.4949747), wk =   0.0960000
        k(   40) = (   0.0000000  -0.2828427   0.4242641), wk =   0.0480000
        k(   41) = (  -0.1414214  -0.5656854   0.7071068), wk =   0.0480000
        k(   42) = (  -0.0707107  -0.4949747   0.6363961), wk =   0.0960000
        k(   43) = (  -0.0000000  -0.4242641   0.5656854), wk =   0.0480000
        k(   44) = (  -0.7071068   0.1414214   0.0000000), wk =   0.0240000
        k(   45) = (  -0.1414214  -0.4242641   0.7071068), wk =   0.0480000
        k(   46) = (  -0.0707107  -0.3535534   0.6363961), wk =   0.0480000
        k(   47) = (  -0.7071068   0.2828427   0.0000000), wk =   0.0240000

                       cryst. coord.
        k(    1) = (   0.0000000   0.0000000   0.0000000), wk =   0.0020000
        k(    2) = (   0.0000000   0.0000000   0.1000000), wk =   0.0160000
        k(    3) = (   0.0000000   0.0000000   0.2000000), wk =   0.0160000
        k(    4) = (   0.0000000   0.0000000   0.3000000), wk =   0.0160000
        k(    5) = (   0.0000000   0.0000000   0.4000000), wk =   0.0160000
        k(    6) = (   0.0000000   0.0000000  -0.5000000), wk =   0.0080000
        k(    7) = (   0.0000000   0.1000000   0.1000000), wk =   0.0120000
        k(    8) = (   0.0000000   0.1000000   0.2000000), wk =   0.0480000
        k(    9) = (   0.0000000   0.1000000   0.3000000), wk =   0.0480000
        k(   10) = (   0.0000000   0.1000000   0.4000000), wk =   0.0480000
        k(   11) = (   0.0000000   0.1000000  -0.5000000), wk =   0.0480000
        k(   12) = (   0.0000000   0.1000000  -0.4000000), wk =   0.0480000
        k(   13) = (   0.0000000   0.1000000  -0.3000000), wk =   0.0480000
        k(   14) = (   0.0000000   0.1000000  -0.2000000), wk =   0.0480000
        k(   15) = (   0.0000000   0.1000000  -0.1000000), wk =   0.0240000
        k(   16) = (   0.0000000   0.2000000   0.2000000), wk =   0.0120000
        k(   17) = (   0.0000000   0.2000000   0.3000000), wk =   0.0480000
        k(   18) = (   0.0000000   0.2000000   0.4000000), wk =   0.0480000
        k(   19) = (   0.0000000   0.2000000  -0.5000000), wk =   0.0480000
        k(   20) = (   0.0000000   0.2000000  -0.4000000), wk =   0.0480000
        k(   21) = (   0.0000000   0.2000000  -0.3000000), wk =   0.0480000
        k(   22) = (   0.0000000   0.2000000  -0.2000000), wk =   0.0240000
        k(   23) = (   0.0000000   0.3000000   0.3000000), wk =   0.0120000
        k(   24) = (   0.0000000   0.3000000   0.4000000), wk =   0.0480000
        k(   25) = (   0.0000000   0.3000000  -0.5000000), wk =   0.0480000
        k(   26) = (   0.0000000   0.3000000  -0.4000000), wk =   0.0480000
        k(   27) = (   0.0000000   0.3000000  -0.3000000), wk =   0.0240000
        k(   28) = (   0.0000000   0.4000000   0.4000000), wk =   0.0120000
        k(   29) = (   0.0000000   0.4000000  -0.5000000), wk =   0.0480000
        k(   30) = (   0.0000000   0.4000000  -0.4000000), wk =   0.0240000
        k(   31) = (   0.0000000  -0.5000000  -0.5000000), wk =   0.0060000
        k(   32) = (   0.1000000   0.2000000   0.3000000), wk =   0.0480000
        k(   33) = (   0.1000000   0.2000000   0.4000000), wk =   0.0960000
        k(   34) = (   0.1000000   0.2000000  -0.5000000), wk =   0.0960000
        k(   35) = (   0.1000000   0.2000000  -0.4000000), wk =   0.0480000
        k(   36) = (   0.1000000   0.3000000   0.4000000), wk =   0.0480000
        k(   37) = (   0.1000000   0.3000000  -0.5000000), wk =   0.0960000
        k(   38) = (   0.1000000   0.3000000  -0.4000000), wk =   0.0960000
        k(   39) = (   0.1000000   0.3000000  -0.3000000), wk =   0.0960000
        k(   40) = (   0.1000000   0.3000000  -0.2000000), wk =   0.0480000
        k(   41) = (   0.1000000   0.4000000  -0.5000000), wk =   0.0480000
        k(   42) = (   0.1000000   0.4000000  -0.4000000), wk =   0.0960000
        k(   43) = (   0.1000000   0.4000000  -0.3000000), wk =   0.0480000
        k(   44) = (   0.1000000  -0.5000000  -0.4000000), wk =   0.0240000
        k(   45) = (   0.2000000   0.4000000  -0.4000000), wk =   0.0480000
        k(   46) = (   0.2000000   0.4000000  -0.3000000), wk =   0.0480000
        k(   47) = (   0.2000000  -0.5000000  -0.3000000), wk =   0.0240000

     Dense  grid:   160021 G-vectors     FFT dimensions: (  75,  75,  75)

     Smooth grid:    87027 G-vectors     FFT dimensions: (  64,  64,  64)

     Dynamical RAM for                 wfc:       3.98 MB

     Dynamical RAM for     wfc (w. buffer):       3.98 MB

     Dynamical RAM for           str. fact:       2.44 MB

     Dynamical RAM for           local pot:       0.00 MB

     Dynamical RAM for          nlocal pot:       2.99 MB

     Dynamical RAM for                qrad:       4.31 MB

     Dynamical RAM for          rho,v,vnew:       8.55 MB

     Dynamical RAM for           G-vectors:       4.91 MB

     Dynamical RAM for          h,s,v(r/c):       0.42 MB

     Dynamical RAM for          <psi|beta>:       0.03 MB

     Dynamical RAM for                 psi:       7.97 MB

     Dynamical RAM for                hpsi:       7.97 MB

     Dynamical RAM for                spsi:       7.97 MB

     Dynamical RAM for      wfcinit/wfcrot:       8.02 MB

     Dynamical RAM for           addusdens:     228.30 MB

     Estimated static dynamical RAM per process >      39.00 MB

     Estimated max dynamical RAM per process >     267.30 MB

     Estimated total dynamical RAM >     534.61 MB

     The potential is recalculated from file :
     /home/User/opencode_workspace/DFT/calculations/cdte/optics_nosoc/out/pwscf.save/charge-density

     Starting wfcs are   13 randomized atomic wfcs +   35 random wfcs

     Band Structure Calculation
     Davidson diagonalization with overlap

     Computing kpt #:     1  of    47
     total cpu time spent up to now is       29.5 secs

     Computing kpt #:     2  of    47
     total cpu time spent up to now is       57.0 secs

     Computing kpt #:     3  of    47
     total cpu time spent up to now is       79.0 secs

     Computing kpt #:     4  of    47
     total cpu time spent up to now is      101.7 secs

     Computing kpt #:     5  of    47
     total cpu time spent up to now is      125.8 secs

     Computing kpt #:     6  of    47
     total cpu time spent up to now is      151.4 secs

     Computing kpt #:     7  of    47
     total cpu time spent up to now is      177.5 secs

     Computing kpt #:     8  of    47
     total cpu time spent up to now is      205.6 secs

     Computing kpt #:     9  of    47
     total cpu time spent up to now is      233.7 secs

     Computing kpt #:    10  of    47
     total cpu time spent up to now is      260.4 secs

     Computing kpt #:    11  of    47
     total cpu time spent up to now is      288.7 secs

     Computing kpt #:    12  of    47
     total cpu time spent up to now is      313.7 secs

     Computing kpt #:    13  of    47
     total cpu time spent up to now is      336.9 secs

     Computing kpt #:    14  of    47
     total cpu time spent up to now is      364.9 secs

     Computing kpt #:    15  of    47
     total cpu time spent up to now is      392.8 secs

     Computing kpt #:    16  of    47
     total cpu time spent up to now is      418.8 secs

     Computing kpt #:    17  of    47
     total cpu time spent up to now is      445.9 secs

     Computing kpt #:    18  of    47
     total cpu time spent up to now is      473.5 secs

     Computing kpt #:    19  of    47
     total cpu time spent up to now is      501.1 secs

     Computing kpt #:    20  of    47
     total cpu time spent up to now is      531.3 secs

     Computing kpt #:    21  of    47
     c_bands:  1 eigenvalues not converged
     total cpu time spent up to now is      563.1 secs

     Computing kpt #:    22  of    47
     total cpu time spent up to now is      587.1 secs

     Computing kpt #:    23  of    47
     total cpu time spent up to now is      611.9 secs

     Computing kpt #:    24  of    47
     total cpu time spent up to now is      635.4 secs

     Computing kpt #:    25  of    47
     total cpu time spent up to now is      666.1 secs

     Computing kpt #:    26  of    47
     total cpu time spent up to now is      693.0 secs

     Computing kpt #:    27  of    47
     total cpu time spent up to now is      720.3 secs

     Computing kpt #:    28  of    47
     total cpu time spent up to now is      744.2 secs

     Computing kpt #:    29  of    47
     total cpu time spent up to now is      775.1 secs

     Computing kpt #:    30  of    47
     total cpu time spent up to now is      801.0 secs

     Computing kpt #:    31  of    47
     total cpu time spent up to now is      830.7 secs

     Computing kpt #:    32  of    47
     total cpu time spent up to now is      856.3 secs

     Computing kpt #:    33  of    47
     total cpu time spent up to now is      879.3 secs

     Computing kpt #:    34  of    47
     total cpu time spent up to now is      910.1 secs

     Computing kpt #:    35  of    47
     total cpu time spent up to now is      937.7 secs

     Computing kpt #:    36  of    47
     total cpu time spent up to now is      965.7 secs

     Computing kpt #:    37  of    47
     total cpu time spent up to now is      995.7 secs

     Computing kpt #:    38  of    47
     total cpu time spent up to now is     1024.8 secs

     Computing kpt #:    39  of    47
     total cpu time spent up to now is     1055.3 secs

     Computing kpt #:    40  of    47
     total cpu time spent up to now is     1082.1 secs

     Computing kpt #:    41  of    47
     total cpu time spent up to now is     1113.0 secs

     Computing kpt #:    42  of    47
     total cpu time spent up to now is     1143.5 secs

     Computing kpt #:    43  of    47
     total cpu time spent up to now is     1173.6 secs

     Computing kpt #:    44  of    47
     total cpu time spent up to now is     1205.9 secs

     Computing kpt #:    45  of    47
     total cpu time spent up to now is     1235.4 secs

     Computing kpt #:    46  of    47
     total cpu time spent up to now is     1264.3 secs

     Computing kpt #:    47  of    47
     total cpu time spent up to now is     1293.3 secs

     ethr =  5.56E-13,  avg # of iterations = 75.9

     total cpu time spent up to now is     1293.3 secs

     End of band structure calculation

          k = 0.0000 0.0000 0.0000 ( 10969 PWs)   bands (ev):

    -6.4423  -3.6863  -3.6863  -3.6863  -3.4705  -3.4705   4.3867   4.3867
     4.3867   4.9609   9.0317   9.0317   9.0317  11.8198  13.7214  13.7214
    14.5478  14.5478  14.5478  16.7709  24.4896  24.4896  24.4896  24.9277
    24.9277  24.9277  26.2820  26.2820  26.2820  27.0070  27.0070  31.3322
    33.4246  33.7571  33.7571  33.7571  35.3475  35.3475  35.3475  35.3655
    35.3655  35.3655  35.6713  35.6713  36.9293  36.9293  36.9293  37.3473

     occupation numbers 
     1.0000   1.0000   1.0000   1.0000   1.0000   1.0000   1.0000   1.0000
     1.0000   0.0000   0.0000   0.0000   0.0000   0.0000   0.0000   0.0000
     0.0000   0.0000   0.0000   0.0000   0.0000   0.0000   0.0000   0.0000
     0.0000   0.0000   0.0000   0.0000   0.0000   0.0000   0.0000   0.0000
     0.0000   0.0000   0.0000   0.0000   0.0000   0.0000   0.0000   0.0000
     0.0000   0.0000   0.0000   0.0000   0.0000   0.0000   0.0000   0.0000

          k = 0.0707 0.0707-0.0707 ( 10918 PWs)   bands (ev):

    -6.4096  -3.6803  -3.6803  -3.6595  -3.4709  -3.4709   3.4880   4.3074
     4.3074   5.6839   8.9712   9.1626   9.1626  12.3302  13.1933  13.1933
    14.2052  15.3905  15.3905  17.4822  22.9912  22.9912  23.2199  24.5566
    24.9410  24.9410  26.6170  26.6170  27.5171  28.4729  28.4729  31.6612
    32.0881  32.0881  32.7490  33.6086  34.0833  34.0833  34.1597  34.4045
    34.9260  34.9260  36.5677  36.6564  36.6564  36.8948  36.8948  37.9310

     occupation numbers 
     1.0000   1.0000   1.0000   1.0000   1.0000   1.0000   1.0000   1.0000
     1.0000   0.0000   0.0000   0.0000   0.0000   0.0000   0.0000   0.0000
     0.0000   0.0000   0.0000   0.0000   0.0000   0.0000   0.0000   0.0000
     0.0000   0.0000   0.0000   0.0000   0.0000   0.0000   0.0000   0.0000
     0.0000   0.0000   0.0000   0.0000   0.0000   0.0000   0.0000   0.0000
     0.0000   0.0000   0.0000   0.0000   0.0000   0.0000   0.0000   0.0000

          k = 0.1414 0.1414-0.1414 ( 10885 PWs)   bands (ev):

    -6.3240  -3.6653  -3.6653  -3.5741  -3.4710  -3.4710   2.3553   4.1174
     4.1174   6.1930   9.2543   9.4369   9.4369  12.8198  12.8198  12.8538
    14.4311  16.7715  16.7715  18.9691  20.8783  20.8783  20.9712  24.7459
    25.2247  25.2247  26.7983  26.7983  28.3012  29.5283  29.5283  30.1593
    31.0995  31.0995  32.1697  32.6682  32.7570  32.7570  33.6749  33.6749
    33.6848  33.9417  35.9138  36.3607  36.3607  37.5110  37.6709  37.6709

     occupation numbers 
     1.0000   1.0000   1.0000   1.0000   1.0000   1.0000   1.0000   1.0000
     1.0000   0.0000   0.0000   0.0000   0.0000   0.0000   0.0000   0.0000
     0.0000   0.0000   0.0000   0.0000   0.0000   0.0000   0.0000   0.0000
     0.0000   0.0000   0.0000   0.0000   0.0000   0.0000   0.0000   0.0000
     0.0000   0.0000   0.0000   0.0000   0.0000   0.0000   0.0000   0.0000
     0.0000   0.0000   0.0000   0.0000   0.0000   0.0000   0.0000   0.0000

          k = 0.2121 0.2121-0.2121 ( 10861 PWs)   bands (ev):

    -6.2185  -3.6488  -3.6488  -3.4687  -3.4687  -3.4267   1.3393   3.9092
     3.9092   6.2515   9.6098   9.6098  10.1239  12.5808  13.0467  13.0467
    15.9185  18.2509  18.2509  18.9378  19.0319  19.0319  20.8806  25.0167
    25.6340  25.6340  26.8468  26.8468  26.9069  27.2777  27.2777  29.3578
    30.4509  31.4342  31.6219  31.6219  32.2797  32.2797  32.8263  33.7991
    34.0089  34.0089  36.2240  36.2240  37.0534  37.5048  37.5048  37.7131

     occupation numbers 
     1.0000   1.0000   1.0000   1.0000   1.0000   1.0000   1.0000   1.0000
     1.0000   0.0000   0.0000   0.0000   0.0000   0.0000   0.0000   0.0000
     0.0000   0.0000   0.0000   0.0000   0.0000   0.0000   0.0000   0.0000
     0.0000   0.0000   0.0000   0.0000   0.0000   0.0000   0.0000   0.0000
     0.0000   0.0000   0.0000   0.0000   0.0000   0.0000   0.0000   0.0000
     0.0000   0.0000   0.0000   0.0000   0.0000   0.0000   0.0000   0.0000

          k = 0.2828 0.2828-0.2828 ( 10858 PWs)   bands (ev):

    -6.1344  -3.6376  -3.6376  -3.4645  -3.4645  -3.2544   0.5964   3.7569
     3.7569   6.1732   9.6203   9.6203  11.0808  12.5344  13.8555  13.8555
    16.1807  17.0446  17.0446  18.8874  20.2838  20.2838  22.8895  24.4977
    24.6331  24.6331  25.2793  26.1451  26.1451  27.3250  27.3250  28.0579
    29.6143  30.5875  30.8415  30.8415  31.3542  31.3542  31.8846  33.5059
    35.8714  35.8714  36.9548  36.9548  37.4227  37.4227  37.8704  39.6090

     occupation numbers 
     1.0000   1.0000   1.0000   1.0000   1.0000   1.0000   1.0000   1.0000
     1.0000   0.0000   0.0000   0.0000   0.0000   0.0000   0.0000   0.0000
     0.0000   0.0000   0.0000   0.0000   0.0000   0.0000   0.0000   0.0000
     0.0000   0.0000   0.0000   0.0000   0.0000   0.0000   0.0000   0.0000
     0.0000   0.0000   0.0000   0.0000   0.0000   0.0000   0.0000   0.0000
     0.0000   0.0000   0.0000   0.0000   0.0000   0.0000   0.0000   0.0000

          k =-0.3536-0.3536 0.3536 ( 10880 PWs)   bands (ev):

    -6.1027  -3.6338  -3.6338  -3.4622  -3.4622  -3.1690   0.3126   3.7018
     3.7018   6.1342   9.6017   9.6017  11.4033  12.8549  14.6505  14.6505
    15.4207  15.9649  15.9649  20.2004  21.8356  21.8356  22.4910  22.9122
    22.9122  25.3945  25.5060  25.6260  26.3371  26.3371  27.4338  27.4338
    29.7551  30.2768  30.5246  30.5246  30.9949  30.9949  31.5467  33.4077
    35.9894  35.9894  36.9241  36.9241  37.9813  39.7532  39.7532  40.6819

     occupation numbers 
     1.0000   1.0000   1.0000   1.0000   1.0000   1.0000   1.0000   1.0000
     1.0000   0.0000   0.0000   0.0000   0.0000   0.0000   0.0000   0.0000
     0.0000   0.0000   0.0000   0.0000   0.0000   0.0000   0.0000   0.0000
     0.0000   0.0000   0.0000   0.0000   0.0000   0.0000   0.0000   0.0000
     0.0000   0.0000   0.0000   0.0000   0.0000   0.0000   0.0000   0.0000
     0.0000   0.0000   0.0000   0.0000   0.0000   0.0000   0.0000   0.0000

          k = 0.1414 0.0000 0.0000 ( 10906 PWs)   bands (ev):

    -6.3988  -3.6746  -3.6746  -3.6582  -3.4740  -3.4679   3.4344   4.1679
     4.1679   5.9404   8.6238   9.3730   9.3730  12.3502  12.6485  13.8120
    14.8120  14.8120  15.3585  17.8537  22.8398  22.8398  23.2196  23.5842
    24.8528  24.8528  26.2678  27.8558  28.3160  28.3160  28.5126  31.1163
    32.1318  32.1915  32.1915  33.0158  33.5995  33.5995  34.6062  35.0337
    35.2179  35.2179  35.6653  35.8376  36.9803  36.9803  36.9954  37.6487

     occupation numbers 
     1.0000   1.0000   1.0000   1.0000   1.0000   1.0000   1.0000   1.0000
     1.0000   0.0000   0.0000   0.0000   0.0000   0.0000   0.0000   0.0000
     0.0000   0.0000   0.0000   0.0000   0.0000   0.0000   0.0000   0.0000
     0.0000   0.0000   0.0000   0.0000   0.0000   0.0000   0.0000   0.0000
     0.0000   0.0000   0.0000   0.0000   0.0000   0.0000   0.0000   0.0000
     0.0000   0.0000   0.0000   0.0000   0.0000   0.0000   0.0000   0.0000

          k = 0.2121 0.0707-0.0707 ( 10898 PWs)   bands (ev):

    -6.3309  -3.6636  -3.6593  -3.5957  -3.4754  -3.4657   2.5890   3.9425
     3.9923   6.4878   8.5131   9.7060   9.7322  11.9838  13.3138  13.5553
    14.6289  15.7743  16.5380  19.1508  20.8356  20.8861  22.9288  23.2439
    23.8921  25.0601  27.0281  28.5088  28.9391  29.0867  29.6320  30.5459
    30.7380  31.0847  31.5687  31.6005  32.8962  33.0594  33.6704  33.7809
    34.8991  35.3110  35.4154  36.1355  36.8304  36.8725  37.4162  38.2651

     occupation numbers 
     1.0000   1.0000   1.0000   1.0000   1.0000   1.0000   1.0000   1.0000
     1.0000   0.0000   0.0000   0.0000   0.0000   0.0000   0.0000   0.0000
     0.0000   0.0000   0.0000   0.0000   0.0000   0.0000   0.0000   0.0000
     0.0000   0.0000   0.0000   0.0000   0.0000   0.0000   0.0000   0.0000
     0.0000   0.0000   0.0000   0.0000   0.0000   0.0000   0.0000   0.0000
     0.0000   0.0000   0.0000   0.0000   0.0000   0.0000   0.0000   0.0000

          k = 0.2828 0.1414-0.1414 ( 10883 PWs)   bands (ev):

    -6.2323  -3.6492  -3.6419  -3.4966  -3.4631  -3.4454   1.6205   3.7311
     3.7496   6.6850   8.9058   9.9757   9.9913  12.1981  13.3887  13.6059
    15.5491  17.2136  18.1854  18.8331  18.8497  20.7244  21.2344  23.5280
    23.9871  25.4017  26.5074  27.4901  28.2942  28.5302  28.7590  29.8055
    29.8296  30.4464  31.5005  32.0519  32.3289  32.3338  33.1394  33.7587
    34.5193  34.6256  35.4801  35.8981  36.6029  37.8251  37.9986  38.5957

     occupation numbers 
     1.0000   1.0000   1.0000   1.0000   1.0000   1.0000   1.0000   1.0000
     1.0000   0.0000   0.0000   0.0000   0.0000   0.0000   0.0000   0.0000
     0.0000   0.0000   0.0000   0.0000   0.0000   0.0000   0.0000   0.0000
     0.0000   0.0000   0.0000   0.0000   0.0000   0.0000   0.0000   0.0000
     0.0000   0.0000   0.0000   0.0000   0.0000   0.0000   0.0000   0.0000
     0.0000   0.0000   0.0000   0.0000   0.0000   0.0000   0.0000   0.0000

          k = 0.3536 0.2121-0.2121 ( 10888 PWs)   bands (ev):

    -6.1416  -3.6365  -3.6297  -3.4784  -3.4606  -3.2865   0.8187   3.4988
     3.6022   6.6409   9.2531   9.9748  10.5699  12.7556  13.4713  14.2488
    16.1054  16.9198  18.1415  19.0636  19.1677  20.1732  22.7693  23.8492
    24.0751  24.4642  25.7499  25.8002  26.3474  27.8402  28.3788  28.7816
    29.2991  29.4391  30.7717  31.3342  31.7410  32.0241  33.6589  33.9411
    34.7096  35.2877  35.2960  36.7689  37.9108  38.3621  38.6609  39.6049

     occupation numbers 
     1.0000   1.0000   1.0000   1.0000   1.0000   1.0000   1.0000   1.0000
     1.0000   0.0000   0.0000   0.0000   0.0000   0.0000   0.0000   0.0000
     0.0000   0.0000   0.0000   0.0000   0.0000   0.0000   0.0000   0.0000
     0.0000   0.0000   0.0000   0.0000   0.0000   0.0000   0.0000   0.0000
     0.0000   0.0000   0.0000   0.0000   0.0000   0.0000   0.0000   0.0000
     0.0000   0.0000   0.0000   0.0000   0.0000   0.0000   0.0000   0.0000

          k =-0.2828-0.4243 0.4243 ( 10894 PWs)   bands (ev):

    -6.0931  -3.6295  -3.6256  -3.4698  -3.4613  -3.1604   0.3854   3.3217
     3.5887   6.5868   9.3334   9.8654  11.3289  12.9597  14.1226  14.6787
    15.3318  16.0735  17.4113  19.8751  20.9160  21.5922  22.4310  23.3198
    23.8243  24.3258  24.7454  25.3070  26.0505  26.7239  27.9342  28.0391
    28.4621  29.4084  30.6347  30.8238  31.5508  32.0514  33.1507  33.3417
    34.9215  34.9322  37.7120  38.1271  38.1552  39.4124  39.7806  40.2913

     occupation numbers 
     1.0000   1.0000   1.0000   1.0000   1.0000   1.0000   1.0000   1.0000
     1.0000   0.0000   0.0000   0.0000   0.0000   0.0000   0.0000   0.0000
     0.0000   0.0000   0.0000   0.0000   0.0000   0.0000   0.0000   0.0000
     0.0000   0.0000   0.0000   0.0000   0.0000   0.0000   0.0000   0.0000
     0.0000   0.0000   0.0000   0.0000   0.0000   0.0000   0.0000   0.0000
     0.0000   0.0000   0.0000   0.0000   0.0000   0.0000   0.0000   0.0000

          k =-0.2121-0.3536 0.3536 ( 10873 PWs)   bands (ev):

    -6.1035  -3.6294  -3.6289  -3.4667  -3.4657  -3.1890   0.4788   3.2641
     3.6924   6.5953   9.4321   9.7703  11.1962  12.9982  13.6151  14.5638
    15.3952  17.0820  17.2936  19.1321  20.4400  21.6676  23.0863  23.1987
    24.1584  24.2562  24.6842  24.9862  25.9653  27.5223  28.0168  28.0324
    28.6746  29.4461  30.5854  30.9777  31.5300  32.3319  33.2087  33.2683
    34.6517  35.1447  37.3657  37.5607  38.1774  38.5563  39.1159  40.0253

     occupation numbers 
     1.0000   1.0000   1.0000   1.0000   1.0000   1.0000   1.0000   1.0000
     1.0000   0.0000   0.0000   0.0000   0.0000   0.0000   0.0000   0.0000
     0.0000   0.0000   0.0000   0.0000   0.0000   0.0000   0.0000   0.0000
     0.0000   0.0000   0.0000   0.0000   0.0000   0.0000   0.0000   0.0000
     0.0000   0.0000   0.0000   0.0000   0.0000   0.0000   0.0000   0.0000
     0.0000   0.0000   0.0000   0.0000   0.0000   0.0000   0.0000   0.0000

          k =-0.1414-0.2828 0.2828 ( 10873 PWs)   bands (ev):

    -6.1694  -3.6410  -3.6350  -3.4732  -3.4685  -3.3423   1.0576   3.3465
     3.8864   6.6485   9.5303   9.6763  10.3007  12.6812  13.0195  14.2052
    15.9371  17.3031  18.3476  18.9517  19.1382  19.9495  21.9810  23.6911
    24.3519  25.3885  25.7151  25.7573  27.1358  27.8114  28.4680  29.1892
    29.4926  30.2472  30.6176  31.7397  31.8731  32.5492  33.7460  33.8487
    34.2296  34.8730  35.1931  35.7622  37.2978  38.0299  38.9706  38.9992

     occupation numbers 
     1.0000   1.0000   1.0000   1.0000   1.0000   1.0000   1.0000   1.0000
     1.0000   0.0000   0.0000   0.0000   0.0000   0.0000   0.0000   0.0000
     0.0000   0.0000   0.0000   0.0000   0.0000   0.0000   0.0000   0.0000
     0.0000   0.0000   0.0000   0.0000   0.0000   0.0000   0.0000   0.0000
     0.0000   0.0000   0.0000   0.0000   0.0000   0.0000   0.0000   0.0000
     0.0000   0.0000   0.0000   0.0000   0.0000   0.0000   0.0000   0.0000

          k =-0.0707-0.2121 0.2121 ( 10894 PWs)   bands (ev):

    -6.2673  -3.6580  -3.6482  -3.5162  -3.4760  -3.4594   1.9247   3.5724
     4.1130   6.6097   9.1338   9.4804   9.8807  12.3030  12.9745  13.7064
    15.0939  16.5312  18.1124  18.7103  20.0028  21.0223  21.0245  23.4025
    23.9757  25.2168  27.3187  27.8517  28.3633  28.5054  29.4101  30.1795
    30.2428  30.6672  31.4708  31.8612  32.3659  32.8039  32.9329  33.7323
    34.5799  34.8081  35.0051  35.7563  36.4932  37.4615  37.7381  38.4306

     occupation numbers 
     1.0000   1.0000   1.0000   1.0000   1.0000   1.0000   1.0000   1.0000
     1.0000   0.0000   0.0000   0.0000   0.0000   0.0000   0.0000   0.0000
     0.0000   0.0000   0.0000   0.0000   0.0000   0.0000   0.0000   0.0000
     0.0000   0.0000   0.0000   0.0000   0.0000   0.0000   0.0000   0.0000
     0.0000   0.0000   0.0000   0.0000   0.0000   0.0000   0.0000   0.0000
     0.0000   0.0000   0.0000   0.0000   0.0000   0.0000   0.0000   0.0000

          k = 0.0000-0.1414 0.1414 ( 10923 PWs)   bands (ev):

    -6.3593  -3.6736  -3.6655  -3.6167  -3.4744  -3.4678   2.8448   3.9346
     4.2834   6.2144   8.8391   9.2313   9.6126  12.5366  12.8773  13.1455
    14.7962  15.1523  16.6219  18.4572  20.8173  22.7771  22.9122  23.3385
    23.9645  24.9472  27.1391  27.9441  28.6996  29.0001  29.9866  30.1702
    30.8884  31.4865  32.0579  32.6898  32.7296  33.1143  33.5624  33.9396
    35.1756  35.5045  35.8210  36.0484  36.4970  36.8957  37.3693  38.1392

     occupation numbers 
     1.0000   1.0000   1.0000   1.0000   1.0000   1.0000   1.0000   1.0000
     1.0000   0.0000   0.0000   0.0000   0.0000   0.0000   0.0000   0.0000
     0.0000   0.0000   0.0000   0.0000   0.0000   0.0000   0.0000   0.0000
     0.0000   0.0000   0.0000   0.0000   0.0000   0.0000   0.0000   0.0000
     0.0000   0.0000   0.0000   0.0000   0.0000   0.0000   0.0000   0.0000
     0.0000   0.0000   0.0000   0.0000   0.0000   0.0000   0.0000   0.0000

          k = 0.2828 0.0000 0.0000 ( 10930 PWs)   bands (ev):

    -6.2853  -3.6428  -3.6428  -3.5765  -3.4727  -3.4612   2.3397   3.6847
     3.6847   6.9535   7.9898  10.2260  10.2260  11.3538  14.0283  14.0795
    15.5979  15.5979  16.1085  20.3018  20.5941  20.5941  21.4271  21.5130
    25.2155  25.2155  26.3840  28.0734  28.7245  29.0868  29.0868  30.5320
    30.9957  31.1333  31.1333  32.5080  32.5080  33.3669  33.7970  34.0003
    34.0003  34.0304  35.3802  35.6677  37.0232  37.8575  37.8575  38.1279

     occupation numbers 
     1.0000   1.0000   1.0000   1.0000   1.0000   1.0000   1.0000   1.0000
     1.0000   0.0000   0.0000   0.0000   0.0000   0.0000   0.0000   0.0000
     0.0000   0.0000   0.0000   0.0000   0.0000   0.0000   0.0000   0.0000
     0.0000   0.0000   0.0000   0.0000   0.0000   0.0000   0.0000   0.0000
     0.0000   0.0000   0.0000   0.0000   0.0000   0.0000   0.0000   0.0000
     0.0000   0.0000   0.0000   0.0000   0.0000   0.0000   0.0000   0.0000

          k = 0.3536 0.0707-0.0707 ( 10892 PWs)   bands (ev):

    -6.2049  -3.6287  -3.6234  -3.5250  -3.4576  -3.4235   1.6872   3.3957
     3.4532   7.2125   8.0107  10.3264  10.6395  11.7289  14.1836  14.6248
    15.7857  16.5983  17.5475  18.8184  18.8424  21.2136  21.3961  21.8982
    23.9299  25.5072  25.9791  27.3187  27.6885  27.9293  29.4165  29.8860
    30.5041  30.7368  31.3101  32.1161  32.5071  32.6817  33.5725  33.7921
    34.5356  34.6732  35.5820  36.1362  36.8314  37.5939  37.8474  38.1281

     occupation numbers 
     1.0000   1.0000   1.0000   1.0000   1.0000   1.0000   1.0000   1.0000
     1.0000   0.0000   0.0000   0.0000   0.0000   0.0000   0.0000   0.0000
     0.0000   0.0000   0.0000   0.0000   0.0000   0.0000   0.0000   0.0000
     0.0000   0.0000   0.0000   0.0000   0.0000   0.0000   0.0000   0.0000
     0.0000   0.0000   0.0000   0.0000   0.0000   0.0000   0.0000   0.0000
     0.0000   0.0000   0.0000   0.0000   0.0000   0.0000   0.0000   0.0000

          k = 0.4243 0.1414-0.1414 ( 10893 PWs)   bands (ev):

    -6.1218  -3.6200  -3.6092  -3.5038  -3.4558  -3.2805   1.0054   3.0372
     3.3200   7.2392   8.5552  10.1955  10.7297  12.7853  14.5374  14.6720
    16.1459  16.9485  17.9112  18.2026  19.5167  20.8010  21.7283  22.6936
    23.3480  24.0525  25.8023  26.4253  26.5882  27.7364  28.1582  28.2357
    29.4669  30.6444  31.1701  31.7198  32.0316  32.8881  33.0131  33.8768
    34.2418  36.3744  36.5887  36.9162  37.6080  37.6109  38.5735  39.2144

     occupation numbers 
     1.0000   1.0000   1.0000   1.0000   1.0000   1.0000   1.0000   1.0000
     1.0000   0.0000   0.0000   0.0000   0.0000   0.0000   0.0000   0.0000
     0.0000   0.0000   0.0000   0.0000   0.0000   0.0000   0.0000   0.0000
     0.0000   0.0000   0.0000   0.0000   0.0000   0.0000   0.0000   0.0000
     0.0000   0.0000   0.0000   0.0000   0.0000   0.0000   0.0000   0.0000
     0.0000   0.0000   0.0000   0.0000   0.0000   0.0000   0.0000   0.0000

          k =-0.2121-0.4950 0.4950 ( 10879 PWs)   bands (ev):

    -6.0675  -3.6157  -3.6042  -3.4895  -3.4583  -3.1363   0.5432   2.7240
     3.3188   7.2176   9.0364  10.5806  10.6169  13.1508  14.6692  14.7786
    15.4949  16.3232  19.1266  19.5502  19.8921  21.1020  22.0164  22.0495
    22.7241  24.4846  25.3728  25.7133  26.1941  26.3380  26.6888  28.1988
    28.4628  29.4452  30.8243  31.0696  31.9942  32.9681  33.7406  33.8722
    35.6025  35.9952  36.3514  37.7343  38.6260  38.7459  39.3617  39.5790

     occupation numbers 
     1.0000   1.0000   1.0000   1.0000   1.0000   1.0000   1.0000   1.0000
     1.0000   0.0000   0.0000   0.0000   0.0000   0.0000   0.0000   0.0000
     0.0000   0.0000   0.0000   0.0000   0.0000   0.0000   0.0000   0.0000
     0.0000   0.0000   0.0000   0.0000   0.0000   0.0000   0.0000   0.0000
     0.0000   0.0000   0.0000   0.0000   0.0000   0.0000   0.0000   0.0000
     0.0000   0.0000   0.0000   0.0000   0.0000   0.0000   0.0000   0.0000

          k =-0.1414-0.4243 0.4243 ( 10885 PWs)   bands (ev):

    -6.0612  -3.6155  -3.6085  -3.4778  -3.4660  -3.1083   0.4824   2.5546
     3.4490   7.2408   9.2361  10.3707  11.0889  12.8368  13.5830  14.5687
    16.3221  17.5885  18.0848  18.7927  21.1754  21.5734  22.2407  22.6170
    22.8608  23.7166  24.3273  25.8689  25.8708  26.2303  26.2985  28.1315
    28.5737  29.6442  30.8193  30.9086  31.9577  33.0096  33.3635  33.7987
    35.5010  35.8631  37.0847  37.6532  38.5786  38.7618  40.0441  40.0754

     occupation numbers 
     1.0000   1.0000   1.0000   1.0000   1.0000   1.0000   1.0000   1.0000
     1.0000   0.0000   0.0000   0.0000   0.0000   0.0000   0.0000   0.0000
     0.0000   0.0000   0.0000   0.0000   0.0000   0.0000   0.0000   0.0000
     0.0000   0.0000   0.0000   0.0000   0.0000   0.0000   0.0000   0.0000
     0.0000   0.0000   0.0000   0.0000   0.0000   0.0000   0.0000   0.0000
     0.0000   0.0000   0.0000   0.0000   0.0000   0.0000   0.0000   0.0000

          k =-0.0707-0.3536 0.3536 ( 10883 PWs)   bands (ev):

    -6.1048  -3.6218  -3.6197  -3.4744  -3.4729  -3.2200   0.8348   2.5994
     3.6773   7.2721   9.4385  10.1281  10.2563  12.6042  13.7033  14.9301
    15.7102  16.9160  18.9401  19.2484  19.5865  21.4242  21.8304  22.5603
    23.6386  24.1645  24.6599  25.8981  26.0842  26.6072  27.4019  28.4565
    29.8819  30.6065  31.2565  31.3251  31.8894  32.9237  33.2362  33.6446
    34.4799  34.6960  36.3161  36.3558  37.5661  39.3445  39.5949  40.5764

     occupation numbers 
     1.0000   1.0000   1.0000   1.0000   1.0000   1.0000   1.0000   1.0000
     1.0000   0.0000   0.0000   0.0000   0.0000   0.0000   0.0000   0.0000
     0.0000   0.0000   0.0000   0.0000   0.0000   0.0000   0.0000   0.0000
     0.0000   0.0000   0.0000   0.0000   0.0000   0.0000   0.0000   0.0000
     0.0000   0.0000   0.0000   0.0000   0.0000   0.0000   0.0000   0.0000
     0.0000   0.0000   0.0000   0.0000   0.0000   0.0000   0.0000   0.0000

          k = 0.0000-0.2828 0.2828 ( 10875 PWs)   bands (ev):

    -6.1832  -3.6408  -3.6303  -3.4781  -3.4770  -3.3738   1.3934   2.9378
     3.9336   7.1235   9.3417   9.7889   9.7925  12.1744  13.8559  14.5345
    15.5085  16.4894  17.7857  19.6557  20.3699  20.9547  21.7514  21.7552
    22.7787  25.4707  26.1269  26.6384  27.5349  27.9820  28.0155  30.0681
    30.3229  30.7510  31.5981  32.0881  32.2311  32.5043  32.7035  33.4968
    33.7198  34.3225  34.7451  36.7510  37.7297  37.8796  38.2765  38.6231

     occupation numbers 
     1.0000   1.0000   1.0000   1.0000   1.0000   1.0000   1.0000   1.0000
     1.0000   0.0000   0.0000   0.0000   0.0000   0.0000   0.0000   0.0000
     0.0000   0.0000   0.0000   0.0000   0.0000   0.0000   0.0000   0.0000
     0.0000   0.0000   0.0000   0.0000   0.0000   0.0000   0.0000   0.0000
     0.0000   0.0000   0.0000   0.0000   0.0000   0.0000   0.0000   0.0000
     0.0000   0.0000   0.0000   0.0000   0.0000   0.0000   0.0000   0.0000

          k = 0.4243 0.0000 0.0000 ( 10886 PWs)   bands (ev):

    -6.1472  -3.6014  -3.6014  -3.5354  -3.4528  -3.3591   1.3783   3.1955
     3.1955   7.2066   7.6403  11.3260  11.3385  11.3385  14.5015  15.6884
    16.8740  16.8740  17.1697  18.5438  18.5438  19.6164  19.8461  23.2629
    25.0131  25.6487  25.6487  26.2786  26.2786  26.7943  27.9055  29.2275
    31.3078  31.3078  32.1518  32.9233  32.9233  33.1279  33.6931  33.7029
    34.3603  34.3603  35.5641  36.1597  36.5722  36.5722  36.6788  38.1972

     occupation numbers 
     1.0000   1.0000   1.0000   1.0000   1.0000   1.0000   1.0000   1.0000
     1.0000   0.0000   0.0000   0.0000   0.0000   0.0000   0.0000   0.0000
     0.0000   0.0000   0.0000   0.0000   0.0000   0.0000   0.0000   0.0000
     0.0000   0.0000   0.0000   0.0000   0.0000   0.0000   0.0000   0.0000
     0.0000   0.0000   0.0000   0.0000   0.0000   0.0000   0.0000   0.0000
     0.0000   0.0000   0.0000   0.0000   0.0000   0.0000   0.0000   0.0000

          k = 0.4950 0.0707-0.0707 ( 10879 PWs)   bands (ev):

    -6.0823  -3.5909  -3.5847  -3.5291  -3.4503  -3.2370   0.9306   2.8793
     3.0394   7.2495   7.7317  11.0097  11.6923  12.6362  14.8963  15.8854
    16.7358  17.0854  17.8280  17.9625  18.9100  19.5957  19.8180  23.0887
    24.2747  24.6969  24.7674  25.4385  26.2124  26.8405  28.0016  29.3329
    29.9682  30.3835  31.5506  31.6293  32.4909  33.6851  33.6937  34.4642
    34.9109  35.5326  35.5412  36.5800  36.6893  37.0216  37.4929  38.6502

     occupation numbers 
     1.0000   1.0000   1.0000   1.0000   1.0000   1.0000   1.0000   1.0000
     1.0000   0.0000   0.0000   0.0000   0.0000   0.0000   0.0000   0.0000
     0.0000   0.0000   0.0000   0.0000   0.0000   0.0000   0.0000   0.0000
     0.0000   0.0000   0.0000   0.0000   0.0000   0.0000   0.0000   0.0000
     0.0000   0.0000   0.0000   0.0000   0.0000   0.0000   0.0000   0.0000
     0.0000   0.0000   0.0000   0.0000   0.0000   0.0000   0.0000   0.0000

          k =-0.1414-0.5657 0.5657 ( 10877 PWs)   bands (ev):

    -6.0355  -3.5930  -3.5785  -3.5137  -3.4530  -3.1015   0.5952   2.4522
     3.0242   7.2882   8.4037  10.8691  11.5834  13.1813  14.9625  15.6131
    16.2354  16.4549  18.8583  19.3107  19.6133  20.2648  20.7717  21.5871
    22.8029  23.8801  23.9922  26.2331  26.4506  26.7041  27.4492  27.8415
    28.5678  30.1102  30.9506  31.4022  32.3369  33.1626  33.6390  34.6682
    34.7035  36.0654  36.7999  36.9862  38.0328  38.7245  39.0039  39.8041

     occupation numbers 
     1.0000   1.0000   1.0000   1.0000   1.0000   1.0000   1.0000   1.0000
     1.0000   0.0000   0.0000   0.0000   0.0000   0.0000   0.0000   0.0000
     0.0000   0.0000   0.0000   0.0000   0.0000   0.0000   0.0000   0.0000
     0.0000   0.0000   0.0000   0.0000   0.0000   0.0000   0.0000   0.0000
     0.0000   0.0000   0.0000   0.0000   0.0000   0.0000   0.0000   0.0000
     0.0000   0.0000   0.0000   0.0000   0.0000   0.0000   0.0000   0.0000

          k =-0.0707-0.4950 0.4950 ( 10856 PWs)   bands (ev):

    -6.0233  -3.5994  -3.5836  -3.4961  -3.4612  -3.0401   0.5052   2.1413
     3.1536   7.3687   9.1777  11.0879  11.2371  12.1882  13.8136  16.0399
    16.7653  17.6683  18.4059  18.9491  20.1554  21.2334  21.2927  21.9417
    23.0224  23.5888  23.6254  25.0339  25.7431  26.5020  26.6230  27.8697
    28.7130  29.5100  30.9287  30.9572  32.3786  32.5923  33.3514  34.6940
    35.8573  36.6412  37.5154  38.2273  38.3838  39.0449  39.1792  39.8225

     occupation numbers 
     1.0000   1.0000   1.0000   1.0000   1.0000   1.0000   1.0000   1.0000
     1.0000   0.0000   0.0000   0.0000   0.0000   0.0000   0.0000   0.0000
     0.0000   0.0000   0.0000   0.0000   0.0000   0.0000   0.0000   0.0000
     0.0000   0.0000   0.0000   0.0000   0.0000   0.0000   0.0000   0.0000
     0.0000   0.0000   0.0000   0.0000   0.0000   0.0000   0.0000   0.0000
     0.0000   0.0000   0.0000   0.0000   0.0000   0.0000   0.0000   0.0000

          k =-0.0000-0.4243 0.4243 ( 10892 PWs)   bands (ev):

    -6.0495  -3.6080  -3.5996  -3.4817  -3.4702  -3.0960   0.6380   2.1490
     3.3953   7.4613   9.5070  10.6785  10.7326  12.4812  12.9463  16.0848
    16.4588  17.3410  18.6714  18.9986  20.4435  21.1575  21.6802  22.5720
    23.4250  23.4697  24.1049  24.9473  25.7864  26.2432  26.8106  27.1619
    28.7606  30.7864  31.3592  31.6068  31.8425  32.4020  33.0447  34.0967
    35.4104  35.6169  37.1837  38.6674  38.7426  39.0404  39.7399  39.8182

     occupation numbers 
     1.0000   1.0000   1.0000   1.0000   1.0000   1.0000   1.0000   1.0000
     1.0000   0.0000   0.0000   0.0000   0.0000   0.0000   0.0000   0.0000
     0.0000   0.0000   0.0000   0.0000   0.0000   0.0000   0.0000   0.0000
     0.0000   0.0000   0.0000   0.0000   0.0000   0.0000   0.0000   0.0000
     0.0000   0.0000   0.0000   0.0000   0.0000   0.0000   0.0000   0.0000
     0.0000   0.0000   0.0000   0.0000   0.0000   0.0000   0.0000   0.0000

          k = 0.5657 0.0000 0.0000 ( 10878 PWs)   bands (ev):

    -6.0391  -3.5660  -3.5660  -3.5446  -3.4461  -3.1569   0.6614   2.8528
     2.8528   7.0490   7.3434  12.2329  12.5192  12.5192  14.9916  16.4346
    16.7964  16.7964  18.5871  18.5871  18.6176  18.6457  19.1745  22.4297
    23.3702  23.3702  24.4526  26.4878  26.4878  26.9751  27.4004  29.7016
    30.4259  30.4259  31.3377  32.3065  32.3065  32.8076  32.8433  34.5906
    34.9358  35.6406  35.6406  35.7719  36.9679  37.1372  37.5820  37.5820

     occupation numbers 
     1.0000   1.0000   1.0000   1.0000   1.0000   1.0000   1.0000   1.0000
     1.0000   0.0000   0.0000   0.0000   0.0000   0.0000   0.0000   0.0000
     0.0000   0.0000   0.0000   0.0000   0.0000   0.0000   0.0000   0.0000
     0.0000   0.0000   0.0000   0.0000   0.0000   0.0000   0.0000   0.0000
     0.0000   0.0000   0.0000   0.0000   0.0000   0.0000   0.0000   0.0000
     0.0000   0.0000   0.0000   0.0000   0.0000   0.0000   0.0000   0.0000

          k =-0.0707-0.6364 0.6364 ( 10868 PWs)   bands (ev):

    -6.0092  -3.5690  -3.5589  -3.5348  -3.4466  -3.0671   0.4643   2.5915
     2.8089   7.1356   7.5009  12.0932  12.6475  13.2106  15.1789  15.6825
    16.1835  17.0563  18.4674  18.6590  19.7329  19.7859  20.4460  21.0978
    22.3327  22.5969  23.8261  25.1126  26.7027  27.9848  28.6190  28.9746
    29.5798  30.6921  30.9480  31.2888  31.8049  32.7144  33.4157  33.4357
    34.4250  35.0893  36.6482  36.7165  37.3907  38.6274  38.8432  39.7241

     occupation numbers 
     1.0000   1.0000   1.0000   1.0000   1.0000   1.0000   1.0000   1.0000
     1.0000   0.0000   0.0000   0.0000   0.0000   0.0000   0.0000   0.0000
     0.0000   0.0000   0.0000   0.0000   0.0000   0.0000   0.0000   0.0000
     0.0000   0.0000   0.0000   0.0000   0.0000   0.0000   0.0000   0.0000
     0.0000   0.0000   0.0000   0.0000   0.0000   0.0000   0.0000   0.0000
     0.0000   0.0000   0.0000   0.0000   0.0000   0.0000   0.0000   0.0000

          k = 0.0000-0.5657 0.5657 ( 10836 PWs)   bands (ev):

    -6.0035  -3.5830  -3.5651  -3.5164  -3.4531  -3.0195   0.4478   2.2281
     2.9179   7.2313   8.3387  11.8032  12.1027  12.4124  14.3956  16.2101
    17.0328  17.6223  18.2023  18.7971  19.1828  20.7701  21.2016  21.6928
    22.2174  22.9655  23.7639  24.2090  26.2142  26.6795  27.7143  28.6017
    29.9545  30.7368  30.7595  30.9251  31.2548  32.2862  32.8239  33.8704
    36.1527  36.6141  37.0305  37.8352  38.1200  39.0311  39.0437  39.9419

     occupation numbers 
     1.0000   1.0000   1.0000   1.0000   1.0000   1.0000   1.0000   1.0000
     1.0000   0.0000   0.0000   0.0000   0.0000   0.0000   0.0000   0.0000
     0.0000   0.0000   0.0000   0.0000   0.0000   0.0000   0.0000   0.0000
     0.0000   0.0000   0.0000   0.0000   0.0000   0.0000   0.0000   0.0000
     0.0000   0.0000   0.0000   0.0000   0.0000   0.0000   0.0000   0.0000
     0.0000   0.0000   0.0000   0.0000   0.0000   0.0000   0.0000   0.0000

          k =-0.7071 0.0000 0.0000 ( 10846 PWs)   bands (ev):

    -5.9991  -3.5520  -3.5520  -3.5499  -3.4435  -3.0520   0.3799   2.7309
     2.7309   7.0509   7.1253  12.8879  13.2239  13.2239  15.2584  15.9091
    15.9091  16.0130  18.1401  19.9368  20.1544  20.1544  20.4781  20.5046
    21.4732  21.4732  22.8485  26.8183  26.8183  27.3772  29.6035  29.9928
    29.9928  30.6584  30.7093  31.2785  32.1028  32.1028  32.5069  32.6876
    34.9747  35.3823  35.3823  35.6035  37.1873  39.1270  40.2223  40.2223

     occupation numbers 
     1.0000   1.0000   1.0000   1.0000   1.0000   1.0000   1.0000   1.0000
     1.0000   0.0000   0.0000   0.0000   0.0000   0.0000   0.0000   0.0000
     0.0000   0.0000   0.0000   0.0000   0.0000   0.0000   0.0000   0.0000
     0.0000   0.0000   0.0000   0.0000   0.0000   0.0000   0.0000   0.0000
     0.0000   0.0000   0.0000   0.0000   0.0000   0.0000   0.0000   0.0000
     0.0000   0.0000   0.0000   0.0000   0.0000   0.0000   0.0000   0.0000

          k = 0.2828 0.1414-0.0000 ( 10897 PWs)   bands (ev):

    -6.2568  -3.6498  -3.6402  -3.5295  -3.4692  -3.4565   1.9868   3.4374
     3.8973   6.9592   8.4216   9.9508  10.0829  11.8605  13.6209  14.0964
    15.2213  16.1313  17.7071  18.7238  20.4581  20.7639  21.4697  23.1340
    23.5716  24.3112  27.2738  28.1747  28.6854  28.9672  29.5881  30.0627
    30.2845  30.8311  31.2105  31.3400  32.0135  32.5179  32.8545  34.2327
    34.8507  35.5710  35.6972  35.8634  36.7619  36.8461  37.2198  37.9534

     occupation numbers 
     1.0000   1.0000   1.0000   1.0000   1.0000   1.0000   1.0000   1.0000
     1.0000   0.0000   0.0000   0.0000   0.0000   0.0000   0.0000   0.0000
     0.0000   0.0000   0.0000   0.0000   0.0000   0.0000   0.0000   0.0000
     0.0000   0.0000   0.0000   0.0000   0.0000   0.0000   0.0000   0.0000
     0.0000   0.0000   0.0000   0.0000   0.0000   0.0000   0.0000   0.0000
     0.0000   0.0000   0.0000   0.0000   0.0000   0.0000   0.0000   0.0000

          k = 0.3536 0.2121-0.0707 ( 10884 PWs)   bands (ev):

    -6.1661  -3.6342  -3.6245  -3.4935  -3.4626  -3.3513   1.2622   3.0518
     3.6971   7.1787   8.8170   9.8683  10.4219  12.3053  13.9484  14.5682
    15.7610  16.8491  17.9151  18.9613  19.4256  20.8076  22.0921  22.4322
    23.7020  24.4401  25.1221  26.7767  27.4849  28.4881  29.1466  29.3701
    29.4156  30.3269  30.8949  31.6282  31.9715  32.5093  32.8707  34.4817
    34.6546  34.9895  35.7184  36.0964  37.2101  37.5795  38.3536  38.7788

     occupation numbers 
     1.0000   1.0000   1.0000   1.0000   1.0000   1.0000   1.0000   1.0000
     1.0000   0.0000   0.0000   0.0000   0.0000   0.0000   0.0000   0.0000
     0.0000   0.0000   0.0000   0.0000   0.0000   0.0000   0.0000   0.0000
     0.0000   0.0000   0.0000   0.0000   0.0000   0.0000   0.0000   0.0000
     0.0000   0.0000   0.0000   0.0000   0.0000   0.0000   0.0000   0.0000
     0.0000   0.0000   0.0000   0.0000   0.0000   0.0000   0.0000   0.0000

          k =-0.2828-0.4243 0.5657 ( 10879 PWs)   bands (ev):

    -6.0942  -3.6228  -3.6154  -3.4828  -3.4619  -3.1928   0.6629   2.8504
     3.4994   7.1746   9.1182  10.0727  10.7836  12.9286  13.9934  14.7219
    15.5237  17.1211  18.1527  19.2571  19.8397  21.3146  22.1359  22.7482
    23.9573  24.3803  24.8286  24.9741  25.8675  26.5764  28.3815  28.6683
    29.2846  29.6127  30.3826  30.6723  31.6995  32.9084  33.7948  34.0764
    35.2894  35.7540  36.0291  37.1067  37.2291  38.4504  39.4988  40.3212

     occupation numbers 
     1.0000   1.0000   1.0000   1.0000   1.0000   1.0000   1.0000   1.0000
     1.0000   0.0000   0.0000   0.0000   0.0000   0.0000   0.0000   0.0000
     0.0000   0.0000   0.0000   0.0000   0.0000   0.0000   0.0000   0.0000
     0.0000   0.0000   0.0000   0.0000   0.0000   0.0000   0.0000   0.0000
     0.0000   0.0000   0.0000   0.0000   0.0000   0.0000   0.0000   0.0000
     0.0000   0.0000   0.0000   0.0000   0.0000   0.0000   0.0000   0.0000

          k =-0.2121-0.3536 0.4950 ( 10886 PWs)   bands (ev):

    -6.0672  -3.6193  -3.6122  -3.4764  -3.4637  -3.1154   0.4253   2.7911
     3.4185   7.1552   9.1210  10.1937  11.2985  12.8082  14.1246  14.6578
    15.3793  17.1881  17.9572  19.6446  20.5953  21.6639  22.2936  22.8248
    23.5853  23.8105  24.4069  24.9738  25.8085  26.8031  26.8869  28.2203
    28.3410  29.7184  30.4134  30.6194  31.5808  32.9783  33.5454  33.9156
    35.5638  35.9709  37.3584  38.0373  38.0412  38.3359  38.6898  40.3190

     occupation numbers 
     1.0000   1.0000   1.0000   1.0000   1.0000   1.0000   1.0000   1.0000
     1.0000   0.0000   0.0000   0.0000   0.0000   0.0000   0.0000   0.0000
     0.0000   0.0000   0.0000   0.0000   0.0000   0.0000   0.0000   0.0000
     0.0000   0.0000   0.0000   0.0000   0.0000   0.0000   0.0000   0.0000
     0.0000   0.0000   0.0000   0.0000   0.0000   0.0000   0.0000   0.0000
     0.0000   0.0000   0.0000   0.0000   0.0000   0.0000   0.0000   0.0000

          k = 0.4243 0.1414 0.0000 ( 10883 PWs)   bands (ev):

    -6.1326  -3.6125  -3.6056  -3.5164  -3.4552  -3.3172   1.2145   2.9582
     3.3086   7.4588   8.0063  10.2080  11.2779  12.2064  14.6486  15.3403
    16.0346  16.7804  17.9360  18.6071  18.8018  19.7658  21.5448  23.3367
    23.8075  24.3634  24.8688  25.6261  27.1246  28.1323  28.9586  29.3271
    30.0567  30.3739  30.6145  31.4097  32.0871  33.6021  34.2317  34.3103
    34.8357  35.2196  35.2565  36.3502  36.7583  37.8997  38.5096  38.5671

     occupation numbers 
     1.0000   1.0000   1.0000   1.0000   1.0000   1.0000   1.0000   1.0000
     1.0000   0.0000   0.0000   0.0000   0.0000   0.0000   0.0000   0.0000
     0.0000   0.0000   0.0000   0.0000   0.0000   0.0000   0.0000   0.0000
     0.0000   0.0000   0.0000   0.0000   0.0000   0.0000   0.0000   0.0000
     0.0000   0.0000   0.0000   0.0000   0.0000   0.0000   0.0000   0.0000
     0.0000   0.0000   0.0000   0.0000   0.0000   0.0000   0.0000   0.0000

          k =-0.2121-0.4950 0.6364 ( 10877 PWs)   bands (ev):

    -6.0681  -3.6043  -3.5947  -3.5052  -3.4563  -3.1701   0.7643   2.5952
     3.1323   7.5871   8.5239  10.0131  11.5520  12.8180  14.8295  15.5505
    15.6287  17.1404  17.6502  19.3734  19.6965  20.6327  21.6098  22.2504
    22.7804  24.0101  24.7260  25.6790  26.2456  26.9663  27.8180  28.1738
    29.0681  29.9735  30.6452  31.0844  32.4052  33.0102  34.2323  34.8232
    35.0941  35.9448  36.4635  37.2962  37.5018  38.0424  38.5527  38.8933

     occupation numbers 
     1.0000   1.0000   1.0000   1.0000   1.0000   1.0000   1.0000   1.0000
     1.0000   0.0000   0.0000   0.0000   0.0000   0.0000   0.0000   0.0000
     0.0000   0.0000   0.0000   0.0000   0.0000   0.0000   0.0000   0.0000
     0.0000   0.0000   0.0000   0.0000   0.0000   0.0000   0.0000   0.0000
     0.0000   0.0000   0.0000   0.0000   0.0000   0.0000   0.0000   0.0000
     0.0000   0.0000   0.0000   0.0000   0.0000   0.0000   0.0000   0.0000

          k =-0.1414-0.4243 0.5657 ( 10865 PWs)   bands (ev):

    -6.0355  -3.6038  -3.5911  -3.4919  -3.4621  -3.0666   0.5162   2.3452
     3.0944   7.6288   9.0474  10.2062  11.5597  12.3659  14.6703  15.4472
    15.6200  17.5905  18.8005  19.2084  20.1220  20.9670  21.5364  22.5167
    23.0151  23.4019  24.3973  24.9351  25.5222  26.3127  27.6275  28.0839
    28.5308  28.7998  30.0715  30.5024  32.5760  33.7450  34.7317  35.2929
    35.4719  36.0682  36.4833  36.9416  38.3217  38.6518  39.1012  39.9546

     occupation numbers 
     1.0000   1.0000   1.0000   1.0000   1.0000   1.0000   1.0000   1.0000
     1.0000   0.0000   0.0000   0.0000   0.0000   0.0000   0.0000   0.0000
     0.0000   0.0000   0.0000   0.0000   0.0000   0.0000   0.0000   0.0000
     0.0000   0.0000   0.0000   0.0000   0.0000   0.0000   0.0000   0.0000
     0.0000   0.0000   0.0000   0.0000   0.0000   0.0000   0.0000   0.0000
     0.0000   0.0000   0.0000   0.0000   0.0000   0.0000   0.0000   0.0000

          k =-0.0707-0.3536 0.4950 ( 10878 PWs)   bands (ev):

    -6.0456  -3.6070  -3.5972  -3.4854  -3.4668  -3.0879   0.5855   2.2777
     3.2315   7.6801   9.2219  10.0186  11.5544  12.2157  13.7503  15.5419
    16.4584  17.7221  18.0452  18.9580  20.8510  21.1392  21.7977  22.5037
    22.9308  23.5948  24.3271  24.8408  25.6240  26.4091  26.6308  28.1902
    28.8231  29.8000  30.1034  30.5483  32.4535  33.5563  34.1034  34.9860
    35.3492  35.9526  36.7690  37.6670  38.2281  38.5680  39.1280  39.5409

     occupation numbers 
     1.0000   1.0000   1.0000   1.0000   1.0000   1.0000   1.0000   1.0000
     1.0000   0.0000   0.0000   0.0000   0.0000   0.0000   0.0000   0.0000
     0.0000   0.0000   0.0000   0.0000   0.0000   0.0000   0.0000   0.0000
     0.0000   0.0000   0.0000   0.0000   0.0000   0.0000   0.0000   0.0000
     0.0000   0.0000   0.0000   0.0000   0.0000   0.0000   0.0000   0.0000
     0.0000   0.0000   0.0000   0.0000   0.0000   0.0000   0.0000   0.0000

          k = 0.0000-0.2828 0.4243 ( 10892 PWs)   bands (ev):

    -6.0948  -3.6165  -3.6100  -3.4900  -3.4642  -3.2123   0.8943   2.4992
     3.4747   7.6080   9.1252   9.5705  11.0497  12.4290  14.1136  15.5249
    15.7716  16.4044  18.7732  19.3355  19.7306  21.0312  21.7648  22.5277
    23.4716  24.0537  24.4862  25.1073  26.0354  27.1227  28.2572  28.8721
    29.3403  29.8493  30.7213  31.6973  32.1425  32.7284  33.5554  34.2628
    34.8127  35.4289  36.2263  37.0469  37.3041  38.4367  39.3412  39.6082

     occupation numbers 
     1.0000   1.0000   1.0000   1.0000   1.0000   1.0000   1.0000   1.0000
     1.0000   0.0000   0.0000   0.0000   0.0000   0.0000   0.0000   0.0000
     0.0000   0.0000   0.0000   0.0000   0.0000   0.0000   0.0000   0.0000
     0.0000   0.0000   0.0000   0.0000   0.0000   0.0000   0.0000   0.0000
     0.0000   0.0000   0.0000   0.0000   0.0000   0.0000   0.0000   0.0000
     0.0000   0.0000   0.0000   0.0000   0.0000   0.0000   0.0000   0.0000

          k =-0.1414-0.5657 0.7071 ( 10878 PWs)   bands (ev):

    -6.0355  -3.5791  -3.5765  -3.5249  -3.4501  -3.1236   0.6409   2.6517
     2.8339   7.4506   7.7171  11.0023  12.4730  12.8698  15.3003  15.4579
    16.5720  17.2564  17.7312  18.4824  19.5111  20.0708  20.3949  21.7045
    22.8682  24.1699  24.6025  25.2451  25.6045  27.2437  28.3413  29.0706
    29.5033  29.5553  30.8724  31.0114  32.9225  33.6223  33.7203  34.6273
    34.8784  35.3948  35.6886  36.2908  37.5479  38.5035  38.6564  39.3216

     occupation numbers 
     1.0000   1.0000   1.0000   1.0000   1.0000   1.0000   1.0000   1.0000
     1.0000   0.0000   0.0000   0.0000   0.0000   0.0000   0.0000   0.0000
     0.0000   0.0000   0.0000   0.0000   0.0000   0.0000   0.0000   0.0000
     0.0000   0.0000   0.0000   0.0000   0.0000   0.0000   0.0000   0.0000
     0.0000   0.0000   0.0000   0.0000   0.0000   0.0000   0.0000   0.0000
     0.0000   0.0000   0.0000   0.0000   0.0000   0.0000   0.0000   0.0000

          k =-0.0707-0.4950 0.6364 ( 10873 PWs)   bands (ev):

    -6.0097  -3.5844  -3.5733  -3.5105  -3.4559  -3.0311   0.4948   2.3114
     2.7870   7.5962   8.3950  10.8241  11.8968  12.9897  14.9720  15.5591
    16.5595  17.5557  18.4076  19.0966  19.8960  19.9964  21.0347  22.0142
    22.7485  23.0073  24.0999  24.9674  25.4777  26.4039  27.3210  28.7976
    29.1455  29.5981  30.3098  30.8996  32.7325  33.2198  34.0454  34.3884
    35.3164  35.5458  37.0075  37.7894  38.3486  39.0214  39.5963  40.0812

     occupation numbers 
     1.0000   1.0000   1.0000   1.0000   1.0000   1.0000   1.0000   1.0000
     1.0000   0.0000   0.0000   0.0000   0.0000   0.0000   0.0000   0.0000
     0.0000   0.0000   0.0000   0.0000   0.0000   0.0000   0.0000   0.0000
     0.0000   0.0000   0.0000   0.0000   0.0000   0.0000   0.0000   0.0000
     0.0000   0.0000   0.0000   0.0000   0.0000   0.0000   0.0000   0.0000
     0.0000   0.0000   0.0000   0.0000   0.0000   0.0000   0.0000   0.0000

          k =-0.0000-0.4243 0.5657 ( 10862 PWs)   bands (ev):

    -6.0137  -3.5947  -3.5803  -3.4949  -3.4644  -3.0182   0.5151   2.0942
     2.9520   7.7080   9.1931  10.4795  11.3516  12.4529  14.0385  16.4138
    16.9266  17.5434  18.0674  19.0630  20.3481  20.8460  21.3000  21.8060
    23.1886  23.6163  24.2045  24.9061  25.4171  25.7008  25.9135  28.4034
    29.0864  29.1366  30.4786  31.2814  31.4211  34.0983  34.2958  34.9687
    35.7520  36.2773  36.4516  38.1301  39.0250  39.1461  39.6181  39.9214

     occupation numbers 
     1.0000   1.0000   1.0000   1.0000   1.0000   1.0000   1.0000   1.0000
     1.0000   0.0000   0.0000   0.0000   0.0000   0.0000   0.0000   0.0000
     0.0000   0.0000   0.0000   0.0000   0.0000   0.0000   0.0000   0.0000
     0.0000   0.0000   0.0000   0.0000   0.0000   0.0000   0.0000   0.0000
     0.0000   0.0000   0.0000   0.0000   0.0000   0.0000   0.0000   0.0000
     0.0000   0.0000   0.0000   0.0000   0.0000   0.0000   0.0000   0.0000

          k =-0.7071 0.1414 0.0000 ( 10842 PWs)   bands (ev):

    -5.9995  -3.5681  -3.5645  -3.5261  -3.4489  -3.0291   0.4170   2.5785
     2.6253   7.4352   7.5551  12.0756  12.1168  13.5106  15.3093  15.6342
    15.7530  17.5365  18.8757  18.8995  19.7795  19.8334  20.0248  21.6684
    22.5136  22.6445  23.2656  24.9312  25.5095  28.1259  28.5730  29.2708
    29.4839  30.6052  30.7848  30.9072  31.2984  32.7157  33.3940  33.6014
    35.0613  35.0853  36.2826  37.7678  38.3021  38.5044  39.4796  40.4268

     occupation numbers 
     1.0000   1.0000   1.0000   1.0000   1.0000   1.0000   1.0000   1.0000
     1.0000   0.0000   0.0000   0.0000   0.0000   0.0000   0.0000   0.0000
     0.0000   0.0000   0.0000   0.0000   0.0000   0.0000   0.0000   0.0000
     0.0000   0.0000   0.0000   0.0000   0.0000   0.0000   0.0000   0.0000
     0.0000   0.0000   0.0000   0.0000   0.0000   0.0000   0.0000   0.0000
     0.0000   0.0000   0.0000   0.0000   0.0000   0.0000   0.0000   0.0000

          k =-0.1414-0.4243 0.7071 ( 10862 PWs)   bands (ev):

    -6.0259  -3.5939  -3.5854  -3.4984  -3.4620  -3.0586   0.5853   2.2874
     2.8582   8.0838   8.7786   9.7691  11.8995  12.6253  14.3735  16.2578
    16.4021  17.3194  17.8336  18.7887  20.8879  21.0655  21.5386  22.1796
    22.4184  22.9481  23.7675  25.7011  26.2206  26.6896  27.0677  27.5787
    27.8283  28.4085  31.4944  32.0866  32.6067  32.7258  33.8094  35.1147
    36.2366  36.4866  37.2037  37.5817  37.7338  38.3377  38.7208  39.1380

     occupation numbers 
     1.0000   1.0000   1.0000   1.0000   1.0000   1.0000   1.0000   1.0000
     1.0000   0.0000   0.0000   0.0000   0.0000   0.0000   0.0000   0.0000
     0.0000   0.0000   0.0000   0.0000   0.0000   0.0000   0.0000   0.0000
     0.0000   0.0000   0.0000   0.0000   0.0000   0.0000   0.0000   0.0000
     0.0000   0.0000   0.0000   0.0000   0.0000   0.0000   0.0000   0.0000
     0.0000   0.0000   0.0000   0.0000   0.0000   0.0000   0.0000   0.0000

          k =-0.0707-0.3536 0.6364 ( 10862 PWs)   bands (ev):

    -6.0100  -3.5920  -3.5806  -3.4925  -3.4670  -3.0096   0.5138   2.1966
     2.7218   8.2021   9.1211   9.8630  11.1404  12.9597  14.9387  15.5064
    16.5453  17.5835  18.6890  19.3005  19.7628  20.9295  21.1945  21.9477
    23.3550  23.7996  24.2781  24.5819  25.0473  26.1199  26.8069  27.0473
    27.8613  29.6177  29.8426  32.3445  32.8086  33.5586  33.9190  35.3117
    35.8659  36.7652  37.1758  37.3110  38.1672  38.6830  39.4453  40.1264

     occupation numbers 
     1.0000   1.0000   1.0000   1.0000   1.0000   1.0000   1.0000   1.0000
     1.0000   0.0000   0.0000   0.0000   0.0000   0.0000   0.0000   0.0000
     0.0000   0.0000   0.0000   0.0000   0.0000   0.0000   0.0000   0.0000
     0.0000   0.0000   0.0000   0.0000   0.0000   0.0000   0.0000   0.0000
     0.0000   0.0000   0.0000   0.0000   0.0000   0.0000   0.0000   0.0000
     0.0000   0.0000   0.0000   0.0000   0.0000   0.0000   0.0000   0.0000

          k =-0.7071 0.2828 0.0000 ( 10846 PWs)   bands (ev):

    -6.0002  -3.5829  -3.5764  -3.5001  -3.4630  -2.9938   0.4846   2.3460
     2.4704   8.2267   8.6385  10.4095  10.9574  13.6697  15.3678  15.5616
    15.7365  18.1411  19.1243  19.5122  19.5552  19.6492  20.4968  22.3649
    23.5204  23.7957  24.2418  24.3804  25.1591  25.9090  26.5327  26.9182
    27.9506  30.9736  31.1901  31.5396  31.9570  32.9062  33.8407  35.3373
    35.5428  36.6724  37.5761  37.6790  37.7659  39.3313  39.7472  40.3010

     occupation numbers 
     1.0000   1.0000   1.0000   1.0000   1.0000   1.0000   1.0000   1.0000
     1.0000   0.0000   0.0000   0.0000   0.0000   0.0000   0.0000   0.0000
     0.0000   0.0000   0.0000   0.0000   0.0000   0.0000   0.0000   0.0000
     0.0000   0.0000   0.0000   0.0000   0.0000   0.0000   0.0000   0.0000
     0.0000   0.0000   0.0000   0.0000   0.0000   0.0000   0.0000   0.0000
     0.0000   0.0000   0.0000   0.0000   0.0000   0.0000   0.0000   0.0000

     highest occupied, lowest unoccupied level (ev):     4.3867    4.9609

     Writing all to output data dir /home/User/opencode_workspace/DFT/calculations/cdte/optics_nosoc/out/pwscf.save/ :
     XML data file, pseudopotentials, collected wavefunctions

     init_run     :      1.33s CPU      3.68s WALL (       1 calls)
     electrons    :    640.17s CPU   1289.04s WALL (       1 calls)

     Called by init_run:
     wfcinit      :      0.00s CPU      0.01s WALL (       1 calls)
     wfcinit:atom :      0.05s CPU      0.13s WALL (      47 calls)
     wfcinit:wfcr :     11.16s CPU     22.65s WALL (      47 calls)
     potinit      :      0.25s CPU      0.70s WALL (       1 calls)
     hinit0       :      0.58s CPU      1.20s WALL (       1 calls)

     Called by electrons:
     c_bands      :    640.17s CPU   1289.03s WALL (       1 calls)
     v_of_rho     :      0.09s CPU      0.35s WALL (       1 calls)
     v_h          :      0.01s CPU      0.03s WALL (       1 calls)
     v_xc         :      0.08s CPU      0.32s WALL (       1 calls)
     newd         :      0.41s CPU      1.58s WALL (       1 calls)

     Called by c_bands:
     init_us_2    :      0.09s CPU      0.18s WALL (      47 calls)
     cegterg      :    628.18s CPU   1264.21s WALL (     201 calls)

     Called by sum_band:

     Called by *egterg:
     cdiaghg      :     14.88s CPU     29.82s WALL (    3612 calls)
     cegterg:over :     44.52s CPU     91.24s WALL (    3565 calls)
     cegterg:upda :     12.72s CPU     24.20s WALL (    3565 calls)
     cegterg:last :     32.21s CPU     63.00s WALL (    2248 calls)
     h_psi        :    517.24s CPU   1040.20s WALL (    3813 calls)
     s_psi        :      4.40s CPU      9.89s WALL (    3813 calls)
     g_psi        :      2.76s CPU      5.67s WALL (    3565 calls)

     Called by h_psi:
     h_psi:calbec :     15.78s CPU     31.82s WALL (    3813 calls)
     vloc_psi     :    495.65s CPU   1000.02s WALL (    3813 calls)
                                        0.00s GPU  (    3813 calls)
     add_vuspsi   :      4.71s CPU      6.61s WALL (    3813 calls)

     General routines
     calbec       :     15.75s CPU     31.79s WALL (    3813 calls)
     fft          :      0.13s CPU      0.33s WALL (      13 calls)
     ffts         :      0.14s CPU      0.29s WALL (       1 calls)
     fftw         :    472.35s CPU    969.49s WALL (  208168 calls)
     interpolate  :      0.15s CPU      0.31s WALL (       1 calls)
     davcio       :      0.04s CPU      0.64s WALL (      94 calls)

     Parallel routines

     PWSCF        :  10m46.36s CPU  21m44.70s WALL


   This run was terminated on:   3:18:40  23Sep2026            

=------------------------------------------------------------------------------=
   JOB DONE.
=------------------------------------------------------------------------------=
