
     Program PWSCF v.7.5 starts on 23Sep2026 at  1:44:12 

     This program is part of the open-source Quantum ESPRESSO suite
     for quantum simulation of materials; please cite
         "P. Giannozzi et al., J. Phys.:Condens. Matter 21 395502 (2009);
         "P. Giannozzi et al., J. Phys.:Condens. Matter 29 465901 (2017);
         "P. Giannozzi et al., J. Chem. Phys. 152 154105 (2020);
          URL http://www.quantum-espresso.org", 
     in publications or presentations arising from this work. More details at
     http://www.quantum-espresso.org/quote

     Parallel version (MPI & OpenMP), running on       2 processor cores
     Number of MPI processes:                 2
     Threads/MPI process:                     1

     MPI processes distributed on     1 nodes
     10288 MiB available memory on the printing compute node when the environment starts

     Reading input from pw_mass.in

     Current dimensions of program PWSCF are:
     Max number of different atomic species (ntypx) = 10
     Max number of k-points (npk) =  40000
     Max angular momentum in pseudopotentials (lmaxx) =  4
     file Cd.pbe-n-rrkjus_psl.1.0.0.UPF: wavefunction(s)  4D renormalized
     file Te.pbe-n-rrkjus_psl.1.0.0.UPF: wavefunction(s)  5S renormalized

     Atomic positions and unit cell read from directory:
     /home/User/opencode_workspace/DFT/calculations/cdte/mass_nosoc_cb_e120/out/pwscf.save/

     Message from routine setup:
     using ibrav=0 with symmetry is DISCOURAGED, use correct ibrav instead

     R & G space division:  proc/nbgrp/npool/nimage =       2
     Subspace diagonalization in iterative solution of the eigenvalue problem:
     a serial algorithm will be used


     Parallelization info
     --------------------
     sticks:   dense  smooth     PW     G-vecs:    dense   smooth      PW
     Min        1938    1293    324                80010    43512    5483
     Max        1939    1294    325                80011    43515    5486
     Sum        3877    2587    649               160021    87027   10969

     Using Slab Decomposition



     bravais-lattice index     =            0
     lattice parameter (alat)  =       8.8500  a.u.
     unit-cell volume          =     490.1280 (a.u.)^3
     number of atoms/cell      =            2
     number of atomic types    =            2
     number of electrons       =        18.00
     number of Kohn-Sham states=           17
     kinetic-energy cutoff     =     120.0000  Ry
     charge density cutoff     =     720.0000  Ry
     Exchange-correlation= PBE
                           (   1   4   3   4   0   0   0)

     celldm(1)=   8.849964  celldm(2)=   0.000000  celldm(3)=   0.000000
     celldm(4)=   0.000000  celldm(5)=   0.000000  celldm(6)=   0.000000

     crystal axes: (cart. coord. in units of alat)
               a(1) = (   0.000000   0.707107   0.707107 )  
               a(2) = (   0.707107   0.000000   0.707107 )  
               a(3) = (   0.707107   0.707107   0.000000 )  

     reciprocal axes: (cart. coord. in units 2 pi/alat)
               b(1) = ( -0.707107  0.707107  0.707107 )  
               b(2) = (  0.707107 -0.707107  0.707107 )  
               b(3) = (  0.707107  0.707107 -0.707107 )  


     PseudoPot. # 1 for Cd read from file:
     /home/User/opencode_workspace/DFT/pseudopotentials/Cd.pbe-n-rrkjus_psl.1.0.0.UPF
     MD5 check sum: a744746c89d2344a134ead0d8ab94e7a
     Pseudo is Ultrasoft + core correction, Zval = 12.0
     Generated using &quot;atomic&quot; code by A. Dal Corso  v.6.3
     Using radial grid of 1239 points,  6 beta functions with: 
                l(1) =   0
                l(2) =   0
                l(3) =   1
                l(4) =   1
                l(5) =   2
                l(6) =   2
     Q(r) pseudized with 0 coefficients 


     PseudoPot. # 2 for Te read from file:
     /home/User/opencode_workspace/DFT/pseudopotentials/Te.pbe-n-rrkjus_psl.1.0.0.UPF
     MD5 check sum: 203a1e86ef55f0cd9de2762a27c58f54
     Pseudo is Ultrasoft + core correction, Zval =  6.0
     Generated using &quot;atomic&quot; code by A. Dal Corso  v.6.3
     Using radial grid of 1245 points,  6 beta functions with: 
                l(1) =   0
                l(2) =   0
                l(3) =   1
                l(4) =   1
                l(5) =   2
                l(6) =   2
     Q(r) pseudized with 0 coefficients 


     atomic species   valence    mass     pseudopotential
     Cd               12.00   112.41400     Cd( 1.00)
     Te                6.00   127.60000     Te( 1.00)

     24 Sym. Ops. (no inversion) found


                                    s                        frac. trans.

      isym =  1     identity                                     

 cryst.   s( 1) = (     1          0          0      )
                  (     0          1          0      )
                  (     0          0          1      )

 cart.    s( 1) = (  1.0000000  0.0000000  0.0000000 )
                  (  0.0000000  1.0000000  0.0000000 )
                  (  0.0000000  0.0000000  1.0000000 )


      isym =  2     180 deg rotation - cart. axis [0,0,1]        

 cryst.   s( 2) = (     0          1         -1      )
                  (     1          0         -1      )
                  (     0          0         -1      )

 cart.    s( 2) = ( -1.0000000  0.0000000  0.0000000 )
                  (  0.0000000 -1.0000000  0.0000000 )
                  (  0.0000000  0.0000000  1.0000000 )


      isym =  3     180 deg rotation - cart. axis [0,1,0]        

 cryst.   s( 3) = (     0         -1          1      )
                  (     0         -1          0      )
                  (     1         -1          0      )

 cart.    s( 3) = ( -1.0000000  0.0000000  0.0000000 )
                  (  0.0000000  1.0000000  0.0000000 )
                  (  0.0000000  0.0000000 -1.0000000 )


      isym =  4     180 deg rotation - cart. axis [1,0,0]        

 cryst.   s( 4) = (    -1          0          0      )
                  (    -1          0          1      )
                  (    -1          1          0      )

 cart.    s( 4) = (  1.0000000  0.0000000  0.0000000 )
                  (  0.0000000 -1.0000000  0.0000000 )
                  (  0.0000000  0.0000000 -1.0000000 )


      isym =  5     120 deg rotation - cart. axis [-1,-1,-1]     

 cryst.   s( 5) = (     0          0          1      )
                  (     1          0          0      )
                  (     0          1          0      )

 cart.    s( 5) = (  0.0000000  1.0000000  0.0000000 )
                  (  0.0000000  0.0000000  1.0000000 )
                  (  1.0000000  0.0000000  0.0000000 )


      isym =  6     120 deg rotation - cart. axis [-1,1,1]       

 cryst.   s( 6) = (     1         -1          0      )
                  (     0         -1          1      )
                  (     0         -1          0      )

 cart.    s( 6) = (  0.0000000 -1.0000000  0.0000000 )
                  (  0.0000000  0.0000000  1.0000000 )
                  ( -1.0000000  0.0000000  0.0000000 )


      isym =  7     120 deg rotation - cart. axis [1,1,-1]       

 cryst.   s( 7) = (    -1          1          0      )
                  (    -1          0          0      )
                  (    -1          0          1      )

 cart.    s( 7) = (  0.0000000  1.0000000  0.0000000 )
                  (  0.0000000  0.0000000 -1.0000000 )
                  ( -1.0000000  0.0000000  0.0000000 )


      isym =  8     120 deg rotation - cart. axis [1,-1,1]       

 cryst.   s( 8) = (     0          0         -1      )
                  (     0          1         -1      )
                  (     1          0         -1      )

 cart.    s( 8) = (  0.0000000 -1.0000000  0.0000000 )
                  (  0.0000000  0.0000000 -1.0000000 )
                  (  1.0000000  0.0000000  0.0000000 )


      isym =  9     120 deg rotation - cart. axis [1,1,1]        

 cryst.   s( 9) = (     0          1          0      )
                  (     0          0          1      )
                  (     1          0          0      )

 cart.    s( 9) = (  0.0000000  0.0000000  1.0000000 )
                  (  1.0000000  0.0000000  0.0000000 )
                  (  0.0000000  1.0000000  0.0000000 )


      isym = 10     120 deg rotation - cart. axis [-1,1,-1]      

 cryst.   s(10) = (    -1          0          1      )
                  (    -1          1          0      )
                  (    -1          0          0      )

 cart.    s(10) = (  0.0000000  0.0000000  1.0000000 )
                  ( -1.0000000  0.0000000  0.0000000 )
                  (  0.0000000 -1.0000000  0.0000000 )


      isym = 11     120 deg rotation - cart. axis [1,-1,-1]      

 cryst.   s(11) = (     1          0         -1      )
                  (     0          0         -1      )
                  (     0          1         -1      )

 cart.    s(11) = (  0.0000000  0.0000000 -1.0000000 )
                  ( -1.0000000  0.0000000  0.0000000 )
                  (  0.0000000  1.0000000  0.0000000 )


      isym = 12     120 deg rotation - cart. axis [-1,-1,1]      

 cryst.   s(12) = (     0         -1          0      )
                  (     1         -1          0      )
                  (     0         -1          1      )

 cart.    s(12) = (  0.0000000  0.0000000 -1.0000000 )
                  (  1.0000000  0.0000000  0.0000000 )
                  (  0.0000000 -1.0000000  0.0000000 )


      isym = 13     inv. 180 deg rotation - cart. axis [1,1,0]   

 cryst.   s(13) = (     1          0         -1      )
                  (     0          1         -1      )
                  (     0          0         -1      )

 cart.    s(13) = (  0.0000000 -1.0000000  0.0000000 )
                  ( -1.0000000  0.0000000  0.0000000 )
                  (  0.0000000  0.0000000  1.0000000 )


      isym = 14     inv. 180 deg rotation - cart. axis [1,-1,0]  

 cryst.   s(14) = (     0          1          0      )
                  (     1          0          0      )
                  (     0          0          1      )

 cart.    s(14) = (  0.0000000  1.0000000  0.0000000 )
                  (  1.0000000  0.0000000  0.0000000 )
                  (  0.0000000  0.0000000  1.0000000 )


      isym = 15     inv.  90 deg rotation - cart. axis [0,0,-1]  

 cryst.   s(15) = (     0         -1          0      )
                  (     0         -1          1      )
                  (     1         -1          0      )

 cart.    s(15) = (  0.0000000 -1.0000000  0.0000000 )
                  (  1.0000000  0.0000000  0.0000000 )
                  (  0.0000000  0.0000000 -1.0000000 )


      isym = 16     inv.  90 deg rotation - cart. axis [0,0,1]   

 cryst.   s(16) = (    -1          0          1      )
                  (    -1          0          0      )
                  (    -1          1          0      )

 cart.    s(16) = (  0.0000000  1.0000000  0.0000000 )
                  ( -1.0000000  0.0000000  0.0000000 )
                  (  0.0000000  0.0000000 -1.0000000 )


      isym = 17     inv. 180 deg rotation - cart. axis [1,0,1]   

 cryst.   s(17) = (     1         -1          0      )
                  (     0         -1          0      )
                  (     0         -1          1      )

 cart.    s(17) = (  0.0000000  0.0000000 -1.0000000 )
                  (  0.0000000  1.0000000  0.0000000 )
                  ( -1.0000000  0.0000000  0.0000000 )


      isym = 18     inv. 180 deg rotation - cart. axis [-1,0,1]  

 cryst.   s(18) = (     0          0          1      )
                  (     0          1          0      )
                  (     1          0          0      )

 cart.    s(18) = (  0.0000000  0.0000000  1.0000000 )
                  (  0.0000000  1.0000000  0.0000000 )
                  (  1.0000000  0.0000000  0.0000000 )


      isym = 19     inv.  90 deg rotation - cart. axis [0,1,0]   

 cryst.   s(19) = (     0          0         -1      )
                  (     1          0         -1      )
                  (     0          1         -1      )

 cart.    s(19) = (  0.0000000  0.0000000 -1.0000000 )
                  (  0.0000000 -1.0000000  0.0000000 )
                  (  1.0000000  0.0000000  0.0000000 )


      isym = 20     inv.  90 deg rotation - cart. axis [0,-1,0]  

 cryst.   s(20) = (    -1          1          0      )
                  (    -1          0          1      )
                  (    -1          0          0      )

 cart.    s(20) = (  0.0000000  0.0000000  1.0000000 )
                  (  0.0000000 -1.0000000  0.0000000 )
                  ( -1.0000000  0.0000000  0.0000000 )


      isym = 21     inv. 180 deg rotation - cart. axis [0,1,1]   

 cryst.   s(21) = (    -1          0          0      )
                  (    -1          1          0      )
                  (    -1          0          1      )

 cart.    s(21) = (  1.0000000  0.0000000  0.0000000 )
                  (  0.0000000  0.0000000 -1.0000000 )
                  (  0.0000000 -1.0000000  0.0000000 )


      isym = 22     inv. 180 deg rotation - cart. axis [0,1,-1]  

 cryst.   s(22) = (     1          0          0      )
                  (     0          0          1      )
                  (     0          1          0      )

 cart.    s(22) = (  1.0000000  0.0000000  0.0000000 )
                  (  0.0000000  0.0000000  1.0000000 )
                  (  0.0000000  1.0000000  0.0000000 )


      isym = 23     inv.  90 deg rotation - cart. axis [-1,0,0]  

 cryst.   s(23) = (     0          1         -1      )
                  (     0          0         -1      )
                  (     1          0         -1      )

 cart.    s(23) = ( -1.0000000  0.0000000  0.0000000 )
                  (  0.0000000  0.0000000 -1.0000000 )
                  (  0.0000000  1.0000000  0.0000000 )


      isym = 24     inv.  90 deg rotation - cart. axis [1,0,0]   

 cryst.   s(24) = (     0         -1          1      )
                  (     1         -1          0      )
                  (     0         -1          0      )

 cart.    s(24) = ( -1.0000000  0.0000000  0.0000000 )
                  (  0.0000000  0.0000000  1.0000000 )
                  (  0.0000000 -1.0000000  0.0000000 )


   Cartesian axes

     site n.     atom                  positions (alat units)
         1        Cd     tau(   1) = (   0.0000000   0.0000000   0.0000000  )
         2        Te     tau(   2) = (   0.3535534   0.3535534   0.3535534  )

   Crystallographic axes

     site n.     atom                  positions (cryst. coord.)
         1        Cd     tau(   1) = (  0.0000000  0.0000000  0.0000000  )
         2        Te     tau(   2) = (  0.2500000  0.2500000  0.2500000  )

     number of k points=   123
                       cart. coord. in units 2pi/alat
        k(    1) = (   0.0353553  -0.0353553  -0.0353553), wk =   0.0162602
        k(    2) = (   0.0335876  -0.0335876  -0.0335876), wk =   0.0162602
        k(    3) = (   0.0318198  -0.0318198  -0.0318198), wk =   0.0162602
        k(    4) = (   0.0300520  -0.0300520  -0.0300520), wk =   0.0162602
        k(    5) = (   0.0282843  -0.0282843  -0.0282843), wk =   0.0162602
        k(    6) = (   0.0265165  -0.0265165  -0.0265165), wk =   0.0162602
        k(    7) = (   0.0247487  -0.0247487  -0.0247487), wk =   0.0162602
        k(    8) = (   0.0229810  -0.0229810  -0.0229810), wk =   0.0162602
        k(    9) = (   0.0212132  -0.0212132  -0.0212132), wk =   0.0162602
        k(   10) = (   0.0194454  -0.0194454  -0.0194454), wk =   0.0162602
        k(   11) = (   0.0176777  -0.0176777  -0.0176777), wk =   0.0162602
        k(   12) = (   0.0159099  -0.0159099  -0.0159099), wk =   0.0162602
        k(   13) = (   0.0141421  -0.0141421  -0.0141421), wk =   0.0162602
        k(   14) = (   0.0123744  -0.0123744  -0.0123744), wk =   0.0162602
        k(   15) = (   0.0106066  -0.0106066  -0.0106066), wk =   0.0162602
        k(   16) = (   0.0088388  -0.0088388  -0.0088388), wk =   0.0162602
        k(   17) = (   0.0070711  -0.0070711  -0.0070711), wk =   0.0162602
        k(   18) = (   0.0053033  -0.0053033  -0.0053033), wk =   0.0162602
        k(   19) = (   0.0035355  -0.0035355  -0.0035355), wk =   0.0162602
        k(   20) = (   0.0017678  -0.0017678  -0.0017678), wk =   0.0162602
        k(   21) = (   0.0000000   0.0000000   0.0000000), wk =   0.0162602
        k(   22) = (  -0.0017678   0.0017678   0.0017678), wk =   0.0162602
        k(   23) = (  -0.0035355   0.0035355   0.0035355), wk =   0.0162602
        k(   24) = (  -0.0053033   0.0053033   0.0053033), wk =   0.0162602
        k(   25) = (  -0.0070711   0.0070711   0.0070711), wk =   0.0162602
        k(   26) = (  -0.0088388   0.0088388   0.0088388), wk =   0.0162602
        k(   27) = (  -0.0106066   0.0106066   0.0106066), wk =   0.0162602
        k(   28) = (  -0.0123744   0.0123744   0.0123744), wk =   0.0162602
        k(   29) = (  -0.0141421   0.0141421   0.0141421), wk =   0.0162602
        k(   30) = (  -0.0159099   0.0159099   0.0159099), wk =   0.0162602
        k(   31) = (  -0.0176777   0.0176777   0.0176777), wk =   0.0162602
        k(   32) = (  -0.0194454   0.0194454   0.0194454), wk =   0.0162602
        k(   33) = (  -0.0212132   0.0212132   0.0212132), wk =   0.0162602
        k(   34) = (  -0.0229810   0.0229810   0.0229810), wk =   0.0162602
        k(   35) = (  -0.0247487   0.0247487   0.0247487), wk =   0.0162602
        k(   36) = (  -0.0265165   0.0265165   0.0265165), wk =   0.0162602
        k(   37) = (  -0.0282843   0.0282843   0.0282843), wk =   0.0162602
        k(   38) = (  -0.0300520   0.0300520   0.0300520), wk =   0.0162602
        k(   39) = (  -0.0318198   0.0318198   0.0318198), wk =   0.0162602
        k(   40) = (  -0.0335876   0.0335876   0.0335876), wk =   0.0162602
        k(   41) = (  -0.0353553   0.0353553   0.0353553), wk =   0.0162602
        k(   42) = (   0.0000000   0.0000000  -0.0500000), wk =   0.0162602
        k(   43) = (   0.0000000   0.0000000  -0.0475000), wk =   0.0162602
        k(   44) = (   0.0000000   0.0000000  -0.0450000), wk =   0.0162602
        k(   45) = (   0.0000000   0.0000000  -0.0425000), wk =   0.0162602
        k(   46) = (   0.0000000   0.0000000  -0.0400000), wk =   0.0162602
        k(   47) = (   0.0000000   0.0000000  -0.0375000), wk =   0.0162602
        k(   48) = (   0.0000000   0.0000000  -0.0350000), wk =   0.0162602
        k(   49) = (   0.0000000   0.0000000  -0.0325000), wk =   0.0162602
        k(   50) = (   0.0000000   0.0000000  -0.0300000), wk =   0.0162602
        k(   51) = (   0.0000000   0.0000000  -0.0275000), wk =   0.0162602
        k(   52) = (   0.0000000   0.0000000  -0.0250000), wk =   0.0162602
        k(   53) = (   0.0000000   0.0000000  -0.0225000), wk =   0.0162602
        k(   54) = (   0.0000000   0.0000000  -0.0200000), wk =   0.0162602
        k(   55) = (   0.0000000   0.0000000  -0.0175000), wk =   0.0162602
        k(   56) = (   0.0000000   0.0000000  -0.0150000), wk =   0.0162602
        k(   57) = (   0.0000000   0.0000000  -0.0125000), wk =   0.0162602
        k(   58) = (   0.0000000   0.0000000  -0.0100000), wk =   0.0162602
        k(   59) = (   0.0000000   0.0000000  -0.0075000), wk =   0.0162602
        k(   60) = (   0.0000000   0.0000000  -0.0050000), wk =   0.0162602
        k(   61) = (   0.0000000   0.0000000  -0.0025000), wk =   0.0162602
        k(   62) = (   0.0000000   0.0000000   0.0000000), wk =   0.0162602
        k(   63) = (   0.0000000   0.0000000   0.0025000), wk =   0.0162602
        k(   64) = (   0.0000000   0.0000000   0.0050000), wk =   0.0162602
        k(   65) = (   0.0000000   0.0000000   0.0075000), wk =   0.0162602
        k(   66) = (   0.0000000   0.0000000   0.0100000), wk =   0.0162602
        k(   67) = (   0.0000000   0.0000000   0.0125000), wk =   0.0162602
        k(   68) = (   0.0000000   0.0000000   0.0150000), wk =   0.0162602
        k(   69) = (   0.0000000   0.0000000   0.0175000), wk =   0.0162602
        k(   70) = (   0.0000000   0.0000000   0.0200000), wk =   0.0162602
        k(   71) = (   0.0000000   0.0000000   0.0225000), wk =   0.0162602
        k(   72) = (   0.0000000   0.0000000   0.0250000), wk =   0.0162602
        k(   73) = (   0.0000000   0.0000000   0.0275000), wk =   0.0162602
        k(   74) = (   0.0000000   0.0000000   0.0300000), wk =   0.0162602
        k(   75) = (   0.0000000   0.0000000   0.0325000), wk =   0.0162602
        k(   76) = (   0.0000000   0.0000000   0.0350000), wk =   0.0162602
        k(   77) = (   0.0000000   0.0000000   0.0375000), wk =   0.0162602
        k(   78) = (   0.0000000   0.0000000   0.0400000), wk =   0.0162602
        k(   79) = (   0.0000000   0.0000000   0.0425000), wk =   0.0162602
        k(   80) = (   0.0000000   0.0000000   0.0450000), wk =   0.0162602
        k(   81) = (   0.0000000   0.0000000   0.0475000), wk =   0.0162602
        k(   82) = (   0.0000000   0.0000000   0.0500000), wk =   0.0162602
        k(   83) = (  -0.0204124  -0.0204124  -0.0204124), wk =   0.0162602
        k(   84) = (  -0.0193918  -0.0193918  -0.0193918), wk =   0.0162602
        k(   85) = (  -0.0183712  -0.0183712  -0.0183712), wk =   0.0162602
        k(   86) = (  -0.0173506  -0.0173506  -0.0173506), wk =   0.0162602
        k(   87) = (  -0.0163299  -0.0163299  -0.0163299), wk =   0.0162602
        k(   88) = (  -0.0153093  -0.0153093  -0.0153093), wk =   0.0162602
        k(   89) = (  -0.0142887  -0.0142887  -0.0142887), wk =   0.0162602
        k(   90) = (  -0.0132681  -0.0132681  -0.0132681), wk =   0.0162602
        k(   91) = (  -0.0122474  -0.0122474  -0.0122474), wk =   0.0162602
        k(   92) = (  -0.0112268  -0.0112268  -0.0112268), wk =   0.0162602
        k(   93) = (  -0.0102062  -0.0102062  -0.0102062), wk =   0.0162602
        k(   94) = (  -0.0091856  -0.0091856  -0.0091856), wk =   0.0162602
        k(   95) = (  -0.0081650  -0.0081650  -0.0081650), wk =   0.0162602
        k(   96) = (  -0.0071443  -0.0071443  -0.0071443), wk =   0.0162602
        k(   97) = (  -0.0061237  -0.0061237  -0.0061237), wk =   0.0162602
        k(   98) = (  -0.0051031  -0.0051031  -0.0051031), wk =   0.0162602
        k(   99) = (  -0.0040825  -0.0040825  -0.0040825), wk =   0.0162602
        k(  100) = (  -0.0030619  -0.0030619  -0.0030619), wk =   0.0162602
        k(  101) = (  -0.0020412  -0.0020412  -0.0020412), wk =   0.0162602
        k(  102) = (  -0.0010206  -0.0010206  -0.0010206), wk =   0.0162602
        k(  103) = (   0.0000000   0.0000000   0.0000000), wk =   0.0162602
        k(  104) = (   0.0010206   0.0010206   0.0010206), wk =   0.0162602
        k(  105) = (   0.0020412   0.0020412   0.0020412), wk =   0.0162602
        k(  106) = (   0.0030619   0.0030619   0.0030619), wk =   0.0162602
        k(  107) = (   0.0040825   0.0040825   0.0040825), wk =   0.0162602
        k(  108) = (   0.0051031   0.0051031   0.0051031), wk =   0.0162602
        k(  109) = (   0.0061237   0.0061237   0.0061237), wk =   0.0162602
        k(  110) = (   0.0071443   0.0071443   0.0071443), wk =   0.0162602
        k(  111) = (   0.0081650   0.0081650   0.0081650), wk =   0.0162602
        k(  112) = (   0.0091856   0.0091856   0.0091856), wk =   0.0162602
        k(  113) = (   0.0102062   0.0102062   0.0102062), wk =   0.0162602
        k(  114) = (   0.0112268   0.0112268   0.0112268), wk =   0.0162602
        k(  115) = (   0.0122474   0.0122474   0.0122474), wk =   0.0162602
        k(  116) = (   0.0132681   0.0132681   0.0132681), wk =   0.0162602
        k(  117) = (   0.0142887   0.0142887   0.0142887), wk =   0.0162602
        k(  118) = (   0.0153093   0.0153093   0.0153093), wk =   0.0162602
        k(  119) = (   0.0163299   0.0163299   0.0163299), wk =   0.0162602
        k(  120) = (   0.0173506   0.0173506   0.0173506), wk =   0.0162602
        k(  121) = (   0.0183712   0.0183712   0.0183712), wk =   0.0162602
        k(  122) = (   0.0193918   0.0193918   0.0193918), wk =   0.0162602
        k(  123) = (   0.0204124   0.0204124   0.0204124), wk =   0.0162602

                       cryst. coord.
        k(    1) = (  -0.0500000   0.0000000   0.0000000), wk =   0.0162602
        k(    2) = (  -0.0475000   0.0000000   0.0000000), wk =   0.0162602
        k(    3) = (  -0.0450000   0.0000000   0.0000000), wk =   0.0162602
        k(    4) = (  -0.0425000   0.0000000   0.0000000), wk =   0.0162602
        k(    5) = (  -0.0400000   0.0000000   0.0000000), wk =   0.0162602
        k(    6) = (  -0.0375000   0.0000000   0.0000000), wk =   0.0162602
        k(    7) = (  -0.0350000   0.0000000   0.0000000), wk =   0.0162602
        k(    8) = (  -0.0325000   0.0000000   0.0000000), wk =   0.0162602
        k(    9) = (  -0.0300000   0.0000000   0.0000000), wk =   0.0162602
        k(   10) = (  -0.0275000   0.0000000   0.0000000), wk =   0.0162602
        k(   11) = (  -0.0250000   0.0000000   0.0000000), wk =   0.0162602
        k(   12) = (  -0.0225000   0.0000000   0.0000000), wk =   0.0162602
        k(   13) = (  -0.0200000   0.0000000   0.0000000), wk =   0.0162602
        k(   14) = (  -0.0175000   0.0000000   0.0000000), wk =   0.0162602
        k(   15) = (  -0.0150000   0.0000000   0.0000000), wk =   0.0162602
        k(   16) = (  -0.0125000   0.0000000   0.0000000), wk =   0.0162602
        k(   17) = (  -0.0100000   0.0000000   0.0000000), wk =   0.0162602
        k(   18) = (  -0.0075000   0.0000000   0.0000000), wk =   0.0162602
        k(   19) = (  -0.0050000   0.0000000   0.0000000), wk =   0.0162602
        k(   20) = (  -0.0025000   0.0000000   0.0000000), wk =   0.0162602
        k(   21) = (   0.0000000   0.0000000   0.0000000), wk =   0.0162602
        k(   22) = (   0.0025000   0.0000000   0.0000000), wk =   0.0162602
        k(   23) = (   0.0050000   0.0000000   0.0000000), wk =   0.0162602
        k(   24) = (   0.0075000   0.0000000   0.0000000), wk =   0.0162602
        k(   25) = (   0.0100000   0.0000000   0.0000000), wk =   0.0162602
        k(   26) = (   0.0125000   0.0000000   0.0000000), wk =   0.0162602
        k(   27) = (   0.0150000   0.0000000   0.0000000), wk =   0.0162602
        k(   28) = (   0.0175000   0.0000000   0.0000000), wk =   0.0162602
        k(   29) = (   0.0200000   0.0000000   0.0000000), wk =   0.0162602
        k(   30) = (   0.0225000   0.0000000   0.0000000), wk =   0.0162602
        k(   31) = (   0.0250000   0.0000000   0.0000000), wk =   0.0162602
        k(   32) = (   0.0275000   0.0000000   0.0000000), wk =   0.0162602
        k(   33) = (   0.0300000   0.0000000   0.0000000), wk =   0.0162602
        k(   34) = (   0.0325000   0.0000000   0.0000000), wk =   0.0162602
        k(   35) = (   0.0350000   0.0000000   0.0000000), wk =   0.0162602
        k(   36) = (   0.0375000   0.0000000   0.0000000), wk =   0.0162602
        k(   37) = (   0.0400000   0.0000000   0.0000000), wk =   0.0162602
        k(   38) = (   0.0425000   0.0000000   0.0000000), wk =   0.0162602
        k(   39) = (   0.0450000   0.0000000   0.0000000), wk =   0.0162602
        k(   40) = (   0.0475000   0.0000000   0.0000000), wk =   0.0162602
        k(   41) = (   0.0500000   0.0000000   0.0000000), wk =   0.0162602
        k(   42) = (  -0.0353553  -0.0353553   0.0000000), wk =   0.0162602
        k(   43) = (  -0.0335876  -0.0335876   0.0000000), wk =   0.0162602
        k(   44) = (  -0.0318198  -0.0318198   0.0000000), wk =   0.0162602
        k(   45) = (  -0.0300520  -0.0300520   0.0000000), wk =   0.0162602
        k(   46) = (  -0.0282843  -0.0282843   0.0000000), wk =   0.0162602
        k(   47) = (  -0.0265165  -0.0265165   0.0000000), wk =   0.0162602
        k(   48) = (  -0.0247487  -0.0247487   0.0000000), wk =   0.0162602
        k(   49) = (  -0.0229810  -0.0229810   0.0000000), wk =   0.0162602
        k(   50) = (  -0.0212132  -0.0212132   0.0000000), wk =   0.0162602
        k(   51) = (  -0.0194454  -0.0194454   0.0000000), wk =   0.0162602
        k(   52) = (  -0.0176777  -0.0176777   0.0000000), wk =   0.0162602
        k(   53) = (  -0.0159099  -0.0159099   0.0000000), wk =   0.0162602
        k(   54) = (  -0.0141421  -0.0141421   0.0000000), wk =   0.0162602
        k(   55) = (  -0.0123744  -0.0123744   0.0000000), wk =   0.0162602
        k(   56) = (  -0.0106066  -0.0106066   0.0000000), wk =   0.0162602
        k(   57) = (  -0.0088388  -0.0088388   0.0000000), wk =   0.0162602
        k(   58) = (  -0.0070711  -0.0070711   0.0000000), wk =   0.0162602
        k(   59) = (  -0.0053033  -0.0053033   0.0000000), wk =   0.0162602
        k(   60) = (  -0.0035355  -0.0035355   0.0000000), wk =   0.0162602
        k(   61) = (  -0.0017678  -0.0017678   0.0000000), wk =   0.0162602
        k(   62) = (   0.0000000   0.0000000   0.0000000), wk =   0.0162602
        k(   63) = (   0.0017678   0.0017678   0.0000000), wk =   0.0162602
        k(   64) = (   0.0035355   0.0035355   0.0000000), wk =   0.0162602
        k(   65) = (   0.0053033   0.0053033   0.0000000), wk =   0.0162602
        k(   66) = (   0.0070711   0.0070711   0.0000000), wk =   0.0162602
        k(   67) = (   0.0088388   0.0088388   0.0000000), wk =   0.0162602
        k(   68) = (   0.0106066   0.0106066   0.0000000), wk =   0.0162602
        k(   69) = (   0.0123744   0.0123744   0.0000000), wk =   0.0162602
        k(   70) = (   0.0141421   0.0141421   0.0000000), wk =   0.0162602
        k(   71) = (   0.0159099   0.0159099   0.0000000), wk =   0.0162602
        k(   72) = (   0.0176777   0.0176777   0.0000000), wk =   0.0162602
        k(   73) = (   0.0194454   0.0194454   0.0000000), wk =   0.0162602
        k(   74) = (   0.0212132   0.0212132   0.0000000), wk =   0.0162602
        k(   75) = (   0.0229810   0.0229810   0.0000000), wk =   0.0162602
        k(   76) = (   0.0247487   0.0247487   0.0000000), wk =   0.0162602
        k(   77) = (   0.0265165   0.0265165   0.0000000), wk =   0.0162602
        k(   78) = (   0.0282843   0.0282843   0.0000000), wk =   0.0162602
        k(   79) = (   0.0300520   0.0300520   0.0000000), wk =   0.0162602
        k(   80) = (   0.0318198   0.0318198   0.0000000), wk =   0.0162602
        k(   81) = (   0.0335876   0.0335876   0.0000000), wk =   0.0162602
        k(   82) = (   0.0353553   0.0353553   0.0000000), wk =   0.0162602
        k(   83) = (  -0.0288675  -0.0288675  -0.0288675), wk =   0.0162602
        k(   84) = (  -0.0274241  -0.0274241  -0.0274241), wk =   0.0162602
        k(   85) = (  -0.0259808  -0.0259808  -0.0259808), wk =   0.0162602
        k(   86) = (  -0.0245374  -0.0245374  -0.0245374), wk =   0.0162602
        k(   87) = (  -0.0230940  -0.0230940  -0.0230940), wk =   0.0162602
        k(   88) = (  -0.0216506  -0.0216506  -0.0216506), wk =   0.0162602
        k(   89) = (  -0.0202073  -0.0202073  -0.0202073), wk =   0.0162602
        k(   90) = (  -0.0187639  -0.0187639  -0.0187639), wk =   0.0162602
        k(   91) = (  -0.0173205  -0.0173205  -0.0173205), wk =   0.0162602
        k(   92) = (  -0.0158771  -0.0158771  -0.0158771), wk =   0.0162602
        k(   93) = (  -0.0144338  -0.0144338  -0.0144338), wk =   0.0162602
        k(   94) = (  -0.0129904  -0.0129904  -0.0129904), wk =   0.0162602
        k(   95) = (  -0.0115470  -0.0115470  -0.0115470), wk =   0.0162602
        k(   96) = (  -0.0101036  -0.0101036  -0.0101036), wk =   0.0162602
        k(   97) = (  -0.0086603  -0.0086603  -0.0086603), wk =   0.0162602
        k(   98) = (  -0.0072169  -0.0072169  -0.0072169), wk =   0.0162602
        k(   99) = (  -0.0057735  -0.0057735  -0.0057735), wk =   0.0162602
        k(  100) = (  -0.0043301  -0.0043301  -0.0043301), wk =   0.0162602
        k(  101) = (  -0.0028868  -0.0028868  -0.0028868), wk =   0.0162602
        k(  102) = (  -0.0014434  -0.0014434  -0.0014434), wk =   0.0162602
        k(  103) = (   0.0000000   0.0000000   0.0000000), wk =   0.0162602
        k(  104) = (   0.0014434   0.0014434   0.0014434), wk =   0.0162602
        k(  105) = (   0.0028868   0.0028868   0.0028868), wk =   0.0162602
        k(  106) = (   0.0043301   0.0043301   0.0043301), wk =   0.0162602
        k(  107) = (   0.0057735   0.0057735   0.0057735), wk =   0.0162602
        k(  108) = (   0.0072169   0.0072169   0.0072169), wk =   0.0162602
        k(  109) = (   0.0086603   0.0086603   0.0086603), wk =   0.0162602
        k(  110) = (   0.0101036   0.0101036   0.0101036), wk =   0.0162602
        k(  111) = (   0.0115470   0.0115470   0.0115470), wk =   0.0162602
        k(  112) = (   0.0129904   0.0129904   0.0129904), wk =   0.0162602
        k(  113) = (   0.0144338   0.0144338   0.0144338), wk =   0.0162602
        k(  114) = (   0.0158771   0.0158771   0.0158771), wk =   0.0162602
        k(  115) = (   0.0173205   0.0173205   0.0173205), wk =   0.0162602
        k(  116) = (   0.0187639   0.0187639   0.0187639), wk =   0.0162602
        k(  117) = (   0.0202073   0.0202073   0.0202073), wk =   0.0162602
        k(  118) = (   0.0216506   0.0216506   0.0216506), wk =   0.0162602
        k(  119) = (   0.0230940   0.0230940   0.0230940), wk =   0.0162602
        k(  120) = (   0.0245374   0.0245374   0.0245374), wk =   0.0162602
        k(  121) = (   0.0259808   0.0259808   0.0259808), wk =   0.0162602
        k(  122) = (   0.0274241   0.0274241   0.0274241), wk =   0.0162602
        k(  123) = (   0.0288675   0.0288675   0.0288675), wk =   0.0162602

     Dense  grid:   160021 G-vectors     FFT dimensions: (  75,  75,  75)

     Smooth grid:    87027 G-vectors     FFT dimensions: (  64,  64,  64)

     Dynamical RAM for                 wfc:       1.41 MB

     Dynamical RAM for     wfc (w. buffer):       1.41 MB

     Dynamical RAM for           str. fact:       2.44 MB

     Dynamical RAM for           local pot:       0.00 MB

     Dynamical RAM for          nlocal pot:       2.99 MB

     Dynamical RAM for                qrad:       4.31 MB

     Dynamical RAM for          rho,v,vnew:       8.55 MB

     Dynamical RAM for           G-vectors:       4.91 MB

     Dynamical RAM for          h,s,v(r/c):       0.05 MB

     Dynamical RAM for          <psi|beta>:       0.01 MB

     Dynamical RAM for                 psi:       2.82 MB

     Dynamical RAM for                hpsi:       2.82 MB

     Dynamical RAM for                spsi:       2.82 MB

     Dynamical RAM for      wfcinit/wfcrot:       2.83 MB

     Dynamical RAM for           addusdens:     228.30 MB

     Estimated static dynamical RAM per process >      36.43 MB

     Estimated max dynamical RAM per process >     264.73 MB

     Estimated total dynamical RAM >     529.46 MB

     The potential is recalculated from file :
     /home/User/opencode_workspace/DFT/calculations/cdte/mass_nosoc_cb_e120/out/pwscf.save/charge-density

     Starting wfcs are   13 randomized atomic wfcs +    4 random wfcs

     Band Structure Calculation
     Davidson diagonalization with overlap

     Computing kpt #:     1  of   123
     total cpu time spent up to now is       12.8 secs

     Computing kpt #:     2  of   123
     total cpu time spent up to now is       22.5 secs

     Computing kpt #:     3  of   123
     total cpu time spent up to now is       33.7 secs

     Computing kpt #:     4  of   123
     total cpu time spent up to now is       45.0 secs

     Computing kpt #:     5  of   123
     total cpu time spent up to now is       56.0 secs

     Computing kpt #:     6  of   123
     total cpu time spent up to now is       67.1 secs

     Computing kpt #:     7  of   123
     total cpu time spent up to now is       78.0 secs

     Computing kpt #:     8  of   123
     total cpu time spent up to now is       88.0 secs

     Computing kpt #:     9  of   123
     total cpu time spent up to now is       99.4 secs

     Computing kpt #:    10  of   123
     total cpu time spent up to now is      111.0 secs

     Computing kpt #:    11  of   123
     total cpu time spent up to now is      123.4 secs

     Computing kpt #:    12  of   123
     total cpu time spent up to now is      133.8 secs

     Computing kpt #:    13  of   123
     total cpu time spent up to now is      145.5 secs

     Computing kpt #:    14  of   123
     total cpu time spent up to now is      156.1 secs

     Computing kpt #:    15  of   123
     total cpu time spent up to now is      167.8 secs

     Computing kpt #:    16  of   123
     total cpu time spent up to now is      179.2 secs

     Computing kpt #:    17  of   123
     total cpu time spent up to now is      191.2 secs

     Computing kpt #:    18  of   123
     total cpu time spent up to now is      203.7 secs

     Computing kpt #:    19  of   123
     total cpu time spent up to now is      215.1 secs

     Computing kpt #:    20  of   123
     total cpu time spent up to now is      227.0 secs

     Computing kpt #:    21  of   123
     total cpu time spent up to now is      236.5 secs

     Computing kpt #:    22  of   123
     total cpu time spent up to now is      248.8 secs

     Computing kpt #:    23  of   123
     total cpu time spent up to now is      261.7 secs

     Computing kpt #:    24  of   123
     total cpu time spent up to now is      274.5 secs

     Computing kpt #:    25  of   123
     total cpu time spent up to now is      286.1 secs

     Computing kpt #:    26  of   123
     total cpu time spent up to now is      297.8 secs

     Computing kpt #:    27  of   123
     total cpu time spent up to now is      310.2 secs

     Computing kpt #:    28  of   123
     total cpu time spent up to now is      320.6 secs

     Computing kpt #:    29  of   123
     total cpu time spent up to now is      331.4 secs

     Computing kpt #:    30  of   123
     total cpu time spent up to now is      342.6 secs

     Computing kpt #:    31  of   123
     total cpu time spent up to now is      352.4 secs

     Computing kpt #:    32  of   123
     total cpu time spent up to now is      363.8 secs

     Computing kpt #:    33  of   123
     total cpu time spent up to now is      374.8 secs

     Computing kpt #:    34  of   123
     total cpu time spent up to now is      386.1 secs

     Computing kpt #:    35  of   123
     total cpu time spent up to now is      397.4 secs

     Computing kpt #:    36  of   123
     total cpu time spent up to now is      408.3 secs

     Computing kpt #:    37  of   123
     total cpu time spent up to now is      420.1 secs

     Computing kpt #:    38  of   123
     total cpu time spent up to now is      432.0 secs

     Computing kpt #:    39  of   123
     total cpu time spent up to now is      443.5 secs

     Computing kpt #:    40  of   123
     total cpu time spent up to now is      454.8 secs

     Computing kpt #:    41  of   123
     total cpu time spent up to now is      465.3 secs

     Computing kpt #:    42  of   123
     total cpu time spent up to now is      475.4 secs

     Computing kpt #:    43  of   123
     total cpu time spent up to now is      486.6 secs

     Computing kpt #:    44  of   123
     total cpu time spent up to now is      496.8 secs

     Computing kpt #:    45  of   123
     total cpu time spent up to now is      507.9 secs

     Computing kpt #:    46  of   123
     total cpu time spent up to now is      520.4 secs

     Computing kpt #:    47  of   123
     total cpu time spent up to now is      530.9 secs

     Computing kpt #:    48  of   123
     total cpu time spent up to now is      541.5 secs

     Computing kpt #:    49  of   123
     total cpu time spent up to now is      552.9 secs

     Computing kpt #:    50  of   123
     total cpu time spent up to now is      564.8 secs

     Computing kpt #:    51  of   123
     total cpu time spent up to now is      576.9 secs

     Computing kpt #:    52  of   123
     total cpu time spent up to now is      588.1 secs

     Computing kpt #:    53  of   123
     total cpu time spent up to now is      599.6 secs

     Computing kpt #:    54  of   123
     total cpu time spent up to now is      611.3 secs

     Computing kpt #:    55  of   123
     total cpu time spent up to now is      623.0 secs

     Computing kpt #:    56  of   123
     total cpu time spent up to now is      634.4 secs

     Computing kpt #:    57  of   123
     total cpu time spent up to now is      646.8 secs

     Computing kpt #:    58  of   123
     total cpu time spent up to now is      656.9 secs

     Computing kpt #:    59  of   123
     total cpu time spent up to now is      668.5 secs

     Computing kpt #:    60  of   123
     total cpu time spent up to now is      681.0 secs

     Computing kpt #:    61  of   123
     total cpu time spent up to now is      692.7 secs

     Computing kpt #:    62  of   123
     total cpu time spent up to now is      701.6 secs

     Computing kpt #:    63  of   123
     total cpu time spent up to now is      713.4 secs

     Computing kpt #:    64  of   123
     total cpu time spent up to now is      725.2 secs

     Computing kpt #:    65  of   123
     total cpu time spent up to now is      737.5 secs

     Computing kpt #:    66  of   123
     total cpu time spent up to now is      748.4 secs

     Computing kpt #:    67  of   123
     total cpu time spent up to now is      760.2 secs

     Computing kpt #:    68  of   123
     total cpu time spent up to now is      771.8 secs

     Computing kpt #:    69  of   123
     total cpu time spent up to now is      781.3 secs

     Computing kpt #:    70  of   123
     total cpu time spent up to now is      792.5 secs

     Computing kpt #:    71  of   123
     total cpu time spent up to now is      803.0 secs

     Computing kpt #:    72  of   123
     total cpu time spent up to now is      814.3 secs

     Computing kpt #:    73  of   123
     total cpu time spent up to now is      825.1 secs

     Computing kpt #:    74  of   123
     total cpu time spent up to now is      835.4 secs

     Computing kpt #:    75  of   123
     total cpu time spent up to now is      847.3 secs

     Computing kpt #:    76  of   123
     total cpu time spent up to now is      859.0 secs

     Computing kpt #:    77  of   123
     total cpu time spent up to now is      871.1 secs

     Computing kpt #:    78  of   123
     total cpu time spent up to now is      883.0 secs

     Computing kpt #:    79  of   123
     total cpu time spent up to now is      893.7 secs

     Computing kpt #:    80  of   123
     total cpu time spent up to now is      905.6 secs

     Computing kpt #:    81  of   123
     total cpu time spent up to now is      916.8 secs

     Computing kpt #:    82  of   123
     total cpu time spent up to now is      928.0 secs

     Computing kpt #:    83  of   123
     total cpu time spent up to now is      939.0 secs

     Computing kpt #:    84  of   123
     total cpu time spent up to now is      952.1 secs

     Computing kpt #:    85  of   123
     total cpu time spent up to now is      962.5 secs

     Computing kpt #:    86  of   123
     total cpu time spent up to now is      971.3 secs

     Computing kpt #:    87  of   123
     total cpu time spent up to now is      981.7 secs

     Computing kpt #:    88  of   123
     total cpu time spent up to now is      990.0 secs

     Computing kpt #:    89  of   123
     total cpu time spent up to now is     1000.4 secs

     Computing kpt #:    90  of   123
     total cpu time spent up to now is     1010.3 secs

     Computing kpt #:    91  of   123
     total cpu time spent up to now is     1020.8 secs

     Computing kpt #:    92  of   123
     total cpu time spent up to now is     1030.3 secs

     Computing kpt #:    93  of   123
     total cpu time spent up to now is     1039.7 secs

     Computing kpt #:    94  of   123
     total cpu time spent up to now is     1049.6 secs

     Computing kpt #:    95  of   123
     total cpu time spent up to now is     1060.6 secs

     Computing kpt #:    96  of   123
     total cpu time spent up to now is     1071.2 secs

     Computing kpt #:    97  of   123
     total cpu time spent up to now is     1082.5 secs

     Computing kpt #:    98  of   123
     total cpu time spent up to now is     1092.6 secs

     Computing kpt #:    99  of   123
     total cpu time spent up to now is     1103.6 secs

     Computing kpt #:   100  of   123
     total cpu time spent up to now is     1114.5 secs

     Computing kpt #:   101  of   123
     total cpu time spent up to now is     1125.2 secs

     Computing kpt #:   102  of   123
     total cpu time spent up to now is     1135.1 secs

     Computing kpt #:   103  of   123
     total cpu time spent up to now is     1144.2 secs

     Computing kpt #:   104  of   123
     total cpu time spent up to now is     1154.7 secs

     Computing kpt #:   105  of   123
     total cpu time spent up to now is     1165.2 secs

     Computing kpt #:   106  of   123
     total cpu time spent up to now is     1175.9 secs

     Computing kpt #:   107  of   123
     total cpu time spent up to now is     1187.0 secs

     Computing kpt #:   108  of   123
     total cpu time spent up to now is     1198.5 secs

     Computing kpt #:   109  of   123
     total cpu time spent up to now is     1209.7 secs

     Computing kpt #:   110  of   123
     total cpu time spent up to now is     1221.0 secs

     Computing kpt #:   111  of   123
     total cpu time spent up to now is     1232.6 secs

     Computing kpt #:   112  of   123
     total cpu time spent up to now is     1243.5 secs

     Computing kpt #:   113  of   123
     total cpu time spent up to now is     1254.3 secs

     Computing kpt #:   114  of   123
     total cpu time spent up to now is     1265.3 secs

     Computing kpt #:   115  of   123
     total cpu time spent up to now is     1274.5 secs

     Computing kpt #:   116  of   123
     total cpu time spent up to now is     1284.9 secs

     Computing kpt #:   117  of   123
     total cpu time spent up to now is     1295.4 secs

     Computing kpt #:   118  of   123
     total cpu time spent up to now is     1305.5 secs

     Computing kpt #:   119  of   123
     total cpu time spent up to now is     1315.0 secs

     Computing kpt #:   120  of   123
     total cpu time spent up to now is     1325.9 secs

     Computing kpt #:   121  of   123
     total cpu time spent up to now is     1336.8 secs

     Computing kpt #:   122  of   123
     total cpu time spent up to now is     1347.2 secs

     Computing kpt #:   123  of   123
     total cpu time spent up to now is     1358.5 secs

     ethr =  5.56E-13,  avg # of iterations = 98.8

     total cpu time spent up to now is     1358.5 secs

     End of band structure calculation

          k = 0.0354-0.0354-0.0354 ( 10927 PWs)   bands (ev):

    -6.4339  -3.6848  -3.6848  -3.6797  -3.4706  -3.4706   4.0379   4.3660
     4.3660   5.2682   9.0039   9.0664   9.0664  11.9633  13.5132  13.5132
    14.4330

          k = 0.0336-0.0336-0.0336 ( 10927 PWs)   bands (ev):

    -6.4347  -3.6849  -3.6849  -3.6804  -3.4706  -3.4706   4.0635   4.3679
     4.3679   5.2467   9.0061   9.0631   9.0631  11.9498  13.5292  13.5292
    14.4431

          k = 0.0318-0.0318-0.0318 ( 10927 PWs)   bands (ev):

    -6.4355  -3.6851  -3.6851  -3.6810  -3.4706  -3.4706   4.0888   4.3698
     4.3698   5.2253   9.0084   9.0599   9.0599  11.9369  13.5449  13.5449
    14.4529

          k = 0.0301-0.0301-0.0301 ( 10933 PWs)   bands (ev):

    -6.4362  -3.6852  -3.6852  -3.6816  -3.4706  -3.4706   4.1137   4.3716
     4.3716   5.2041   9.0106   9.0569   9.0569  11.9246  13.5604  13.5604
    14.4623

          k = 0.0283-0.0283-0.0283 ( 10933 PWs)   bands (ev):

    -6.4369  -3.6853  -3.6853  -3.6821  -3.4706  -3.4706   4.1381   4.3733
     4.3733   5.1831   9.0127   9.0541   9.0541  11.9129  13.5756  13.5756
    14.4714

          k = 0.0265-0.0265-0.0265 ( 10933 PWs)   bands (ev):

    -6.4375  -3.6854  -3.6854  -3.6826  -3.4706  -3.4706   4.1621   4.3749
     4.3749   5.1624   9.0148   9.0514   9.0514  11.9019  13.5904  13.5904
    14.4801

          k = 0.0247-0.0247-0.0247 ( 10933 PWs)   bands (ev):

    -6.4381  -3.6856  -3.6856  -3.6831  -3.4706  -3.4706   4.1855   4.3764
     4.3764   5.1420   9.0168   9.0489   9.0489  11.8915  13.6048  13.6048
    14.4883

          k = 0.0230-0.0230-0.0230 ( 10933 PWs)   bands (ev):

    -6.4387  -3.6857  -3.6857  -3.6835  -3.4705  -3.4705   4.2083   4.3778
     4.3778   5.1220   9.0187   9.0465   9.0465  11.8818  13.6188  13.6188
    14.4961

          k = 0.0212-0.0212-0.0212 ( 10933 PWs)   bands (ev):

    -6.4392  -3.6858  -3.6858  -3.6840  -3.4705  -3.4705   4.2304   4.3791
     4.3791   5.1025   9.0205   9.0443   9.0443  11.8727  13.6322  13.6322
    14.5034

          k = 0.0194-0.0194-0.0194 ( 10945 PWs)   bands (ev):

    -6.4397  -3.6858  -3.6858  -3.6843  -3.4705  -3.4705   4.2517   4.3803
     4.3803   5.0836   9.0222   9.0423   9.0423  11.8644  13.6449  13.6449
    14.5103

          k = 0.0177-0.0177-0.0177 ( 10945 PWs)   bands (ev):

    -6.4401  -3.6859  -3.6859  -3.6847  -3.4705  -3.4705   4.2720   4.3814
     4.3814   5.0654   9.0238   9.0405   9.0405  11.8567  13.6570  13.6570
    14.5166

          k = 0.0159-0.0159-0.0159 ( 10954 PWs)   bands (ev):

    -6.4405  -3.6860  -3.6860  -3.6850  -3.4705  -3.4705   4.2913   4.3824
     4.3824   5.0480   9.0252   9.0388   9.0388  11.8498  13.6684  13.6684
    14.5224

          k = 0.0141-0.0141-0.0141 ( 10954 PWs)   bands (ev):

    -6.4409  -3.6861  -3.6861  -3.6853  -3.4705  -3.4705   4.3093   4.3833
     4.3833   5.0317   9.0265   9.0373   9.0373  11.8435  13.6788  13.6788
    14.5276

          k = 0.0124-0.0124-0.0124 ( 10960 PWs)   bands (ev):

    -6.4412  -3.6861  -3.6861  -3.6855  -3.4705  -3.4705   4.3260   4.3841
     4.3841   5.0166   9.0277   9.0360   9.0360  11.8380  13.6883  13.6883
    14.5323

          k = 0.0106-0.0106-0.0106 ( 10969 PWs)   bands (ev):

    -6.4415  -3.6862  -3.6862  -3.6857  -3.4705  -3.4705   4.3411   4.3848
     4.3848   5.0028   9.0288   9.0349   9.0349  11.8331  13.6968  13.6968
    14.5363

          k = 0.0088-0.0088-0.0088 ( 10969 PWs)   bands (ev):

    -6.4417  -3.6862  -3.6862  -3.6859  -3.4705  -3.4705   4.3544   4.3854
     4.3854   4.9907   9.0296   9.0339   9.0339  11.8291  13.7041  13.7041
    14.5398

          k = 0.0071-0.0071-0.0071 ( 10969 PWs)   bands (ev):

    -6.4419  -3.6863  -3.6863  -3.6861  -3.4705  -3.4705   4.3656   4.3858
     4.3858   4.9803   9.0304   9.0331   9.0331  11.8257  13.7102  13.7102
    14.5426

          k = 0.0053-0.0053-0.0053 ( 10969 PWs)   bands (ev):

    -6.4421  -3.6863  -3.6863  -3.6862  -3.4705  -3.4705   4.3747   4.3862
     4.3862   4.9720   9.0309   9.0325   9.0325  11.8231  13.7150  13.7150
    14.5449

          k = 0.0035-0.0035-0.0035 ( 10969 PWs)   bands (ev):

    -6.4422  -3.6863  -3.6863  -3.6863  -3.4705  -3.4705   4.3813   4.3865
     4.3865   4.9659   9.0314   9.0320   9.0320  11.8212  13.7186  13.7186
    14.5465

          k = 0.0018-0.0018-0.0018 ( 10969 PWs)   bands (ev):

    -6.4422  -3.6863  -3.6863  -3.6863  -3.4705  -3.4705   4.3853   4.3866
     4.3866   4.9622   9.0316   9.0318   9.0318  11.8201  13.7207  13.7207
    14.5474

          k = 0.0000 0.0000 0.0000 ( 10969 PWs)   bands (ev):

    -6.4423  -3.6863  -3.6863  -3.6863  -3.4705  -3.4705   4.3867   4.3867
     4.3867   4.9609   9.0317   9.0317   9.0317  11.8198  13.7214  13.7214
    14.5478

          k =-0.0018 0.0018 0.0018 ( 10969 PWs)   bands (ev):

    -6.4422  -3.6863  -3.6863  -3.6863  -3.4705  -3.4705   4.3853   4.3866
     4.3866   4.9622   9.0316   9.0318   9.0318  11.8201  13.7207  13.7207
    14.5474

          k =-0.0035 0.0035 0.0035 ( 10969 PWs)   bands (ev):

    -6.4422  -3.6863  -3.6863  -3.6863  -3.4705  -3.4705   4.3813   4.3865
     4.3865   4.9659   9.0314   9.0320   9.0320  11.8212  13.7186  13.7186
    14.5465

          k =-0.0053 0.0053 0.0053 ( 10969 PWs)   bands (ev):

    -6.4421  -3.6863  -3.6863  -3.6862  -3.4705  -3.4705   4.3747   4.3862
     4.3862   4.9720   9.0309   9.0325   9.0325  11.8231  13.7150  13.7150
    14.5449

          k =-0.0071 0.0071 0.0071 ( 10969 PWs)   bands (ev):

    -6.4419  -3.6863  -3.6863  -3.6861  -3.4705  -3.4705   4.3656   4.3858
     4.3858   4.9803   9.0304   9.0331   9.0331  11.8257  13.7102  13.7102
    14.5426

          k =-0.0088 0.0088 0.0088 ( 10969 PWs)   bands (ev):

    -6.4417  -3.6862  -3.6862  -3.6859  -3.4705  -3.4705   4.3544   4.3854
     4.3854   4.9907   9.0296   9.0339   9.0339  11.8291  13.7041  13.7041
    14.5398

          k =-0.0106 0.0106 0.0106 ( 10969 PWs)   bands (ev):

    -6.4415  -3.6862  -3.6862  -3.6857  -3.4705  -3.4705   4.3411   4.3848
     4.3848   5.0028   9.0288   9.0349   9.0349  11.8331  13.6968  13.6968
    14.5363

          k =-0.0124 0.0124 0.0124 ( 10960 PWs)   bands (ev):

    -6.4412  -3.6861  -3.6861  -3.6855  -3.4705  -3.4705   4.3260   4.3841
     4.3841   5.0166   9.0277   9.0360   9.0360  11.8380  13.6883  13.6883
    14.5323

          k =-0.0141 0.0141 0.0141 ( 10954 PWs)   bands (ev):

    -6.4409  -3.6861  -3.6861  -3.6853  -3.4705  -3.4705   4.3093   4.3833
     4.3833   5.0317   9.0265   9.0373   9.0373  11.8435  13.6788  13.6788
    14.5276

          k =-0.0159 0.0159 0.0159 ( 10954 PWs)   bands (ev):

    -6.4405  -3.6860  -3.6860  -3.6850  -3.4705  -3.4705   4.2913   4.3824
     4.3824   5.0480   9.0252   9.0388   9.0388  11.8498  13.6684  13.6684
    14.5224

          k =-0.0177 0.0177 0.0177 ( 10945 PWs)   bands (ev):

    -6.4401  -3.6859  -3.6859  -3.6847  -3.4705  -3.4705   4.2720   4.3814
     4.3814   5.0654   9.0238   9.0405   9.0405  11.8567  13.6570  13.6570
    14.5166

          k =-0.0194 0.0194 0.0194 ( 10945 PWs)   bands (ev):

    -6.4397  -3.6858  -3.6858  -3.6843  -3.4705  -3.4705   4.2517   4.3803
     4.3803   5.0836   9.0222   9.0423   9.0423  11.8644  13.6449  13.6449
    14.5103

          k =-0.0212 0.0212 0.0212 ( 10933 PWs)   bands (ev):

    -6.4392  -3.6858  -3.6858  -3.6840  -3.4705  -3.4705   4.2304   4.3791
     4.3791   5.1025   9.0205   9.0443   9.0443  11.8727  13.6322  13.6322
    14.5034

          k =-0.0230 0.0230 0.0230 ( 10933 PWs)   bands (ev):

    -6.4387  -3.6857  -3.6857  -3.6835  -3.4705  -3.4705   4.2083   4.3778
     4.3778   5.1220   9.0187   9.0465   9.0465  11.8818  13.6188  13.6188
    14.4961

          k =-0.0247 0.0247 0.0247 ( 10933 PWs)   bands (ev):

    -6.4381  -3.6856  -3.6856  -3.6831  -3.4706  -3.4706   4.1855   4.3764
     4.3764   5.1420   9.0168   9.0489   9.0489  11.8915  13.6048  13.6048
    14.4883

          k =-0.0265 0.0265 0.0265 ( 10933 PWs)   bands (ev):

    -6.4375  -3.6854  -3.6854  -3.6826  -3.4706  -3.4706   4.1621   4.3749
     4.3749   5.1624   9.0148   9.0514   9.0514  11.9019  13.5904  13.5904
    14.4801

          k =-0.0283 0.0283 0.0283 ( 10933 PWs)   bands (ev):

    -6.4369  -3.6853  -3.6853  -3.6821  -3.4706  -3.4706   4.1381   4.3733
     4.3733   5.1831   9.0127   9.0541   9.0541  11.9129  13.5756  13.5756
    14.4714

          k =-0.0301 0.0301 0.0301 ( 10933 PWs)   bands (ev):

    -6.4362  -3.6852  -3.6852  -3.6816  -3.4706  -3.4706   4.1137   4.3716
     4.3716   5.2041   9.0106   9.0569   9.0569  11.9246  13.5604  13.5604
    14.4623

          k =-0.0318 0.0318 0.0318 ( 10927 PWs)   bands (ev):

    -6.4355  -3.6851  -3.6851  -3.6810  -3.4706  -3.4706   4.0888   4.3698
     4.3698   5.2253   9.0084   9.0599   9.0599  11.9369  13.5449  13.5449
    14.4529

          k =-0.0336 0.0336 0.0336 ( 10927 PWs)   bands (ev):

    -6.4347  -3.6849  -3.6849  -3.6804  -3.4706  -3.4706   4.0635   4.3679
     4.3679   5.2467   9.0061   9.0631   9.0631  11.9498  13.5292  13.5292
    14.4431

          k =-0.0354 0.0354 0.0354 ( 10927 PWs)   bands (ev):

    -6.4339  -3.6848  -3.6848  -3.6797  -3.4706  -3.4706   4.0379   4.3660
     4.3660   5.2682   9.0039   9.0664   9.0664  11.9633  13.5132  13.5132
    14.4330

          k = 0.0000 0.0000-0.0500 ( 10929 PWs)   bands (ev):

    -6.4367  -3.6848  -3.6848  -3.6828  -3.4710  -3.4702   4.1534   4.3571
     4.3571   5.1988   8.9688   9.0766   9.0766  11.9166  13.4286  13.7327
    14.5808

          k = 0.0000 0.0000-0.0475 ( 10929 PWs)   bands (ev):

    -6.4372  -3.6850  -3.6850  -3.6832  -3.4709  -3.4702   4.1712   4.3599
     4.3599   5.1806   8.9747   9.0722   9.0722  11.9074  13.4517  13.7316
    14.5776

          k = 0.0000 0.0000-0.0450 ( 10929 PWs)   bands (ev):

    -6.4377  -3.6851  -3.6851  -3.6835  -3.4709  -3.4702   4.1888   4.3626
     4.3626   5.1626   8.9804   9.0681   9.0681  11.8986  13.4744  13.7306
    14.5746

          k = 0.0000 0.0000-0.0425 ( 10937 PWs)   bands (ev):

    -6.4382  -3.6852  -3.6852  -3.6838  -3.4709  -3.4703   4.2060   4.3652
     4.3652   5.1450   8.9858   9.0642   9.0642  11.8902  13.4966  13.7296
    14.5717

          k = 0.0000 0.0000-0.0400 ( 10937 PWs)   bands (ev):

    -6.4387  -3.6854  -3.6854  -3.6841  -3.4708  -3.4703   4.2228   4.3676
     4.3676   5.1277   8.9909   9.0605   9.0605  11.8823  13.5182  13.7287
    14.5689

          k = 0.0000 0.0000-0.0375 ( 10937 PWs)   bands (ev):

    -6.4391  -3.6855  -3.6855  -3.6844  -3.4708  -3.4703   4.2393   4.3699
     4.3699   5.1109   8.9957   9.0570   9.0570  11.8749  13.5393  13.7278
    14.5664

          k = 0.0000 0.0000-0.0350 ( 10937 PWs)   bands (ev):

    -6.4395  -3.6856  -3.6856  -3.6846  -3.4707  -3.4703   4.2553   4.3721
     4.3721   5.0946   9.0003   9.0538   9.0538  11.8679  13.5596  13.7270
    14.5640

          k = 0.0000 0.0000-0.0325 ( 10937 PWs)   bands (ev):

    -6.4399  -3.6857  -3.6857  -3.6849  -3.4707  -3.4704   4.2708   4.3741
     4.3741   5.0788   9.0045   9.0507   9.0507  11.8613  13.5792  13.7262
    14.5617

          k = 0.0000 0.0000-0.0300 ( 10945 PWs)   bands (ev):

    -6.4402  -3.6858  -3.6858  -3.6851  -3.4707  -3.4704   4.2857   4.3759
     4.3759   5.0636   9.0085   9.0479   9.0479  11.8552  13.5980  13.7255
    14.5597

          k = 0.0000 0.0000-0.0275 ( 10945 PWs)   bands (ev):

    -6.4406  -3.6859  -3.6859  -3.6853  -3.4706  -3.4704   4.2999   4.3776
     4.3776   5.0491   9.0122   9.0453   9.0453  11.8496  13.6158  13.7248
    14.5578

          k = 0.0000 0.0000-0.0250 ( 10961 PWs)   bands (ev):

    -6.4408  -3.6859  -3.6859  -3.6855  -3.4706  -3.4704   4.3135   4.3792
     4.3792   5.0353   9.0155   9.0430   9.0430  11.8445  13.6326  13.7242
    14.5560

          k = 0.0000 0.0000-0.0225 ( 10961 PWs)   bands (ev):

    -6.4411  -3.6860  -3.6860  -3.6856  -3.4706  -3.4704   4.3262   4.3806
     4.3806   5.0224   9.0186   9.0408   9.0408  11.8398  13.6483  13.7237
    14.5545

          k = 0.0000 0.0000-0.0200 ( 10961 PWs)   bands (ev):

    -6.4414  -3.6861  -3.6861  -3.6858  -3.4706  -3.4704   4.3379   4.3819
     4.3819   5.0104   9.0213   9.0389   9.0389  11.8356  13.6628  13.7232
    14.5531

          k = 0.0000 0.0000-0.0175 ( 10969 PWs)   bands (ev):

    -6.4416  -3.6861  -3.6861  -3.6859  -3.4706  -3.4705   4.3487   4.3830
     4.3830   4.9995   9.0237   9.0372   9.0372  11.8319  13.6759  13.7228
    14.5518

          k = 0.0000 0.0000-0.0150 ( 10969 PWs)   bands (ev):

    -6.4417  -3.6862  -3.6862  -3.6860  -3.4705  -3.4705   4.3583   4.3840
     4.3840   4.9897   9.0258   9.0358   9.0358  11.8287  13.6875  13.7224
    14.5507

          k = 0.0000 0.0000-0.0125 ( 10969 PWs)   bands (ev):

    -6.4419  -3.6862  -3.6862  -3.6861  -3.4705  -3.4705   4.3667   4.3848
     4.3848   4.9812   9.0276   9.0345   9.0345  11.8260  13.6976  13.7221
    14.5498

          k = 0.0000 0.0000-0.0100 ( 10969 PWs)   bands (ev):

    -6.4420  -3.6863  -3.6863  -3.6862  -3.4705  -3.4705   4.3737   4.3855
     4.3855   4.9741   9.0291   9.0335   9.0335  11.8237  13.7060  13.7218
    14.5491

          k = 0.0000 0.0000-0.0075 ( 10969 PWs)   bands (ev):

    -6.4421  -3.6863  -3.6863  -3.6862  -3.4705  -3.4705   4.3793   4.3860
     4.3860   4.9684   9.0302   9.0327   9.0327  11.8220  13.7127  13.7216
    14.5485

          k = 0.0000 0.0000-0.0050 ( 10969 PWs)   bands (ev):

    -6.4422  -3.6863  -3.6863  -3.6863  -3.4705  -3.4705   4.3834   4.3864
     4.3864   4.9643   9.0310   9.0321   9.0321  11.8208  13.7175  13.7215
    14.5481

          k = 0.0000 0.0000-0.0025 ( 10969 PWs)   bands (ev):

    -6.4422  -3.6863  -3.6863  -3.6863  -3.4705  -3.4705   4.3858   4.3866
     4.3866   4.9618   9.0315   9.0318   9.0318  11.8200  13.7204  13.7214
    14.5478

          k = 0.0000 0.0000 0.0000 ( 10969 PWs)   bands (ev):

    -6.4423  -3.6863  -3.6863  -3.6863  -3.4705  -3.4705   4.3867   4.3867
     4.3867   4.9609   9.0317   9.0317   9.0317  11.8198  13.7214  13.7214
    14.5478

          k = 0.0000 0.0000 0.0025 ( 10969 PWs)   bands (ev):

    -6.4422  -3.6863  -3.6863  -3.6863  -3.4705  -3.4705   4.3858   4.3866
     4.3866   4.9618   9.0315   9.0318   9.0318  11.8200  13.7204  13.7214
    14.5478

          k = 0.0000 0.0000 0.0050 ( 10969 PWs)   bands (ev):

    -6.4422  -3.6863  -3.6863  -3.6863  -3.4705  -3.4705   4.3834   4.3864
     4.3864   4.9643   9.0310   9.0321   9.0321  11.8208  13.7175  13.7215
    14.5481

          k = 0.0000 0.0000 0.0075 ( 10969 PWs)   bands (ev):

    -6.4421  -3.6863  -3.6863  -3.6862  -3.4705  -3.4705   4.3793   4.3860
     4.3860   4.9684   9.0302   9.0327   9.0327  11.8220  13.7127  13.7216
    14.5485

          k = 0.0000 0.0000 0.0100 ( 10969 PWs)   bands (ev):

    -6.4420  -3.6863  -3.6863  -3.6862  -3.4705  -3.4705   4.3737   4.3855
     4.3855   4.9741   9.0291   9.0335   9.0335  11.8237  13.7060  13.7218
    14.5491

          k = 0.0000 0.0000 0.0125 ( 10969 PWs)   bands (ev):

    -6.4419  -3.6862  -3.6862  -3.6861  -3.4705  -3.4705   4.3667   4.3848
     4.3848   4.9812   9.0276   9.0345   9.0345  11.8260  13.6976  13.7221
    14.5498

          k = 0.0000 0.0000 0.0150 ( 10969 PWs)   bands (ev):

    -6.4417  -3.6862  -3.6862  -3.6860  -3.4705  -3.4705   4.3583   4.3840
     4.3840   4.9897   9.0258   9.0358   9.0358  11.8287  13.6875  13.7224
    14.5507

          k = 0.0000 0.0000 0.0175 ( 10969 PWs)   bands (ev):

    -6.4416  -3.6861  -3.6861  -3.6859  -3.4706  -3.4705   4.3487   4.3830
     4.3830   4.9995   9.0237   9.0372   9.0372  11.8319  13.6759  13.7228
    14.5518

          k = 0.0000 0.0000 0.0200 ( 10961 PWs)   bands (ev):

    -6.4414  -3.6861  -3.6861  -3.6858  -3.4706  -3.4704   4.3379   4.3819
     4.3819   5.0104   9.0213   9.0389   9.0389  11.8356  13.6628  13.7232
    14.5531

          k = 0.0000 0.0000 0.0225 ( 10961 PWs)   bands (ev):

    -6.4411  -3.6860  -3.6860  -3.6856  -3.4706  -3.4704   4.3262   4.3806
     4.3806   5.0224   9.0186   9.0408   9.0408  11.8398  13.6483  13.7237
    14.5545

          k = 0.0000 0.0000 0.0250 ( 10961 PWs)   bands (ev):

    -6.4408  -3.6859  -3.6859  -3.6855  -3.4706  -3.4704   4.3135   4.3792
     4.3792   5.0353   9.0155   9.0430   9.0430  11.8445  13.6326  13.7242
    14.5560

          k = 0.0000 0.0000 0.0275 ( 10945 PWs)   bands (ev):

    -6.4406  -3.6859  -3.6859  -3.6853  -3.4706  -3.4704   4.2999   4.3776
     4.3776   5.0491   9.0122   9.0453   9.0453  11.8496  13.6158  13.7248
    14.5578

          k = 0.0000 0.0000 0.0300 ( 10945 PWs)   bands (ev):

    -6.4402  -3.6858  -3.6858  -3.6851  -3.4707  -3.4704   4.2857   4.3759
     4.3759   5.0636   9.0085   9.0479   9.0479  11.8552  13.5980  13.7255
    14.5597

          k = 0.0000 0.0000 0.0325 ( 10937 PWs)   bands (ev):

    -6.4399  -3.6857  -3.6857  -3.6849  -3.4707  -3.4704   4.2708   4.3741
     4.3741   5.0788   9.0045   9.0507   9.0507  11.8613  13.5792  13.7262
    14.5617

          k = 0.0000 0.0000 0.0350 ( 10937 PWs)   bands (ev):

    -6.4395  -3.6856  -3.6856  -3.6846  -3.4707  -3.4703   4.2553   4.3721
     4.3721   5.0946   9.0003   9.0538   9.0538  11.8679  13.5596  13.7270
    14.5640

          k = 0.0000 0.0000 0.0375 ( 10937 PWs)   bands (ev):

    -6.4391  -3.6855  -3.6855  -3.6844  -3.4708  -3.4703   4.2393   4.3699
     4.3699   5.1109   8.9957   9.0570   9.0570  11.8749  13.5393  13.7278
    14.5664

          k = 0.0000 0.0000 0.0400 ( 10937 PWs)   bands (ev):

    -6.4387  -3.6854  -3.6854  -3.6841  -3.4708  -3.4703   4.2228   4.3676
     4.3676   5.1277   8.9909   9.0605   9.0605  11.8823  13.5182  13.7287
    14.5689

          k = 0.0000 0.0000 0.0425 ( 10937 PWs)   bands (ev):

    -6.4382  -3.6852  -3.6852  -3.6838  -3.4709  -3.4703   4.2060   4.3652
     4.3652   5.1450   8.9858   9.0642   9.0642  11.8902  13.4966  13.7296
    14.5717

          k = 0.0000 0.0000 0.0450 ( 10929 PWs)   bands (ev):

    -6.4377  -3.6851  -3.6851  -3.6835  -3.4709  -3.4702   4.1888   4.3626
     4.3626   5.1626   8.9804   9.0681   9.0681  11.8986  13.4744  13.7306
    14.5746

          k = 0.0000 0.0000 0.0475 ( 10929 PWs)   bands (ev):

    -6.4372  -3.6850  -3.6850  -3.6832  -3.4709  -3.4702   4.1712   4.3599
     4.3599   5.1806   8.9747   9.0722   9.0722  11.9074  13.4517  13.7316
    14.5776

          k = 0.0000 0.0000 0.0500 ( 10929 PWs)   bands (ev):

    -6.4367  -3.6848  -3.6848  -3.6828  -3.4710  -3.4702   4.1534   4.3571
     4.3571   5.1988   8.9688   9.0766   9.0766  11.9166  13.4286  13.7327
    14.5808

          k =-0.0204-0.0204-0.0204 ( 10945 PWs)   bands (ev):

    -6.4395  -3.6858  -3.6858  -3.6841  -3.4705  -3.4705   4.2401   4.3797
     4.3797   5.0938   9.0213   9.0434   9.0434  11.8689  13.6380  13.6380
    14.5066

          k =-0.0194-0.0194-0.0194 ( 10945 PWs)   bands (ev):

    -6.4397  -3.6858  -3.6858  -3.6843  -3.4705  -3.4705   4.2523   4.3804
     4.3804   5.0830   9.0222   9.0423   9.0423  11.8641  13.6453  13.6453
    14.5105

          k =-0.0184-0.0184-0.0184 ( 10945 PWs)   bands (ev):

    -6.4400  -3.6859  -3.6859  -3.6845  -3.4705  -3.4705   4.2641   4.3810
     4.3810   5.0724   9.0232   9.0412   9.0412  11.8596  13.6524  13.6524
    14.5142

          k =-0.0174-0.0174-0.0174 ( 10951 PWs)   bands (ev):

    -6.4402  -3.6859  -3.6859  -3.6847  -3.4705  -3.4705   4.2756   4.3816
     4.3816   5.0621   9.0240   9.0402   9.0402  11.8554  13.6592  13.6592
    14.5177

          k =-0.0163-0.0163-0.0163 ( 10951 PWs)   bands (ev):

    -6.4405  -3.6860  -3.6860  -3.6849  -3.4705  -3.4705   4.2868   4.3822
     4.3822   5.0521   9.0249   9.0392   9.0392  11.8513  13.6657  13.6657
    14.5210

          k =-0.0153-0.0153-0.0153 ( 10954 PWs)   bands (ev):

    -6.4407  -3.6860  -3.6860  -3.6851  -3.4705  -3.4705   4.2976   4.3827
     4.3827   5.0424   9.0257   9.0383   9.0383  11.8475  13.6720  13.6720
    14.5242

          k =-0.0143-0.0143-0.0143 ( 10954 PWs)   bands (ev):

    -6.4409  -3.6861  -3.6861  -3.6852  -3.4705  -3.4705   4.3079   4.3832
     4.3832   5.0330   9.0264   9.0375   9.0375  11.8440  13.6780  13.6780
    14.5272

          k =-0.0133-0.0133-0.0133 ( 10960 PWs)   bands (ev):

    -6.4411  -3.6861  -3.6861  -3.6854  -3.4705  -3.4705   4.3178   4.3837
     4.3837   5.0241   9.0271   9.0367   9.0367  11.8407  13.6836  13.6836
    14.5300

          k =-0.0122-0.0122-0.0122 ( 10960 PWs)   bands (ev):

    -6.4412  -3.6861  -3.6861  -3.6855  -3.4705  -3.4705   4.3271   4.3841
     4.3841   5.0156   9.0278   9.0359   9.0359  11.8376  13.6889  13.6889
    14.5326

          k =-0.0112-0.0112-0.0112 ( 10963 PWs)   bands (ev):

    -6.4414  -3.6862  -3.6862  -3.6857  -3.4705  -3.4705   4.3360   4.3846
     4.3846   5.0075   9.0284   9.0353   9.0353  11.8348  13.6939  13.6939
    14.5350

          k =-0.0102-0.0102-0.0102 ( 10969 PWs)   bands (ev):

    -6.4415  -3.6862  -3.6862  -3.6858  -3.4705  -3.4705   4.3442   4.3849
     4.3849   4.9999   9.0290   9.0346   9.0346  11.8322  13.6985  13.6985
    14.5372

          k =-0.0092-0.0092-0.0092 ( 10969 PWs)   bands (ev):

    -6.4417  -3.6862  -3.6862  -3.6859  -3.4705  -3.4705   4.3519   4.3852
     4.3852   4.9929   9.0295   9.0341   9.0341  11.8298  13.7027  13.7027
    14.5392

          k =-0.0082-0.0082-0.0082 ( 10969 PWs)   bands (ev):

    -6.4418  -3.6862  -3.6862  -3.6860  -3.4705  -3.4705   4.3589   4.3855
     4.3855   4.9865   9.0299   9.0336   9.0336  11.8277  13.7066  13.7066
    14.5410

          k =-0.0071-0.0071-0.0071 ( 10969 PWs)   bands (ev):

    -6.4419  -3.6863  -3.6863  -3.6861  -3.4705  -3.4705   4.3652   4.3858
     4.3858   4.9807   9.0303   9.0331   9.0331  11.8258  13.7100  13.7100
    14.5425

          k =-0.0061-0.0061-0.0061 ( 10969 PWs)   bands (ev):

    -6.4420  -3.6863  -3.6863  -3.6861  -3.4705  -3.4705   4.3708   4.3860
     4.3860   4.9756   9.0307   9.0327   9.0327  11.8242  13.7130  13.7130
    14.5439

          k =-0.0051-0.0051-0.0051 ( 10969 PWs)   bands (ev):

    -6.4421  -3.6863  -3.6863  -3.6862  -3.4705  -3.4705   4.3755   4.3862
     4.3862   4.9712   9.0310   9.0324   9.0324  11.8229  13.7155  13.7155
    14.5451

          k =-0.0041-0.0041-0.0041 ( 10969 PWs)   bands (ev):

    -6.4421  -3.6863  -3.6863  -3.6862  -3.4705  -3.4705   4.3795   4.3864
     4.3864   4.9676   9.0312   9.0322   9.0322  11.8217  13.7176  13.7176
    14.5460

          k =-0.0031-0.0031-0.0031 ( 10969 PWs)   bands (ev):

    -6.4422  -3.6863  -3.6863  -3.6863  -3.4705  -3.4705   4.3826   4.3865
     4.3865   4.9647   9.0314   9.0320   9.0320  11.8209  13.7193  13.7193
    14.5468

          k =-0.0020-0.0020-0.0020 ( 10969 PWs)   bands (ev):

    -6.4422  -3.6863  -3.6863  -3.6863  -3.4705  -3.4705   4.3849   4.3866
     4.3866   4.9626   9.0316   9.0318   9.0318  11.8203  13.7204  13.7204
    14.5473

          k =-0.0010-0.0010-0.0010 ( 10969 PWs)   bands (ev):

    -6.4422  -3.6863  -3.6863  -3.6863  -3.4705  -3.4705   4.3862   4.3867
     4.3867   4.9613   9.0317   9.0317   9.0317  11.8199  13.7211  13.7211
    14.5477

          k = 0.0000 0.0000 0.0000 ( 10969 PWs)   bands (ev):

    -6.4423  -3.6863  -3.6863  -3.6863  -3.4705  -3.4705   4.3867   4.3867
     4.3867   4.9609   9.0317   9.0317   9.0317  11.8198  13.7214  13.7214
    14.5478

          k = 0.0010 0.0010 0.0010 ( 10969 PWs)   bands (ev):

    -6.4422  -3.6863  -3.6863  -3.6863  -3.4705  -3.4705   4.3862   4.3867
     4.3867   4.9613   9.0317   9.0317   9.0317  11.8199  13.7211  13.7211
    14.5477

          k = 0.0020 0.0020 0.0020 ( 10969 PWs)   bands (ev):

    -6.4422  -3.6863  -3.6863  -3.6863  -3.4705  -3.4705   4.3849   4.3866
     4.3866   4.9626   9.0316   9.0318   9.0318  11.8203  13.7204  13.7204
    14.5473

          k = 0.0031 0.0031 0.0031 ( 10969 PWs)   bands (ev):

    -6.4422  -3.6863  -3.6863  -3.6863  -3.4705  -3.4705   4.3826   4.3865
     4.3865   4.9647   9.0314   9.0320   9.0320  11.8209  13.7193  13.7193
    14.5468

          k = 0.0041 0.0041 0.0041 ( 10969 PWs)   bands (ev):

    -6.4421  -3.6863  -3.6863  -3.6862  -3.4705  -3.4705   4.3795   4.3864
     4.3864   4.9676   9.0312   9.0322   9.0322  11.8217  13.7176  13.7176
    14.5460

          k = 0.0051 0.0051 0.0051 ( 10969 PWs)   bands (ev):

    -6.4421  -3.6863  -3.6863  -3.6862  -3.4705  -3.4705   4.3755   4.3862
     4.3862   4.9712   9.0310   9.0324   9.0324  11.8229  13.7155  13.7155
    14.5451

          k = 0.0061 0.0061 0.0061 ( 10969 PWs)   bands (ev):

    -6.4420  -3.6863  -3.6863  -3.6861  -3.4705  -3.4705   4.3708   4.3860
     4.3860   4.9756   9.0307   9.0327   9.0327  11.8242  13.7130  13.7130
    14.5439

          k = 0.0071 0.0071 0.0071 ( 10969 PWs)   bands (ev):

    -6.4419  -3.6863  -3.6863  -3.6861  -3.4705  -3.4705   4.3652   4.3858
     4.3858   4.9807   9.0303   9.0331   9.0331  11.8258  13.7100  13.7100
    14.5425

          k = 0.0082 0.0082 0.0082 ( 10969 PWs)   bands (ev):

    -6.4418  -3.6862  -3.6862  -3.6860  -3.4705  -3.4705   4.3589   4.3855
     4.3855   4.9865   9.0299   9.0336   9.0336  11.8277  13.7066  13.7066
    14.5410

          k = 0.0092 0.0092 0.0092 ( 10969 PWs)   bands (ev):

    -6.4417  -3.6862  -3.6862  -3.6859  -3.4705  -3.4705   4.3519   4.3852
     4.3852   4.9929   9.0295   9.0341   9.0341  11.8298  13.7027  13.7027
    14.5392

          k = 0.0102 0.0102 0.0102 ( 10969 PWs)   bands (ev):

    -6.4415  -3.6862  -3.6862  -3.6858  -3.4705  -3.4705   4.3442   4.3849
     4.3849   4.9999   9.0290   9.0346   9.0346  11.8322  13.6985  13.6985
    14.5372

          k = 0.0112 0.0112 0.0112 ( 10963 PWs)   bands (ev):

    -6.4414  -3.6862  -3.6862  -3.6857  -3.4705  -3.4705   4.3360   4.3846
     4.3846   5.0075   9.0284   9.0353   9.0353  11.8348  13.6939  13.6939
    14.5350

          k = 0.0122 0.0122 0.0122 ( 10960 PWs)   bands (ev):

    -6.4412  -3.6861  -3.6861  -3.6855  -3.4705  -3.4705   4.3271   4.3841
     4.3841   5.0156   9.0278   9.0359   9.0359  11.8376  13.6889  13.6889
    14.5326

          k = 0.0133 0.0133 0.0133 ( 10960 PWs)   bands (ev):

    -6.4411  -3.6861  -3.6861  -3.6854  -3.4705  -3.4705   4.3178   4.3837
     4.3837   5.0241   9.0271   9.0367   9.0367  11.8407  13.6836  13.6836
    14.5300

          k = 0.0143 0.0143 0.0143 ( 10954 PWs)   bands (ev):

    -6.4409  -3.6861  -3.6861  -3.6852  -3.4705  -3.4705   4.3079   4.3832
     4.3832   5.0330   9.0264   9.0375   9.0375  11.8440  13.6780  13.6780
    14.5272

          k = 0.0153 0.0153 0.0153 ( 10954 PWs)   bands (ev):

    -6.4407  -3.6860  -3.6860  -3.6851  -3.4705  -3.4705   4.2976   4.3827
     4.3827   5.0424   9.0257   9.0383   9.0383  11.8475  13.6720  13.6720
    14.5242

          k = 0.0163 0.0163 0.0163 ( 10951 PWs)   bands (ev):

    -6.4405  -3.6860  -3.6860  -3.6849  -3.4705  -3.4705   4.2868   4.3822
     4.3822   5.0521   9.0249   9.0392   9.0392  11.8513  13.6657  13.6657
    14.5210

          k = 0.0174 0.0174 0.0174 ( 10951 PWs)   bands (ev):

    -6.4402  -3.6859  -3.6859  -3.6847  -3.4705  -3.4705   4.2756   4.3816
     4.3816   5.0621   9.0240   9.0402   9.0402  11.8554  13.6592  13.6592
    14.5177

          k = 0.0184 0.0184 0.0184 ( 10945 PWs)   bands (ev):

    -6.4400  -3.6859  -3.6859  -3.6845  -3.4705  -3.4705   4.2641   4.3810
     4.3810   5.0724   9.0232   9.0412   9.0412  11.8596  13.6524  13.6524
    14.5142

          k = 0.0194 0.0194 0.0194 ( 10945 PWs)   bands (ev):

    -6.4397  -3.6858  -3.6858  -3.6843  -3.4705  -3.4705   4.2523   4.3804
     4.3804   5.0830   9.0222   9.0423   9.0423  11.8641  13.6453  13.6453
    14.5105

          k = 0.0204 0.0204 0.0204 ( 10945 PWs)   bands (ev):

    -6.4395  -3.6858  -3.6858  -3.6841  -3.4705  -3.4705   4.2401   4.3797
     4.3797   5.0938   9.0213   9.0434   9.0434  11.8689  13.6380  13.6380
    14.5066

     Writing all to output data dir /home/User/opencode_workspace/DFT/calculations/cdte/mass_nosoc_cb_e120/out/pwscf.save/ :
     XML data file, pseudopotentials, collected wavefunctions

     init_run     :      1.25s CPU      3.22s WALL (       1 calls)
     electrons    :    673.68s CPU   1354.83s WALL (       1 calls)

     Called by init_run:
     wfcinit      :      0.00s CPU      0.00s WALL (       1 calls)
     wfcinit:atom :      0.11s CPU      0.21s WALL (     123 calls)
     wfcinit:wfcr :     11.98s CPU     24.10s WALL (     123 calls)
     potinit      :      0.25s CPU      0.59s WALL (       1 calls)
     hinit0       :      0.55s CPU      1.13s WALL (       1 calls)

     Called by electrons:
     c_bands      :    673.67s CPU   1354.81s WALL (       1 calls)
     v_of_rho     :      0.10s CPU      0.25s WALL (       1 calls)
     v_h          :      0.01s CPU      0.02s WALL (       1 calls)
     v_xc         :      0.09s CPU      0.22s WALL (       1 calls)
     newd         :      0.33s CPU      1.25s WALL (       1 calls)

     Called by c_bands:
     init_us_2    :      0.19s CPU      0.39s WALL (     123 calls)
     cegterg      :    660.53s CPU   1328.04s WALL (     662 calls)

     Called by sum_band:

     Called by *egterg:
     cdiaghg      :     30.32s CPU     60.86s WALL (   12273 calls)
     cegterg:over :     73.16s CPU    154.77s WALL (   12150 calls)
     cegterg:upda :      8.04s CPU     14.83s WALL (   12150 calls)
     cegterg:last :     14.92s CPU     26.84s WALL (    5742 calls)
     h_psi        :    509.88s CPU   1022.51s WALL (   12935 calls)
     s_psi        :      6.22s CPU      8.41s WALL (   12935 calls)
     g_psi        :      2.50s CPU      3.73s WALL (   12150 calls)

     Called by h_psi:
     h_psi:calbec :     35.34s CPU     72.23s WALL (   12935 calls)
     vloc_psi     :    465.35s CPU    937.74s WALL (   12935 calls)
                                        0.00s GPU  (   12935 calls)
     add_vuspsi   :      8.08s CPU     11.08s WALL (   12935 calls)

     General routines
     calbec       :     35.26s CPU     72.16s WALL (   12935 calls)
     fft          :      0.13s CPU      0.27s WALL (      13 calls)
     ffts         :      0.14s CPU      0.28s WALL (       1 calls)
     fftw         :    443.22s CPU    908.91s WALL (  196290 calls)
     interpolate  :      0.14s CPU      0.30s WALL (       1 calls)
     davcio       :      0.04s CPU      0.37s WALL (     246 calls)

     Parallel routines

     PWSCF        :  11m15.74s CPU  22m40.40s WALL


   This run was terminated on:   2: 6:52  23Sep2026            

=------------------------------------------------------------------------------=
   JOB DONE.
=------------------------------------------------------------------------------=
