
     Program PWSCF v.7.5 starts on 22Sep2026 at 19: 0:49 

     This program is part of the open-source Quantum ESPRESSO suite
     for quantum simulation of materials; please cite
         "P. Giannozzi et al., J. Phys.:Condens. Matter 21 395502 (2009);
         "P. Giannozzi et al., J. Phys.:Condens. Matter 29 465901 (2017);
         "P. Giannozzi et al., J. Chem. Phys. 152 154105 (2020);
          URL http://www.quantum-espresso.org", 
     in publications or presentations arising from this work. More details at
     http://www.quantum-espresso.org/quote

     Parallel version (MPI & OpenMP), running on       6 processor cores
     Number of MPI processes:                 6
     Threads/MPI process:                     1

     MPI processes distributed on     1 nodes
     3165 MiB available memory on the printing compute node when the environment starts

     Reading input from pw.in

     Current dimensions of program PWSCF are:
     Max number of different atomic species (ntypx) = 10
     Max number of k-points (npk) =  40000
     Max angular momentum in pseudopotentials (lmaxx) =  4
     file Cd.pbe-n-rrkjus_psl.1.0.0.UPF: wavefunction(s)  4D renormalized
     file Te.pbe-n-rrkjus_psl.1.0.0.UPF: wavefunction(s)  5S renormalized
     Message from routine setup:
     using ibrav=0 with symmetry is DISCOURAGED, use correct ibrav instead

     R & G space division:  proc/nbgrp/npool/nimage =       6
     Subspace diagonalization in iterative solution of the eigenvalue problem:
     a serial algorithm will be used


     Parallelization info
     --------------------
     sticks:   dense  smooth     PW     G-vecs:    dense   smooth      PW
     Min         313     206     61                 8848     4801     773
     Max         314     207     62                 8849     4805     775
     Sum        1879    1237    367                53089    28811    4645

     Using Slab Decomposition



     bravais-lattice index     =            0
     lattice parameter (alat)  =       8.6615  a.u.
     unit-cell volume          =     459.4769 (a.u.)^3
     number of atoms/cell      =            2
     number of atomic types    =            2
     number of electrons       =        18.00
     number of Kohn-Sham states=            9
     kinetic-energy cutoff     =      60.0000  Ry
     charge density cutoff     =     360.0000  Ry
     scf convergence threshold =      1.0E-10
     mixing beta               =       0.3000
     number of iterations used =            8  plain     mixing
     Exchange-correlation= PBE
                           (   1   4   3   4   0   0   0)

     celldm(1)=   8.661496  celldm(2)=   0.000000  celldm(3)=   0.000000
     celldm(4)=   0.000000  celldm(5)=   0.000000  celldm(6)=   0.000000

     crystal axes: (cart. coord. in units of alat)
               a(1) = (   0.000000   0.707107   0.707107 )  
               a(2) = (   0.707107   0.000000   0.707107 )  
               a(3) = (   0.707107   0.707107   0.000000 )  

     reciprocal axes: (cart. coord. in units 2 pi/alat)
               b(1) = ( -0.707107  0.707107  0.707107 )  
               b(2) = (  0.707107 -0.707107  0.707107 )  
               b(3) = (  0.707107  0.707107 -0.707107 )  


     PseudoPot. # 1 for Cd read from file:
     /home/User/opencode_workspace/DFT/pseudopotentials/Cd.pbe-n-rrkjus_psl.1.0.0.UPF
     MD5 check sum: a744746c89d2344a134ead0d8ab94e7a
     Pseudo is Ultrasoft + core correction, Zval = 12.0
     Generated using &quot;atomic&quot; code by A. Dal Corso  v.6.3
     Using radial grid of 1239 points,  6 beta functions with: 
                l(1) =   0
                l(2) =   0
                l(3) =   1
                l(4) =   1
                l(5) =   2
                l(6) =   2
     Q(r) pseudized with 0 coefficients 


     PseudoPot. # 2 for Te read from file:
     /home/User/opencode_workspace/DFT/pseudopotentials/Te.pbe-n-rrkjus_psl.1.0.0.UPF
     MD5 check sum: 203a1e86ef55f0cd9de2762a27c58f54
     Pseudo is Ultrasoft + core correction, Zval =  6.0
     Generated using &quot;atomic&quot; code by A. Dal Corso  v.6.3
     Using radial grid of 1245 points,  6 beta functions with: 
                l(1) =   0
                l(2) =   0
                l(3) =   1
                l(4) =   1
                l(5) =   2
                l(6) =   2
     Q(r) pseudized with 0 coefficients 


     atomic species   valence    mass     pseudopotential
     Cd               12.00   112.41400     Cd( 1.00)
     Te                6.00   127.60000     Te( 1.00)

     24 Sym. Ops. (no inversion) found


                                    s                        frac. trans.

      isym =  1     identity                                     

 cryst.   s( 1) = (     1          0          0      )
                  (     0          1          0      )
                  (     0          0          1      )

 cart.    s( 1) = (  1.0000000  0.0000000  0.0000000 )
                  (  0.0000000  1.0000000  0.0000000 )
                  (  0.0000000  0.0000000  1.0000000 )


      isym =  2     180 deg rotation - cart. axis [0,0,1]        

 cryst.   s( 2) = (     0          1         -1      )
                  (     1          0         -1      )
                  (     0          0         -1      )

 cart.    s( 2) = ( -1.0000000  0.0000000  0.0000000 )
                  (  0.0000000 -1.0000000  0.0000000 )
                  (  0.0000000  0.0000000  1.0000000 )


      isym =  3     180 deg rotation - cart. axis [0,1,0]        

 cryst.   s( 3) = (     0         -1          1      )
                  (     0         -1          0      )
                  (     1         -1          0      )

 cart.    s( 3) = ( -1.0000000  0.0000000  0.0000000 )
                  (  0.0000000  1.0000000  0.0000000 )
                  (  0.0000000  0.0000000 -1.0000000 )


      isym =  4     180 deg rotation - cart. axis [1,0,0]        

 cryst.   s( 4) = (    -1          0          0      )
                  (    -1          0          1      )
                  (    -1          1          0      )

 cart.    s( 4) = (  1.0000000  0.0000000  0.0000000 )
                  (  0.0000000 -1.0000000  0.0000000 )
                  (  0.0000000  0.0000000 -1.0000000 )


      isym =  5     120 deg rotation - cart. axis [-1,-1,-1]     

 cryst.   s( 5) = (     0          0          1      )
                  (     1          0          0      )
                  (     0          1          0      )

 cart.    s( 5) = (  0.0000000  1.0000000  0.0000000 )
                  (  0.0000000  0.0000000  1.0000000 )
                  (  1.0000000  0.0000000  0.0000000 )


      isym =  6     120 deg rotation - cart. axis [-1,1,1]       

 cryst.   s( 6) = (     1         -1          0      )
                  (     0         -1          1      )
                  (     0         -1          0      )

 cart.    s( 6) = (  0.0000000 -1.0000000  0.0000000 )
                  (  0.0000000  0.0000000  1.0000000 )
                  ( -1.0000000  0.0000000  0.0000000 )


      isym =  7     120 deg rotation - cart. axis [1,1,-1]       

 cryst.   s( 7) = (    -1          1          0      )
                  (    -1          0          0      )
                  (    -1          0          1      )

 cart.    s( 7) = (  0.0000000  1.0000000  0.0000000 )
                  (  0.0000000  0.0000000 -1.0000000 )
                  ( -1.0000000  0.0000000  0.0000000 )


      isym =  8     120 deg rotation - cart. axis [1,-1,1]       

 cryst.   s( 8) = (     0          0         -1      )
                  (     0          1         -1      )
                  (     1          0         -1      )

 cart.    s( 8) = (  0.0000000 -1.0000000  0.0000000 )
                  (  0.0000000  0.0000000 -1.0000000 )
                  (  1.0000000  0.0000000  0.0000000 )


      isym =  9     120 deg rotation - cart. axis [1,1,1]        

 cryst.   s( 9) = (     0          1          0      )
                  (     0          0          1      )
                  (     1          0          0      )

 cart.    s( 9) = (  0.0000000  0.0000000  1.0000000 )
                  (  1.0000000  0.0000000  0.0000000 )
                  (  0.0000000  1.0000000  0.0000000 )


      isym = 10     120 deg rotation - cart. axis [-1,1,-1]      

 cryst.   s(10) = (    -1          0          1      )
                  (    -1          1          0      )
                  (    -1          0          0      )

 cart.    s(10) = (  0.0000000  0.0000000  1.0000000 )
                  ( -1.0000000  0.0000000  0.0000000 )
                  (  0.0000000 -1.0000000  0.0000000 )


      isym = 11     120 deg rotation - cart. axis [1,-1,-1]      

 cryst.   s(11) = (     1          0         -1      )
                  (     0          0         -1      )
                  (     0          1         -1      )

 cart.    s(11) = (  0.0000000  0.0000000 -1.0000000 )
                  ( -1.0000000  0.0000000  0.0000000 )
                  (  0.0000000  1.0000000  0.0000000 )


      isym = 12     120 deg rotation - cart. axis [-1,-1,1]      

 cryst.   s(12) = (     0         -1          0      )
                  (     1         -1          0      )
                  (     0         -1          1      )

 cart.    s(12) = (  0.0000000  0.0000000 -1.0000000 )
                  (  1.0000000  0.0000000  0.0000000 )
                  (  0.0000000 -1.0000000  0.0000000 )


      isym = 13     inv. 180 deg rotation - cart. axis [1,1,0]   

 cryst.   s(13) = (     1          0         -1      )
                  (     0          1         -1      )
                  (     0          0         -1      )

 cart.    s(13) = (  0.0000000 -1.0000000  0.0000000 )
                  ( -1.0000000  0.0000000  0.0000000 )
                  (  0.0000000  0.0000000  1.0000000 )


      isym = 14     inv. 180 deg rotation - cart. axis [1,-1,0]  

 cryst.   s(14) = (     0          1          0      )
                  (     1          0          0      )
                  (     0          0          1      )

 cart.    s(14) = (  0.0000000  1.0000000  0.0000000 )
                  (  1.0000000  0.0000000  0.0000000 )
                  (  0.0000000  0.0000000  1.0000000 )


      isym = 15     inv.  90 deg rotation - cart. axis [0,0,-1]  

 cryst.   s(15) = (     0         -1          0      )
                  (     0         -1          1      )
                  (     1         -1          0      )

 cart.    s(15) = (  0.0000000 -1.0000000  0.0000000 )
                  (  1.0000000  0.0000000  0.0000000 )
                  (  0.0000000  0.0000000 -1.0000000 )


      isym = 16     inv.  90 deg rotation - cart. axis [0,0,1]   

 cryst.   s(16) = (    -1          0          1      )
                  (    -1          0          0      )
                  (    -1          1          0      )

 cart.    s(16) = (  0.0000000  1.0000000  0.0000000 )
                  ( -1.0000000  0.0000000  0.0000000 )
                  (  0.0000000  0.0000000 -1.0000000 )


      isym = 17     inv. 180 deg rotation - cart. axis [1,0,1]   

 cryst.   s(17) = (     1         -1          0      )
                  (     0         -1          0      )
                  (     0         -1          1      )

 cart.    s(17) = (  0.0000000  0.0000000 -1.0000000 )
                  (  0.0000000  1.0000000  0.0000000 )
                  ( -1.0000000  0.0000000  0.0000000 )


      isym = 18     inv. 180 deg rotation - cart. axis [-1,0,1]  

 cryst.   s(18) = (     0          0          1      )
                  (     0          1          0      )
                  (     1          0          0      )

 cart.    s(18) = (  0.0000000  0.0000000  1.0000000 )
                  (  0.0000000  1.0000000  0.0000000 )
                  (  1.0000000  0.0000000  0.0000000 )


      isym = 19     inv.  90 deg rotation - cart. axis [0,1,0]   

 cryst.   s(19) = (     0          0         -1      )
                  (     1          0         -1      )
                  (     0          1         -1      )

 cart.    s(19) = (  0.0000000  0.0000000 -1.0000000 )
                  (  0.0000000 -1.0000000  0.0000000 )
                  (  1.0000000  0.0000000  0.0000000 )


      isym = 20     inv.  90 deg rotation - cart. axis [0,-1,0]  

 cryst.   s(20) = (    -1          1          0      )
                  (    -1          0          1      )
                  (    -1          0          0      )

 cart.    s(20) = (  0.0000000  0.0000000  1.0000000 )
                  (  0.0000000 -1.0000000  0.0000000 )
                  ( -1.0000000  0.0000000  0.0000000 )


      isym = 21     inv. 180 deg rotation - cart. axis [0,1,1]   

 cryst.   s(21) = (    -1          0          0      )
                  (    -1          1          0      )
                  (    -1          0          1      )

 cart.    s(21) = (  1.0000000  0.0000000  0.0000000 )
                  (  0.0000000  0.0000000 -1.0000000 )
                  (  0.0000000 -1.0000000  0.0000000 )


      isym = 22     inv. 180 deg rotation - cart. axis [0,1,-1]  

 cryst.   s(22) = (     1          0          0      )
                  (     0          0          1      )
                  (     0          1          0      )

 cart.    s(22) = (  1.0000000  0.0000000  0.0000000 )
                  (  0.0000000  0.0000000  1.0000000 )
                  (  0.0000000  1.0000000  0.0000000 )


      isym = 23     inv.  90 deg rotation - cart. axis [-1,0,0]  

 cryst.   s(23) = (     0          1         -1      )
                  (     0          0         -1      )
                  (     1          0         -1      )

 cart.    s(23) = ( -1.0000000  0.0000000  0.0000000 )
                  (  0.0000000  0.0000000 -1.0000000 )
                  (  0.0000000  1.0000000  0.0000000 )


      isym = 24     inv.  90 deg rotation - cart. axis [1,0,0]   

 cryst.   s(24) = (     0         -1          1      )
                  (     1         -1          0      )
                  (     0         -1          0      )

 cart.    s(24) = ( -1.0000000  0.0000000  0.0000000 )
                  (  0.0000000  0.0000000  1.0000000 )
                  (  0.0000000 -1.0000000  0.0000000 )


   Cartesian axes

     site n.     atom                  positions (alat units)
         1        Cd     tau(   1) = (   0.0000000   0.0000000   0.0000000  )
         2        Te     tau(   2) = (   0.3535534   0.3535534   0.3535534  )

   Crystallographic axes

     site n.     atom                  positions (cryst. coord.)
         1        Cd     tau(   1) = (  0.0000000  0.0000000  0.0000000  )
         2        Te     tau(   2) = (  0.2500000  0.2500000  0.2500000  )

     number of k points=    29
                       cart. coord. in units 2pi/alat
        k(    1) = (   0.0000000   0.0000000   0.0000000), wk =   0.0039062
        k(    2) = (   0.0883883   0.0883883  -0.0883883), wk =   0.0312500
        k(    3) = (   0.1767767   0.1767767  -0.1767767), wk =   0.0312500
        k(    4) = (   0.2651650   0.2651650  -0.2651650), wk =   0.0312500
        k(    5) = (  -0.3535534  -0.3535534   0.3535534), wk =   0.0156250
        k(    6) = (   0.1767767   0.0000000   0.0000000), wk =   0.0234375
        k(    7) = (   0.2651650   0.0883883  -0.0883883), wk =   0.0937500
        k(    8) = (   0.3535534   0.1767767  -0.1767767), wk =   0.0937500
        k(    9) = (  -0.2651650  -0.4419417   0.4419417), wk =   0.0937500
        k(   10) = (  -0.1767767  -0.3535534   0.3535534), wk =   0.0937500
        k(   11) = (  -0.0883883  -0.2651650   0.2651650), wk =   0.0937500
        k(   12) = (   0.0000000  -0.1767767   0.1767767), wk =   0.0468750
        k(   13) = (   0.3535534   0.0000000   0.0000000), wk =   0.0234375
        k(   14) = (   0.4419417   0.0883883  -0.0883883), wk =   0.0937500
        k(   15) = (  -0.1767767  -0.5303301   0.5303301), wk =   0.0937500
        k(   16) = (  -0.0883883  -0.4419417   0.4419417), wk =   0.0937500
        k(   17) = (   0.0000000  -0.3535534   0.3535534), wk =   0.0468750
        k(   18) = (   0.5303301   0.0000000   0.0000000), wk =   0.0234375
        k(   19) = (  -0.0883883  -0.6187184   0.6187184), wk =   0.0937500
        k(   20) = (   0.0000000  -0.5303301   0.5303301), wk =   0.0468750
        k(   21) = (  -0.7071068   0.0000000   0.0000000), wk =   0.0117188
        k(   22) = (   0.3535534   0.1767767   0.0000000), wk =   0.0937500
        k(   23) = (  -0.2651650  -0.4419417   0.6187184), wk =   0.1875000
        k(   24) = (  -0.1767767  -0.3535534   0.5303301), wk =   0.0937500
        k(   25) = (  -0.1767767  -0.5303301   0.7071068), wk =   0.0937500
        k(   26) = (  -0.0883883  -0.4419417   0.6187184), wk =   0.1875000
        k(   27) = (   0.0000000  -0.3535534   0.5303301), wk =   0.0937500
        k(   28) = (  -0.7071068   0.1767767   0.0000000), wk =   0.0468750
        k(   29) = (  -0.7071068   0.3535534   0.0000000), wk =   0.0234375

                       cryst. coord.
        k(    1) = (   0.0000000   0.0000000   0.0000000), wk =   0.0039062
        k(    2) = (   0.0000000   0.0000000   0.1250000), wk =   0.0312500
        k(    3) = (   0.0000000   0.0000000   0.2500000), wk =   0.0312500
        k(    4) = (   0.0000000   0.0000000   0.3750000), wk =   0.0312500
        k(    5) = (   0.0000000   0.0000000  -0.5000000), wk =   0.0156250
        k(    6) = (   0.0000000   0.1250000   0.1250000), wk =   0.0234375
        k(    7) = (   0.0000000   0.1250000   0.2500000), wk =   0.0937500
        k(    8) = (   0.0000000   0.1250000   0.3750000), wk =   0.0937500
        k(    9) = (   0.0000000   0.1250000  -0.5000000), wk =   0.0937500
        k(   10) = (   0.0000000   0.1250000  -0.3750000), wk =   0.0937500
        k(   11) = (   0.0000000   0.1250000  -0.2500000), wk =   0.0937500
        k(   12) = (   0.0000000   0.1250000  -0.1250000), wk =   0.0468750
        k(   13) = (   0.0000000   0.2500000   0.2500000), wk =   0.0234375
        k(   14) = (   0.0000000   0.2500000   0.3750000), wk =   0.0937500
        k(   15) = (   0.0000000   0.2500000  -0.5000000), wk =   0.0937500
        k(   16) = (   0.0000000   0.2500000  -0.3750000), wk =   0.0937500
        k(   17) = (   0.0000000   0.2500000  -0.2500000), wk =   0.0468750
        k(   18) = (   0.0000000   0.3750000   0.3750000), wk =   0.0234375
        k(   19) = (   0.0000000   0.3750000  -0.5000000), wk =   0.0937500
        k(   20) = (   0.0000000   0.3750000  -0.3750000), wk =   0.0468750
        k(   21) = (   0.0000000  -0.5000000  -0.5000000), wk =   0.0117188
        k(   22) = (   0.1250000   0.2500000   0.3750000), wk =   0.0937500
        k(   23) = (   0.1250000   0.2500000  -0.5000000), wk =   0.1875000
        k(   24) = (   0.1250000   0.2500000  -0.3750000), wk =   0.0937500
        k(   25) = (   0.1250000   0.3750000  -0.5000000), wk =   0.0937500
        k(   26) = (   0.1250000   0.3750000  -0.3750000), wk =   0.1875000
        k(   27) = (   0.1250000   0.3750000  -0.2500000), wk =   0.0937500
        k(   28) = (   0.1250000  -0.5000000  -0.3750000), wk =   0.0468750
        k(   29) = (   0.2500000  -0.5000000  -0.2500000), wk =   0.0234375

     Dense  grid:    53089 G-vectors     FFT dimensions: (  54,  54,  54)

     Smooth grid:    28811 G-vectors     FFT dimensions: (  45,  45,  45)

     Dynamical RAM for                 wfc:       0.08 MB

     Dynamical RAM for     wfc (w. buffer):       2.48 MB

     Dynamical RAM for           str. fact:       0.27 MB

     Dynamical RAM for           local pot:       0.00 MB

     Dynamical RAM for          nlocal pot:       0.33 MB

     Dynamical RAM for                qrad:       3.05 MB

     Dynamical RAM for          rho,v,vnew:       1.01 MB

     Dynamical RAM for               rhoin:       0.34 MB

     Dynamical RAM for            rho*nmix:       2.16 MB

     Dynamical RAM for           G-vectors:       0.54 MB

     Dynamical RAM for          h,s,v(r/c):       0.01 MB

     Dynamical RAM for          <psi|beta>:       0.00 MB

     Dynamical RAM for                 psi:       0.17 MB

     Dynamical RAM for                hpsi:       0.17 MB

     Dynamical RAM for                spsi:       0.17 MB

     Dynamical RAM for      wfcinit/wfcrot:       0.17 MB

     Dynamical RAM for           addusdens:      25.25 MB

     Estimated static dynamical RAM per process >       9.41 MB

     Estimated max dynamical RAM per process >      36.82 MB

     Estimated total dynamical RAM >     220.91 MB

     Initial potential from superposition of free atoms

     starting charge      17.9949, renormalised to      18.0000
     Starting wfcs are   13 randomized atomic wfcs

     total cpu time spent up to now is        1.0 secs

     per-process dynamical memory:    42.8 Mb

     Self-consistent Calculation

     iteration #  1     ecut=    60.00 Ry     beta= 0.30
     Davidson diagonalization with overlap

---- Real-time Memory Report at c_bands before calling an iterative solver
            85 MiB given to the printing process from OS
            41 MiB allocation reported by mallinfo(arena+hblkhd)
          2946 MiB available memory on the node where the printing process lives
------------------
     ethr =  1.00E-02,  avg # of iterations =  1.1

     Threshold (ethr) on eigenvalues was too large:
     Diagonalizing with lowered threshold

     Davidson diagonalization with overlap

---- Real-time Memory Report at c_bands before calling an iterative solver
            87 MiB given to the printing process from OS
            44 MiB allocation reported by mallinfo(arena+hblkhd)
          2945 MiB available memory on the node where the printing process lives
------------------
     ethr =  2.06E-04,  avg # of iterations =  5.0

     total cpu time spent up to now is        2.2 secs

     total energy              =    -128.97459261 Ry
     estimated scf accuracy    <       0.04145444 Ry

     iteration #  2     ecut=    60.00 Ry     beta= 0.30
     Davidson diagonalization with overlap

---- Real-time Memory Report at c_bands before calling an iterative solver
            88 MiB given to the printing process from OS
            45 MiB allocation reported by mallinfo(arena+hblkhd)
          2943 MiB available memory on the node where the printing process lives
------------------
     ethr =  2.30E-04,  avg # of iterations =  1.9

     total cpu time spent up to now is        2.7 secs

     total energy              =    -128.97289736 Ry
     estimated scf accuracy    <       0.01248790 Ry

     iteration #  3     ecut=    60.00 Ry     beta= 0.30
     Davidson diagonalization with overlap

---- Real-time Memory Report at c_bands before calling an iterative solver
            89 MiB given to the printing process from OS
            45 MiB allocation reported by mallinfo(arena+hblkhd)
          2943 MiB available memory on the node where the printing process lives
------------------
     ethr =  6.94E-05,  avg # of iterations =  2.2

     total cpu time spent up to now is        3.4 secs

     total energy              =    -128.97627643 Ry
     estimated scf accuracy    <       0.00133309 Ry

     iteration #  4     ecut=    60.00 Ry     beta= 0.30
     Davidson diagonalization with overlap

---- Real-time Memory Report at c_bands before calling an iterative solver
            89 MiB given to the printing process from OS
            45 MiB allocation reported by mallinfo(arena+hblkhd)
          2943 MiB available memory on the node where the printing process lives
------------------
     ethr =  7.41E-06,  avg # of iterations =  4.6

     total cpu time spent up to now is        4.1 secs

     total energy              =    -128.97697296 Ry
     estimated scf accuracy    <       0.00020200 Ry

     iteration #  5     ecut=    60.00 Ry     beta= 0.30
     Davidson diagonalization with overlap

---- Real-time Memory Report at c_bands before calling an iterative solver
            89 MiB given to the printing process from OS
            45 MiB allocation reported by mallinfo(arena+hblkhd)
          2941 MiB available memory on the node where the printing process lives
------------------
     ethr =  1.12E-06,  avg # of iterations =  4.8

     total cpu time spent up to now is        4.9 secs

     total energy              =    -128.97707177 Ry
     estimated scf accuracy    <       0.00006105 Ry

     iteration #  6     ecut=    60.00 Ry     beta= 0.30
     Davidson diagonalization with overlap

---- Real-time Memory Report at c_bands before calling an iterative solver
            89 MiB given to the printing process from OS
            45 MiB allocation reported by mallinfo(arena+hblkhd)
          2940 MiB available memory on the node where the printing process lives
------------------
     ethr =  3.39E-07,  avg # of iterations =  5.3

     total cpu time spent up to now is        5.6 secs

     total energy              =    -128.97710182 Ry
     estimated scf accuracy    <       0.00003219 Ry

     iteration #  7     ecut=    60.00 Ry     beta= 0.30
     Davidson diagonalization with overlap

---- Real-time Memory Report at c_bands before calling an iterative solver
            89 MiB given to the printing process from OS
            46 MiB allocation reported by mallinfo(arena+hblkhd)
          2940 MiB available memory on the node where the printing process lives
------------------
     ethr =  1.79E-07,  avg # of iterations =  1.7

     total cpu time spent up to now is        6.2 secs

     total energy              =    -128.97712276 Ry
     estimated scf accuracy    <       0.00003047 Ry

     iteration #  8     ecut=    60.00 Ry     beta= 0.30
     Davidson diagonalization with overlap

---- Real-time Memory Report at c_bands before calling an iterative solver
            89 MiB given to the printing process from OS
            46 MiB allocation reported by mallinfo(arena+hblkhd)
          2940 MiB available memory on the node where the printing process lives
------------------
     ethr =  1.69E-07,  avg # of iterations =  2.4

     total cpu time spent up to now is        6.8 secs

     total energy              =    -128.97707051 Ry
     estimated scf accuracy    <       0.00007992 Ry

     iteration #  9     ecut=    60.00 Ry     beta= 0.30
     Davidson diagonalization with overlap

---- Real-time Memory Report at c_bands before calling an iterative solver
            90 MiB given to the printing process from OS
            46 MiB allocation reported by mallinfo(arena+hblkhd)
          2940 MiB available memory on the node where the printing process lives
------------------
     ethr =  1.69E-07,  avg # of iterations =  5.7

     total cpu time spent up to now is        7.6 secs

     total energy              =    -128.97709799 Ry
     estimated scf accuracy    <       0.00000698 Ry

     iteration # 10     ecut=    60.00 Ry     beta= 0.30
     Davidson diagonalization with overlap

---- Real-time Memory Report at c_bands before calling an iterative solver
            90 MiB given to the printing process from OS
            46 MiB allocation reported by mallinfo(arena+hblkhd)
          2939 MiB available memory on the node where the printing process lives
------------------
     ethr =  3.88E-08,  avg # of iterations =  4.1

     total cpu time spent up to now is        8.3 secs

     total energy              =    -128.97712490 Ry
     estimated scf accuracy    <       0.00002088 Ry

     iteration # 11     ecut=    60.00 Ry     beta= 0.30
     Davidson diagonalization with overlap

---- Real-time Memory Report at c_bands before calling an iterative solver
            90 MiB given to the printing process from OS
            46 MiB allocation reported by mallinfo(arena+hblkhd)
          2939 MiB available memory on the node where the printing process lives
------------------
     ethr =  3.88E-08,  avg # of iterations =  7.1

     total cpu time spent up to now is        9.5 secs

     total energy              =    -128.97708083 Ry
     estimated scf accuracy    <       0.00010632 Ry

     iteration # 12     ecut=    60.00 Ry     beta= 0.30
     Davidson diagonalization with overlap

---- Real-time Memory Report at c_bands before calling an iterative solver
            90 MiB given to the printing process from OS
            46 MiB allocation reported by mallinfo(arena+hblkhd)
          2939 MiB available memory on the node where the printing process lives
------------------
     ethr =  3.88E-08,  avg # of iterations =  8.7

     total cpu time spent up to now is       10.5 secs

     total energy              =    -128.97709491 Ry
     estimated scf accuracy    <       0.00000638 Ry

     iteration # 13     ecut=    60.00 Ry     beta= 0.30
     Davidson diagonalization with overlap

---- Real-time Memory Report at c_bands before calling an iterative solver
            90 MiB given to the printing process from OS
            46 MiB allocation reported by mallinfo(arena+hblkhd)
          2939 MiB available memory on the node where the printing process lives
------------------
     ethr =  3.54E-08,  avg # of iterations =  1.1

     total cpu time spent up to now is       11.3 secs

     total energy              =    -128.97709444 Ry
     estimated scf accuracy    <       0.00000518 Ry

     iteration # 14     ecut=    60.00 Ry     beta= 0.30
     Davidson diagonalization with overlap

---- Real-time Memory Report at c_bands before calling an iterative solver
            90 MiB given to the printing process from OS
            46 MiB allocation reported by mallinfo(arena+hblkhd)
          2939 MiB available memory on the node where the printing process lives
------------------
     ethr =  2.88E-08,  avg # of iterations =  1.0

     total cpu time spent up to now is       12.1 secs

     total energy              =    -128.97709221 Ry
     estimated scf accuracy    <       0.00000391 Ry

     iteration # 15     ecut=    60.00 Ry     beta= 0.30
     Davidson diagonalization with overlap

---- Real-time Memory Report at c_bands before calling an iterative solver
            90 MiB given to the printing process from OS
            46 MiB allocation reported by mallinfo(arena+hblkhd)
          2939 MiB available memory on the node where the printing process lives
------------------
     ethr =  2.17E-08,  avg # of iterations =  2.7

     total cpu time spent up to now is       13.0 secs

     total energy              =    -128.97709336 Ry
     estimated scf accuracy    <       0.00000014 Ry

     iteration # 16     ecut=    60.00 Ry     beta= 0.30
     Davidson diagonalization with overlap

---- Real-time Memory Report at c_bands before calling an iterative solver
            90 MiB given to the printing process from OS
            46 MiB allocation reported by mallinfo(arena+hblkhd)
          2939 MiB available memory on the node where the printing process lives
------------------
     ethr =  7.95E-10,  avg # of iterations =  6.9

     total cpu time spent up to now is       13.9 secs

     total energy              =    -128.97709355 Ry
     estimated scf accuracy    <       0.00000006 Ry

     iteration # 17     ecut=    60.00 Ry     beta= 0.30
     Davidson diagonalization with overlap

---- Real-time Memory Report at c_bands before calling an iterative solver
            90 MiB given to the printing process from OS
            46 MiB allocation reported by mallinfo(arena+hblkhd)
          2939 MiB available memory on the node where the printing process lives
------------------
     ethr =  3.35E-10,  avg # of iterations =  1.9

     total cpu time spent up to now is       14.4 secs

     total energy              =    -128.97709355 Ry
     estimated scf accuracy    <       0.00000006 Ry

     iteration # 18     ecut=    60.00 Ry     beta= 0.30
     Davidson diagonalization with overlap

---- Real-time Memory Report at c_bands before calling an iterative solver
            90 MiB given to the printing process from OS
            46 MiB allocation reported by mallinfo(arena+hblkhd)
          2939 MiB available memory on the node where the printing process lives
------------------
     ethr =  3.06E-10,  avg # of iterations =  2.1

     total cpu time spent up to now is       15.0 secs

     total energy              =    -128.97709356 Ry
     estimated scf accuracy    <       0.00000007 Ry

     iteration # 19     ecut=    60.00 Ry     beta= 0.30
     Davidson diagonalization with overlap

---- Real-time Memory Report at c_bands before calling an iterative solver
            90 MiB given to the printing process from OS
            46 MiB allocation reported by mallinfo(arena+hblkhd)
          2939 MiB available memory on the node where the printing process lives
------------------
     ethr =  3.06E-10,  avg # of iterations =  1.0

     total cpu time spent up to now is       15.5 secs

     total energy              =    -128.97709357 Ry
     estimated scf accuracy    <       0.00000007 Ry

     iteration # 20     ecut=    60.00 Ry     beta= 0.30
     Davidson diagonalization with overlap

---- Real-time Memory Report at c_bands before calling an iterative solver
            90 MiB given to the printing process from OS
            46 MiB allocation reported by mallinfo(arena+hblkhd)
          2939 MiB available memory on the node where the printing process lives
------------------
     ethr =  3.06E-10,  avg # of iterations =  3.0

     total cpu time spent up to now is       16.4 secs

     total energy              =    -128.97709360 Ry
     estimated scf accuracy    <       0.00000011 Ry

     iteration # 21     ecut=    60.00 Ry     beta= 0.30
     Davidson diagonalization with overlap

---- Real-time Memory Report at c_bands before calling an iterative solver
            90 MiB given to the printing process from OS
            46 MiB allocation reported by mallinfo(arena+hblkhd)
          2939 MiB available memory on the node where the printing process lives
------------------
     ethr =  3.06E-10,  avg # of iterations =  1.7

     total cpu time spent up to now is       16.9 secs

     total energy              =    -128.97709360 Ry
     estimated scf accuracy    <       0.00000013 Ry

     iteration # 22     ecut=    60.00 Ry     beta= 0.30
     Davidson diagonalization with overlap

---- Real-time Memory Report at c_bands before calling an iterative solver
            90 MiB given to the printing process from OS
            46 MiB allocation reported by mallinfo(arena+hblkhd)
          2939 MiB available memory on the node where the printing process lives
------------------
     ethr =  3.06E-10,  avg # of iterations =  1.4

     total cpu time spent up to now is       17.3 secs

     total energy              =    -128.97709356 Ry
     estimated scf accuracy    <       0.00000016 Ry

     iteration # 23     ecut=    60.00 Ry     beta= 0.30
     Davidson diagonalization with overlap

---- Real-time Memory Report at c_bands before calling an iterative solver
            90 MiB given to the printing process from OS
            46 MiB allocation reported by mallinfo(arena+hblkhd)
          2939 MiB available memory on the node where the printing process lives
------------------
     ethr =  3.06E-10,  avg # of iterations =  1.0

     total cpu time spent up to now is       17.8 secs

     total energy              =    -128.97709352 Ry
     estimated scf accuracy    <       0.00000009 Ry

     iteration # 24     ecut=    60.00 Ry     beta= 0.30
     Davidson diagonalization with overlap

---- Real-time Memory Report at c_bands before calling an iterative solver
            90 MiB given to the printing process from OS
            46 MiB allocation reported by mallinfo(arena+hblkhd)
          2939 MiB available memory on the node where the printing process lives
------------------
     ethr =  3.06E-10,  avg # of iterations =  3.0

     total cpu time spent up to now is       18.4 secs

     total energy              =    -128.97709354 Ry
     estimated scf accuracy    <          7.0E-09 Ry

     iteration # 25     ecut=    60.00 Ry     beta= 0.30
     Davidson diagonalization with overlap

---- Real-time Memory Report at c_bands before calling an iterative solver
            90 MiB given to the printing process from OS
            46 MiB allocation reported by mallinfo(arena+hblkhd)
          2939 MiB available memory on the node where the printing process lives
------------------
     c_bands:  1 eigenvalues not converged
     ethr =  3.90E-11,  avg # of iterations =  7.6

     total cpu time spent up to now is       19.3 secs

     total energy              =    -128.97709354 Ry
     estimated scf accuracy    <       0.00000002 Ry

     iteration # 26     ecut=    60.00 Ry     beta= 0.30
     Davidson diagonalization with overlap

---- Real-time Memory Report at c_bands before calling an iterative solver
            90 MiB given to the printing process from OS
            46 MiB allocation reported by mallinfo(arena+hblkhd)
          2939 MiB available memory on the node where the printing process lives
------------------
     ethr =  3.90E-11,  avg # of iterations =  3.0

     total cpu time spent up to now is       19.9 secs

     total energy              =    -128.97709354 Ry
     estimated scf accuracy    <          3.5E-09 Ry

     iteration # 27     ecut=    60.00 Ry     beta= 0.30
     Davidson diagonalization with overlap

---- Real-time Memory Report at c_bands before calling an iterative solver
            90 MiB given to the printing process from OS
            46 MiB allocation reported by mallinfo(arena+hblkhd)
          2939 MiB available memory on the node where the printing process lives
------------------
     ethr =  1.97E-11,  avg # of iterations =  7.2

     total cpu time spent up to now is       20.7 secs

     total energy              =    -128.97709354 Ry
     estimated scf accuracy    <          3.3E-09 Ry

     iteration # 28     ecut=    60.00 Ry     beta= 0.30
     Davidson diagonalization with overlap

---- Real-time Memory Report at c_bands before calling an iterative solver
            90 MiB given to the printing process from OS
            46 MiB allocation reported by mallinfo(arena+hblkhd)
          2939 MiB available memory on the node where the printing process lives
------------------
     ethr =  1.84E-11,  avg # of iterations =  1.1

     total cpu time spent up to now is       21.3 secs

     total energy              =    -128.97709354 Ry
     estimated scf accuracy    <          1.7E-09 Ry

     iteration # 29     ecut=    60.00 Ry     beta= 0.30
     Davidson diagonalization with overlap

---- Real-time Memory Report at c_bands before calling an iterative solver
            90 MiB given to the printing process from OS
            46 MiB allocation reported by mallinfo(arena+hblkhd)
          2939 MiB available memory on the node where the printing process lives
------------------
     ethr =  9.48E-12,  avg # of iterations =  4.8

     total cpu time spent up to now is       22.0 secs

     End of self-consistent calculation

          k = 0.0000 0.0000 0.0000 (  3695 PWs)   bands (ev):

    -6.0526  -3.1525  -3.1525  -3.1525  -2.8895  -2.8895   5.1245   5.1245
     5.1245

     occupation numbers 
     1.0000   1.0000   1.0000   1.0000   1.0000   1.0000   1.0000   1.0000
     1.0000

          k = 0.0884 0.0884-0.0884 (  3617 PWs)   bands (ev):

    -5.9942  -3.1413  -3.1413  -3.1069  -2.8903  -2.8903   3.8999   4.9867
     4.9867

     occupation numbers 
     1.0000   1.0000   1.0000   1.0000   1.0000   1.0000   1.0000   1.0000
     1.0000

          k = 0.1768 0.1768-0.1768 (  3602 PWs)   bands (ev):

    -5.8527  -3.1166  -3.1166  -2.9538  -2.8895  -2.8895   2.3965   4.6953
     4.6953

     occupation numbers 
     1.0000   1.0000   1.0000   1.0000   1.0000   1.0000   1.0000   1.0000
     1.0000

          k = 0.2652 0.2652-0.2652 (  3615 PWs)   bands (ev):

    -5.7124  -3.0959  -3.0959  -2.8839  -2.8839  -2.7004   1.1957   4.4442
     4.4442

     occupation numbers 
     1.0000   1.0000   1.0000   1.0000   1.0000   1.0000   1.0000   1.0000
     1.0000

          k =-0.3536-0.3536 0.3536 (  3600 PWs)   bands (ev):

    -5.6554  -3.0888  -3.0888  -2.8798  -2.8798  -2.5405   0.6972   4.3488
     4.3488

     occupation numbers 
     1.0000   1.0000   1.0000   1.0000   1.0000   1.0000   1.0000   1.0000
     1.0000

          k = 0.1768 0.0000 0.0000 (  3615 PWs)   bands (ev):

    -5.9749  -3.1306  -3.1306  -3.1063  -2.8959  -2.8847   3.8714   4.7488
     4.7488

     occupation numbers 
     1.0000   1.0000   1.0000   1.0000   1.0000   1.0000   1.0000   1.0000
     1.0000

          k = 0.2652 0.0884-0.0884 (  3613 PWs)   bands (ev):

    -5.8614  -3.1122  -3.1046  -2.9998  -2.8923  -2.8806   2.7466   4.4159
     4.4465

     occupation numbers 
     1.0000   1.0000   1.0000   1.0000   1.0000   1.0000   1.0000   1.0000
     1.0000

          k = 0.3536 0.1768-0.1768 (  3596 PWs)   bands (ev):

    -5.7215  -3.0925  -3.0816  -2.9126  -2.8768  -2.7447   1.5486   4.0617
     4.1855

     occupation numbers 
     1.0000   1.0000   1.0000   1.0000   1.0000   1.0000   1.0000   1.0000
     1.0000

          k =-0.2652-0.4419 0.4419 (  3608 PWs)   bands (ev):

    -5.6381  -3.0810  -3.0734  -2.8947  -2.8780  -2.5267   0.8260   3.7594
     4.1548

     occupation numbers 
     1.0000   1.0000   1.0000   1.0000   1.0000   1.0000   1.0000   1.0000
     1.0000

          k =-0.1768-0.3536 0.3536 (  3609 PWs)   bands (ev):

    -5.6568  -3.0809  -3.0804  -2.8880  -2.8869  -2.5806   0.9893   3.6656
     4.3328

     occupation numbers 
     1.0000   1.0000   1.0000   1.0000   1.0000   1.0000   1.0000   1.0000
     1.0000

          k =-0.0884-0.2652 0.2652 (  3613 PWs)   bands (ev):

    -5.7677  -3.1026  -3.0920  -2.8999  -2.8970  -2.8193   1.9160   3.8432
     4.6473

     occupation numbers 
     1.0000   1.0000   1.0000   1.0000   1.0000   1.0000   1.0000   1.0000
     1.0000

          k = 0.0000-0.1768 0.1768 (  3601 PWs)   bands (ev):

    -5.9082  -3.1288  -3.1163  -3.0323  -2.8964  -2.8834   3.0793   4.3466
     4.9363

     occupation numbers 
     1.0000   1.0000   1.0000   1.0000   1.0000   1.0000   1.0000   1.0000
     1.0000

          k = 0.3536 0.0000 0.0000 (  3591 PWs)   bands (ev):

    -5.7880  -3.0748  -3.0748  -2.9919  -2.8732  -2.8625   2.4563   4.0367
     4.0367

     occupation numbers 
     1.0000   1.0000   1.0000   1.0000   1.0000   1.0000   1.0000   1.0000
     1.0000

          k = 0.4419 0.0884-0.0884 (  3593 PWs)   bands (ev):

    -5.6772  -3.0573  -3.0472  -2.9572  -2.8687  -2.7107   1.6792   3.5798
     3.7773

     occupation numbers 
     1.0000   1.0000   1.0000   1.0000   1.0000   1.0000   1.0000   1.0000
     1.0000

          k =-0.1768-0.5303 0.5303 (  3595 PWs)   bands (ev):

    -5.5958  -3.0550  -3.0365  -2.9303  -2.8722  -2.4866   1.0446   3.0440
     3.7457

     occupation numbers 
     1.0000   1.0000   1.0000   1.0000   1.0000   1.0000   1.0000   1.0000
     1.0000

          k =-0.0884-0.4419 0.4419 (  3601 PWs)   bands (ev):

    -5.5884  -3.0593  -3.0456  -2.9068  -2.8855  -2.4360   0.9665   2.7561
     3.9532

     occupation numbers 
     1.0000   1.0000   1.0000   1.0000   1.0000   1.0000   1.0000   1.0000
     1.0000

          k = 0.0000-0.3536 0.3536 (  3599 PWs)   bands (ev):

    -5.6582  -3.0721  -3.0701  -2.8969  -2.8963  -2.6179   1.4106   2.9760
     4.3172

     occupation numbers 
     1.0000   1.0000   1.0000   1.0000   1.0000   1.0000   1.0000   1.0000
     1.0000

          k = 0.5303 0.0000 0.0000 (  3599 PWs)   bands (ev):

    -5.6064  -3.0145  -3.0145  -2.9848  -2.8617  -2.5962   1.3115   3.4688
     3.4688

     occupation numbers 
     1.0000   1.0000   1.0000   1.0000   1.0000   1.0000   1.0000   1.0000
     1.0000

          k =-0.0884-0.6187 0.6187 (  3599 PWs)   bands (ev):

    -5.5526  -3.0187  -3.0014  -2.9663  -2.8626  -2.4319   0.9548   3.0414
     3.3931

     occupation numbers 
     1.0000   1.0000   1.0000   1.0000   1.0000   1.0000   1.0000   1.0000
     1.0000

          k = 0.0000-0.5303 0.5303 (  3580 PWs)   bands (ev):

    -5.5458  -3.0377  -3.0130  -2.9360  -2.8744  -2.3571   0.9149   2.5668
     3.5783

     occupation numbers 
     1.0000   1.0000   1.0000   1.0000   1.0000   1.0000   1.0000   1.0000
     1.0000

          k =-0.7071 0.0000 0.0000 (  3572 PWs)   bands (ev):

    -5.5344  -2.9941  -2.9880  -2.9880  -2.8569  -2.4027   0.8154   3.2587
     3.2587

     occupation numbers 
     1.0000   1.0000   1.0000   1.0000   1.0000   1.0000   1.0000   1.0000
     1.0000

          k = 0.3536 0.1768 0.0000 (  3610 PWs)   bands (ev):

    -5.7492  -3.0883  -3.0763  -2.9380  -2.8792  -2.8063   2.0366   3.6333
     4.3053

     occupation numbers 
     1.0000   1.0000   1.0000   1.0000   1.0000   1.0000   1.0000   1.0000
     1.0000

          k =-0.2652-0.4419 0.6187 (  3604 PWs)   bands (ev):

    -5.6397  -3.0685  -3.0583  -2.9170  -2.8787  -2.5827   1.2528   3.1783
     4.0044

     occupation numbers 
     1.0000   1.0000   1.0000   1.0000   1.0000   1.0000   1.0000   1.0000
     1.0000

          k =-0.1768-0.3536 0.5303 (  3616 PWs)   bands (ev):

    -5.5955  -3.0633  -3.0509  -2.9048  -2.8830  -2.4454   0.8856   3.0569
     3.8565

     occupation numbers 
     1.0000   1.0000   1.0000   1.0000   1.0000   1.0000   1.0000   1.0000
     1.0000

          k =-0.1768-0.5303 0.7071 (  3603 PWs)   bands (ev):

    -5.5961  -3.0357  -3.0306  -2.9497  -2.8687  -2.5276   1.2163   3.1253
     3.4932

     occupation numbers 
     1.0000   1.0000   1.0000   1.0000   1.0000   1.0000   1.0000   1.0000
     1.0000

          k =-0.0884-0.4419 0.6187 (  3603 PWs)   bands (ev):

    -5.5533  -3.0383  -3.0235  -2.9276  -2.8790  -2.3732   0.9567   2.7159
     3.3744

     occupation numbers 
     1.0000   1.0000   1.0000   1.0000   1.0000   1.0000   1.0000   1.0000
     1.0000

          k = 0.0000-0.3536 0.5303 (  3604 PWs)   bands (ev):

    -5.5710  -3.0484  -3.0353  -2.9139  -2.8865  -2.4081   1.0338   2.6276
     3.6198

     occupation numbers 
     1.0000   1.0000   1.0000   1.0000   1.0000   1.0000   1.0000   1.0000
     1.0000

          k =-0.7071 0.1768 0.0000 (  3596 PWs)   bands (ev):

    -5.5353  -3.0152  -3.0096  -2.9517  -2.8675  -2.3605   0.8719   3.0218
     3.0818

     occupation numbers 
     1.0000   1.0000   1.0000   1.0000   1.0000   1.0000   1.0000   1.0000
     1.0000

          k =-0.7071 0.3536 0.0000 (  3636 PWs)   bands (ev):

    -5.5361  -3.0290  -3.0226  -2.9193  -2.8878  -2.3202   0.9371   2.7993
     2.9238

     occupation numbers 
     1.0000   1.0000   1.0000   1.0000   1.0000   1.0000   1.0000   1.0000
     1.0000

     highest occupied level (ev):     5.1245

!    total energy              =    -128.97709354 Ry
     estimated scf accuracy    <          9.5E-11 Ry

     The total energy is the sum of the following terms:
     one-electron contribution =     -48.73627385 Ry
     hartree contribution      =      36.06121765 Ry
     xc contribution           =     -39.50081041 Ry
     ewald contribution        =     -76.80122694 Ry

     convergence has been achieved in  29 iterations

     Writing all to output data dir /home/User/opencode_workspace/DFT/calculations/cdte/conv_scf_e60/out/pwscf.save/ :
     XML data file, charge density, pseudopotentials, collected wavefunctions

     init_run     :      0.63s CPU      0.70s WALL (       1 calls)
     electrons    :     19.04s CPU     21.08s WALL (       1 calls)

     Called by init_run:
     wfcinit      :      0.18s CPU      0.21s WALL (       1 calls)
     wfcinit:atom :      0.00s CPU      0.00s WALL (      29 calls)
     wfcinit:wfcr :      0.17s CPU      0.20s WALL (      29 calls)
     potinit      :      0.09s CPU      0.09s WALL (       1 calls)
     hinit0       :      0.25s CPU      0.26s WALL (       1 calls)

     Called by electrons:
     c_bands      :     13.52s CPU     15.25s WALL (      30 calls)
     sum_band     :      3.74s CPU      4.02s WALL (      30 calls)
     v_of_rho     :      0.32s CPU      0.34s WALL (      30 calls)
     v_h          :      0.02s CPU      0.02s WALL (      30 calls)
     v_xc         :      0.30s CPU      0.32s WALL (      30 calls)
     newd         :      1.43s CPU      1.47s WALL (      30 calls)
     mix_rho      :      0.05s CPU      0.06s WALL (      30 calls)

     Called by c_bands:
     init_us_2    :      0.28s CPU      0.31s WALL (    1769 calls)
     cegterg      :     12.91s CPU     14.58s WALL (     870 calls)

     Called by sum_band:
     sum_band:wei :      0.00s CPU      0.00s WALL (      30 calls)
     sum_band:loo :      2.02s CPU      2.28s WALL (      30 calls)
     sum_band:buf :      0.01s CPU      0.01s WALL (     870 calls)
     sum_band:ini :      0.14s CPU      0.15s WALL (     870 calls)
     sum_band:cal :      0.16s CPU      0.18s WALL (     870 calls)
     sum_band:bec :      0.01s CPU      0.01s WALL (     870 calls)
     addusdens    :      1.32s CPU      1.33s WALL (      30 calls)
                                        0.00s GPU  (      30 calls)
     addusd:skk   :      0.00s CPU      0.00s WALL (      60 calls)
                                        0.00s GPU  (      60 calls)

     Called by *egterg:
     cdiaghg      :      0.35s CPU      0.38s WALL (    3888 calls)
     cegterg:over :      0.34s CPU      0.38s WALL (    3047 calls)
     cegterg:upda :      0.08s CPU      0.09s WALL (    3047 calls)
     cegterg:last :      0.15s CPU      0.16s WALL (    2259 calls)
     h_psi        :     11.58s CPU     13.12s WALL (    3946 calls)
     s_psi        :      0.14s CPU      0.16s WALL (    3946 calls)
     g_psi        :      0.06s CPU      0.06s WALL (    3047 calls)

     Called by h_psi:
     h_psi:calbec :      0.52s CPU      0.58s WALL (    3946 calls)
     vloc_psi     :     10.82s CPU     12.28s WALL (    3946 calls)
                                        0.00s GPU  (    3946 calls)
     add_vuspsi   :      0.18s CPU      0.20s WALL (    3946 calls)

     General routines
     calbec       :      0.66s CPU      0.75s WALL (    4816 calls)
     fft          :      0.32s CPU      0.35s WALL (     389 calls)
     ffts         :      0.08s CPU      0.08s WALL (      60 calls)
     fftw         :     11.87s CPU     13.46s WALL (   58332 calls)
     interpolate  :      0.08s CPU      0.09s WALL (      30 calls)

     Parallel routines

     PWSCF        :     19.96s CPU     22.10s WALL


   This run was terminated on:  19: 1:11  22Sep2026            

=------------------------------------------------------------------------------=
   JOB DONE.
=------------------------------------------------------------------------------=
