
     Program PWSCF v.7.5 starts on 23Sep2026 at 20:51: 9 

     This program is part of the open-source Quantum ESPRESSO suite
     for quantum simulation of materials; please cite
         "P. Giannozzi et al., J. Phys.:Condens. Matter 21 395502 (2009);
         "P. Giannozzi et al., J. Phys.:Condens. Matter 29 465901 (2017);
         "P. Giannozzi et al., J. Chem. Phys. 152 154105 (2020);
          URL http://www.quantum-espresso.org", 
     in publications or presentations arising from this work. More details at
     http://www.quantum-espresso.org/quote

     Parallel version (MPI & OpenMP), running on       6 processor cores
     Number of MPI processes:                 6
     Threads/MPI process:                     1

     MPI processes distributed on     1 nodes
     13565 MiB available memory on the printing compute node when the environment starts

     Reading input from pw.in

     Current dimensions of program PWSCF are:
     Max number of different atomic species (ntypx) = 10
     Max number of k-points (npk) =  40000
     Max angular momentum in pseudopotentials (lmaxx) =  4
     file Hg.rel-pbe-spn-rrkjus_psl.1.0.0.UPF: wavefunction(s)  5P 5P renormalized
     file Te.rel-pbe-n-rrkjus_psl.1.0.0.UPF: wavefunction(s)  5S renormalized
     file Cd.rel-pbe-n-rrkjus_psl.1.0.0.UPF: wavefunction(s)  4D 4D renormalized

     R & G space division:  proc/nbgrp/npool/nimage =       6
     Subspace diagonalization in iterative solution of the eigenvalue problem:
     one sub-group per band group will be used
     ELPA distributed-memory algorithm (size of sub-group:  2*  2 procs)


     Parallelization info
     --------------------
     sticks:   dense  smooth     PW     G-vecs:    dense   smooth      PW
     Min        2369    1578    392               188952   102892   12873
     Max        2370    1579    393               188954   102894   12878
     Sum       14217    9469   2355              1133719   617357   77251

     Using Slab Decomposition



     bravais-lattice index     =            0
     lattice parameter (alat)  =      23.4373  a.u.
     unit-cell volume          =    9830.8317 (a.u.)^3
     number of atoms/cell      =           40
     number of atomic types    =            3
     number of electrons       =       488.00
     number of Kohn-Sham states=          586
     kinetic-energy cutoff     =      60.0000  Ry
     charge density cutoff     =     360.0000  Ry
     scf convergence threshold =      1.0E-10
     mixing beta               =       0.2500
     number of iterations used =            8  plain     mixing
     Exchange-correlation= PBE
                           (   1   4   3   4   0   0   0)
     Non magnetic calculation with spin-orbit


     celldm(1)=  23.437293  celldm(2)=   0.000000  celldm(3)=   0.000000
     celldm(4)=   0.000000  celldm(5)=   0.000000  celldm(6)=   0.000000

     crystal axes: (cart. coord. in units of alat)
               a(1) = (  -0.534522  -0.801784  -0.267261 )  
               a(2) = (  -0.534522   0.801784   0.267261 )  
               a(3) = (   0.534522   0.267261  -0.801784 )  

     reciprocal axes: (cart. coord. in units 2 pi/alat)
               b(1) = ( -0.935414 -0.374166 -0.748331 )  
               b(2) = ( -0.935414  0.748331 -0.374166 )  
               b(3) = (  0.000000  0.374166 -1.122497 )  


     PseudoPot. # 1 for Hg read from file:
     /home/User/opencode_workspace/DFT/pseudopotentials/Hg.rel-pbe-spn-rrkjus_psl.1.0.0.UPF
     MD5 check sum: 5c678cd38c6ece8c2e94bba06b90db03
     Pseudo is Ultrasoft + core correction, Zval = 20.0
     Generated using &quot;atomic&quot; code by A. Dal Corso  v.6.3
     Using radial grid of 1279 points, 10 beta functions with: 
                l(1) =   0
                l(2) =   0
                l(3) =   1
                l(4) =   1
                l(5) =   1
                l(6) =   1
                l(7) =   2
                l(8) =   2
                l(9) =   2
               l(10) =   2
     Q(r) pseudized with 0 coefficients 


     PseudoPot. # 2 for Te read from file:
     /home/User/opencode_workspace/DFT/pseudopotentials/Te.rel-pbe-n-rrkjus_psl.1.0.0.UPF
     MD5 check sum: 7fd30b6833abd190471e4dcc2367351b
     Pseudo is Ultrasoft + core correction, Zval =  6.0
     Generated using &quot;atomic&quot; code by A. Dal Corso  v.6.3
     Using radial grid of 1245 points, 10 beta functions with: 
                l(1) =   0
                l(2) =   0
                l(3) =   1
                l(4) =   1
                l(5) =   1
                l(6) =   1
                l(7) =   2
                l(8) =   2
                l(9) =   2
               l(10) =   2
     Q(r) pseudized with 0 coefficients 


     PseudoPot. # 3 for Cd read from file:
     /home/User/opencode_workspace/DFT/pseudopotentials/Cd.rel-pbe-n-rrkjus_psl.1.0.0.UPF
     MD5 check sum: f55a83cceeb01967e8d662641edf05f4
     Pseudo is Ultrasoft + core correction, Zval = 12.0
     Generated using &quot;atomic&quot; code by A. Dal Corso  v.6.3
     Using radial grid of 1239 points, 10 beta functions with: 
                l(1) =   0
                l(2) =   0
                l(3) =   1
                l(4) =   1
                l(5) =   1
                l(6) =   1
                l(7) =   2
                l(8) =   2
                l(9) =   2
               l(10) =   2
     Q(r) pseudized with 0 coefficients 


     atomic species   valence    mass     pseudopotential
     Hg               20.00   200.59200     Hg( 1.00)
     Te                6.00   127.60000     Te( 1.00)
     Cd               12.00   112.41400     Cd( 1.00)

     No symmetry found


                                    s                        frac. trans.

      isym =  1     identity                                     

 cryst.   s( 1) = (     1          0          0      )
                  (     0          1          0      )
                  (     0          0          1      )

 cart.    s( 1) = (  1.0000000 -0.0000000 -0.0000000 )
                  (  0.0000000  1.0000000  0.0000000 )
                  (  0.0000000 -0.0000000  1.0000000 )


   Cartesian axes

     site n.     atom                  positions (alat units)
         1        Hg     tau(   1) = (   0.0000000   0.0000000   0.0000000  )
         2        Te     tau(   2) = (  -0.1336306  -0.4008919  -0.6681531  )
         3        Hg     tau(   3) = (  -0.5345225  -0.2672612  -0.2672612  )
         4        Te     tau(   4) = (  -0.1336306   0.1336306  -0.6681531  )
         5        Hg     tau(   5) = (  -0.2672612  -0.2672612  -0.5345225  )
         6        Te     tau(   6) = (  -0.4008919  -0.1336306  -0.1336306  )
         7        Hg     tau(   7) = (   0.0000000  -0.2672612  -0.8017837  )
         8        Te     tau(   8) = (  -0.1336306  -0.1336306  -0.4008919  )
         9        Cd     tau(   9) = (  -0.5345225   0.0000000   0.0000000  )
        10        Te     tau(  10) = (  -0.1336306   0.4008919  -0.4008919  )
        11        Hg     tau(  11) = (  -0.2672612  -0.0000000  -0.2672612  )
        12        Te     tau(  12) = (   0.1336306   0.4008919  -0.6681531  )
        13        Cd     tau(  13) = (  -0.0000000  -0.0000000  -0.5345225  )
        14        Te     tau(  14) = (  -0.1336306   0.1336306  -0.1336306  )
        15        Hg     tau(  15) = (   0.2672612   0.0000000  -0.8017837  )
        16        Te     tau(  16) = (   0.1336306   0.1336306  -0.4008919  )
        17        Hg     tau(  17) = (  -0.2672612   0.2672612   0.0000000  )
        18        Te     tau(  18) = (  -0.4008919  -0.1336306  -0.6681531  )
        19        Hg     tau(  19) = (   0.0000000   0.2672612  -0.2672612  )
        20        Te     tau(  20) = (  -0.6681531  -0.4008919  -0.1336306  )
        21        Cd     tau(  21) = (   0.2672612   0.2672612  -0.5345225  )
        22        Te     tau(  22) = (  -0.4008919  -0.4008919  -0.4008919  )
        23        Hg     tau(  23) = (  -0.8017837  -0.0000000  -0.2672612  )
        24        Te     tau(  24) = (  -0.4008919   0.4008919  -0.6681531  )
        25        Hg     tau(  25) = (  -0.5345225  -0.0000000  -0.5345225  )
        26        Te     tau(  26) = (  -0.6681531   0.1336306  -0.1336306  )
        27        Hg     tau(  27) = (  -0.2672612   0.0000000  -0.8017837  )
        28        Te     tau(  28) = (  -0.4008919   0.1336306  -0.4008919  )
        29        Hg     tau(  29) = (  -0.8017837   0.2672612  -0.0000000  )
        30        Te     tau(  30) = (   0.1336306  -0.1336306  -0.6681531  )
        31        Hg     tau(  31) = (  -0.5345225   0.2672612  -0.2672612  )
        32        Te     tau(  32) = (  -0.1336306   0.6681531  -0.6681531  )
        33        Cd     tau(  33) = (  -0.2672612   0.2672612  -0.5345225  )
        34        Te     tau(  34) = (  -0.4008919   0.4008919  -0.1336306  )
        35        Hg     tau(  35) = (  -0.5345225   0.5345225   0.0000000  )
        36        Te     tau(  36) = (  -0.1336306   0.9354143  -0.4008919  )
        37        Hg     tau(  37) = (  -0.2672612   0.5345225  -0.2672612  )
        38        Te     tau(  38) = (  -0.4008919   0.6681531   0.1336306  )
        39        Hg     tau(  39) = (   0.0000000   0.5345225  -0.5345225  )
        40        Te     tau(  40) = (  -0.6681531  -0.1336306  -0.4008919  )

   Crystallographic axes

     site n.     atom                  positions (cryst. coord.)
         1        Hg     tau(   1) = ( -0.0000000  0.0000000  0.0000000  )
         2        Te     tau(   2) = (  0.7750000  0.0750000  0.6000000  )
         3        Hg     tau(   3) = (  0.8000000  0.4000000  0.2000000  )
         4        Te     tau(   4) = (  0.5750000  0.4750000  0.8000000  )
         5        Hg     tau(   5) = (  0.7500000  0.2500000  0.5000000  )
         6        Te     tau(   6) = (  0.5250000  0.3250000  0.1000000  )
         7        Hg     tau(   7) = (  0.7000000  0.1000000  0.8000000  )
         8        Te     tau(   8) = (  0.4750000  0.1750000  0.4000000  )
         9        Cd     tau(   9) = (  0.5000000  0.5000000  0.0000000  )
        10        Te     tau(  10) = (  0.2750000  0.5750000  0.6000000  )
        11        Hg     tau(  11) = (  0.4500000  0.3500000  0.3000000  )
        12        Te     tau(  12) = (  0.2250000  0.4250000  0.9000000  )
        13        Cd     tau(  13) = (  0.4000000  0.2000000  0.6000000  )
        14        Te     tau(  14) = (  0.1750000  0.2750000  0.2000000  )
        15        Hg     tau(  15) = (  0.3500000  0.0500000  0.9000000  )
        16        Te     tau(  16) = (  0.1250000  0.1250000  0.5000000  )
        17        Hg     tau(  17) = (  0.1500000  0.4500000  0.1000000  )
        18        Te     tau(  18) = (  0.9250000  0.5250000  0.7000000  )
        19        Hg     tau(  19) = (  0.1000000  0.3000000  0.4000000  )
        20        Te     tau(  20) = (  0.8750000  0.3750000  0.0000000  )
        21        Cd     tau(  21) = (  0.0500000  0.1500000  0.7000000  )
        22        Te     tau(  22) = (  0.8250000  0.2250000  0.3000000  )
        23        Hg     tau(  23) = (  0.9500000  0.8500000  0.3000000  )
        24        Te     tau(  24) = (  0.7250000  0.9250000  0.9000000  )
        25        Hg     tau(  25) = (  0.9000000  0.7000000  0.6000000  )
        26        Te     tau(  26) = (  0.6750000  0.7750000  0.2000000  )
        27        Hg     tau(  27) = (  0.8500000  0.5500000  0.9000000  )
        28        Te     tau(  28) = (  0.6250000  0.6250000  0.5000000  )
        29        Hg     tau(  29) = (  0.6500000  0.9500000  0.1000000  )
        30        Te     tau(  30) = (  0.4250000  0.0250000  0.7000000  )
        31        Hg     tau(  31) = (  0.6000000  0.8000000  0.4000000  )
        32        Te     tau(  32) = (  0.3750000  0.8750000  1.0000000  )
        33        Cd     tau(  33) = (  0.5500000  0.6500000  0.7000000  )
        34        Te     tau(  34) = (  0.3250000  0.7250000  0.3000000  )
        35        Hg     tau(  35) = (  0.3000000  0.9000000  0.2000000  )
        36        Te     tau(  36) = (  0.0750000  0.9750000  0.8000000  )
        37        Hg     tau(  37) = (  0.2500000  0.7500000  0.5000000  )
        38        Te     tau(  38) = (  0.0250000  0.8250000  0.1000000  )
        39        Hg     tau(  39) = (  0.2000000  0.6000000  0.8000000  )
        40        Te     tau(  40) = (  0.9750000  0.6750000  0.4000000  )

     number of k points=     1  Marzari-Vanderbilt smearing, width (Ry)=  0.0020
                       cart. coord. in units 2pi/alat
        k(    1) = (   0.0000000   0.0000000  -0.0000000), wk =   1.0000000

                       cryst. coord.
        k(    1) = (   0.0000000   0.0000000   0.0000000), wk =   1.0000000

     Dense  grid:  1133719 G-vectors     FFT dimensions: ( 144, 144, 144)

     Smooth grid:   617357 G-vectors     FFT dimensions: ( 120, 120, 120)

     Dynamical RAM for                 wfc:     229.96 MB

     Dynamical RAM for     wfc (w. buffer):     229.96 MB

     Dynamical RAM for           str. fact:       8.65 MB

     Dynamical RAM for           local pot:       0.00 MB

     Dynamical RAM for          nlocal pot:     266.85 MB

     Dynamical RAM for                qrad:      11.97 MB

     Dynamical RAM for          rho,v,vnew:      80.16 MB

     Dynamical RAM for               rhoin:      26.72 MB

     Dynamical RAM for            rho*nmix:     184.52 MB

     Dynamical RAM for           G-vectors:      11.60 MB

     Dynamical RAM for          h,s,v(r/c):      15.72 MB

     Dynamical RAM for          <psi|beta>:      24.32 MB

     Dynamical RAM for                 psi:     459.92 MB

     Dynamical RAM for                hpsi:     459.92 MB

     Dynamical RAM for                spsi:     459.92 MB

     Dynamical RAM for      wfcinit/wfcrot:     352.81 MB

     Dynamical RAM for           addusdens:    1816.41 MB

     Estimated static dynamical RAM per process >     677.81 MB

     Estimated max dynamical RAM per process >       2.62 GB

     Estimated total dynamical RAM >      15.70 GB

     Initial potential from superposition of free atoms

     starting charge     487.9790, renormalised to     488.0000
     Starting wfcs are  552 randomized atomic wfcs +   34 random wfcs

     total cpu time spent up to now is     1022.4 secs

     per-process dynamical memory:   750.4 Mb

     Self-consistent Calculation

     iteration #  1     ecut=    60.00 Ry     beta= 0.25
     Davidson diagonalization with overlap

---- Real-time Memory Report at c_bands before calling an iterative solver
          2001 MiB given to the printing process from OS
           732 MiB allocation reported by mallinfo(arena+hblkhd)
          8443 MiB available memory on the node where the printing process lives
------------------
