
     Program PWSCF v.7.5 starts on 22Sep2026 at 20: 6:30 

     This program is part of the open-source Quantum ESPRESSO suite
     for quantum simulation of materials; please cite
         "P. Giannozzi et al., J. Phys.:Condens. Matter 21 395502 (2009);
         "P. Giannozzi et al., J. Phys.:Condens. Matter 29 465901 (2017);
         "P. Giannozzi et al., J. Chem. Phys. 152 154105 (2020);
          URL http://www.quantum-espresso.org", 
     in publications or presentations arising from this work. More details at
     http://www.quantum-espresso.org/quote

     Parallel version (MPI & OpenMP), running on       6 processor cores
     Number of MPI processes:                 6
     Threads/MPI process:                     1

     MPI processes distributed on     1 nodes
     1470 MiB available memory on the printing compute node when the environment starts

     Reading input from pw_bands.in

     Current dimensions of program PWSCF are:
     Max number of different atomic species (ntypx) = 10
     Max number of k-points (npk) =  40000
     Max angular momentum in pseudopotentials (lmaxx) =  4
     file Cd.pbe-n-rrkjus_psl.1.0.0.UPF: wavefunction(s)  4D renormalized
     file Te.pbe-n-rrkjus_psl.1.0.0.UPF: wavefunction(s)  5S renormalized

     Atomic positions and unit cell read from directory:
     /home/User/opencode_workspace/DFT/calculations/cdte/production_bands_nosoc/out/pwscf.save/

     Message from routine setup:
     using ibrav=0 with symmetry is DISCOURAGED, use correct ibrav instead

     R & G space division:  proc/nbgrp/npool/nimage =       6
     Subspace diagonalization in iterative solution of the eigenvalue problem:
     a serial algorithm will be used


     Parallelization info
     --------------------
     sticks:   dense  smooth     PW     G-vecs:    dense   smooth      PW
     Min         645     431    120                26668    14503    2104
     Max         647     432    121                26671    14506    2105
     Sum        3877    2587    721               160021    87027   12627

     Using Slab Decomposition



     bravais-lattice index     =            0
     lattice parameter (alat)  =       8.8500  a.u.
     unit-cell volume          =     490.1280 (a.u.)^3
     number of atoms/cell      =            2
     number of atomic types    =            2
     number of electrons       =        18.00
     number of Kohn-Sham states=            9
     kinetic-energy cutoff     =     120.0000  Ry
     charge density cutoff     =     720.0000  Ry
     Exchange-correlation= PBE
                           (   1   4   3   4   0   0   0)

     celldm(1)=   8.849964  celldm(2)=   0.000000  celldm(3)=   0.000000
     celldm(4)=   0.000000  celldm(5)=   0.000000  celldm(6)=   0.000000

     crystal axes: (cart. coord. in units of alat)
               a(1) = (   0.000000   0.707107   0.707107 )  
               a(2) = (   0.707107   0.000000   0.707107 )  
               a(3) = (   0.707107   0.707107   0.000000 )  

     reciprocal axes: (cart. coord. in units 2 pi/alat)
               b(1) = ( -0.707107  0.707107  0.707107 )  
               b(2) = (  0.707107 -0.707107  0.707107 )  
               b(3) = (  0.707107  0.707107 -0.707107 )  


     PseudoPot. # 1 for Cd read from file:
     /home/User/opencode_workspace/DFT/pseudopotentials/Cd.pbe-n-rrkjus_psl.1.0.0.UPF
     MD5 check sum: a744746c89d2344a134ead0d8ab94e7a
     Pseudo is Ultrasoft + core correction, Zval = 12.0
     Generated using &quot;atomic&quot; code by A. Dal Corso  v.6.3
     Using radial grid of 1239 points,  6 beta functions with: 
                l(1) =   0
                l(2) =   0
                l(3) =   1
                l(4) =   1
                l(5) =   2
                l(6) =   2
     Q(r) pseudized with 0 coefficients 


     PseudoPot. # 2 for Te read from file:
     /home/User/opencode_workspace/DFT/pseudopotentials/Te.pbe-n-rrkjus_psl.1.0.0.UPF
     MD5 check sum: 203a1e86ef55f0cd9de2762a27c58f54
     Pseudo is Ultrasoft + core correction, Zval =  6.0
     Generated using &quot;atomic&quot; code by A. Dal Corso  v.6.3
     Using radial grid of 1245 points,  6 beta functions with: 
                l(1) =   0
                l(2) =   0
                l(3) =   1
                l(4) =   1
                l(5) =   2
                l(6) =   2
     Q(r) pseudized with 0 coefficients 


     atomic species   valence    mass     pseudopotential
     Cd               12.00   112.41400     Cd( 1.00)
     Te                6.00   127.60000     Te( 1.00)

     24 Sym. Ops. (no inversion) found


                                    s                        frac. trans.

      isym =  1     identity                                     

 cryst.   s( 1) = (     1          0          0      )
                  (     0          1          0      )
                  (     0          0          1      )

 cart.    s( 1) = (  1.0000000  0.0000000  0.0000000 )
                  (  0.0000000  1.0000000  0.0000000 )
                  (  0.0000000  0.0000000  1.0000000 )


      isym =  2     180 deg rotation - cart. axis [0,0,1]        

 cryst.   s( 2) = (     0          1         -1      )
                  (     1          0         -1      )
                  (     0          0         -1      )

 cart.    s( 2) = ( -1.0000000  0.0000000  0.0000000 )
                  (  0.0000000 -1.0000000  0.0000000 )
                  (  0.0000000  0.0000000  1.0000000 )


      isym =  3     180 deg rotation - cart. axis [0,1,0]        

 cryst.   s( 3) = (     0         -1          1      )
                  (     0         -1          0      )
                  (     1         -1          0      )

 cart.    s( 3) = ( -1.0000000  0.0000000  0.0000000 )
                  (  0.0000000  1.0000000  0.0000000 )
                  (  0.0000000  0.0000000 -1.0000000 )


      isym =  4     180 deg rotation - cart. axis [1,0,0]        

 cryst.   s( 4) = (    -1          0          0      )
                  (    -1          0          1      )
                  (    -1          1          0      )

 cart.    s( 4) = (  1.0000000  0.0000000  0.0000000 )
                  (  0.0000000 -1.0000000  0.0000000 )
                  (  0.0000000  0.0000000 -1.0000000 )


      isym =  5     120 deg rotation - cart. axis [-1,-1,-1]     

 cryst.   s( 5) = (     0          0          1      )
                  (     1          0          0      )
                  (     0          1          0      )

 cart.    s( 5) = (  0.0000000  1.0000000  0.0000000 )
                  (  0.0000000  0.0000000  1.0000000 )
                  (  1.0000000  0.0000000  0.0000000 )


      isym =  6     120 deg rotation - cart. axis [-1,1,1]       

 cryst.   s( 6) = (     1         -1          0      )
                  (     0         -1          1      )
                  (     0         -1          0      )

 cart.    s( 6) = (  0.0000000 -1.0000000  0.0000000 )
                  (  0.0000000  0.0000000  1.0000000 )
                  ( -1.0000000  0.0000000  0.0000000 )


      isym =  7     120 deg rotation - cart. axis [1,1,-1]       

 cryst.   s( 7) = (    -1          1          0      )
                  (    -1          0          0      )
                  (    -1          0          1      )

 cart.    s( 7) = (  0.0000000  1.0000000  0.0000000 )
                  (  0.0000000  0.0000000 -1.0000000 )
                  ( -1.0000000  0.0000000  0.0000000 )


      isym =  8     120 deg rotation - cart. axis [1,-1,1]       

 cryst.   s( 8) = (     0          0         -1      )
                  (     0          1         -1      )
                  (     1          0         -1      )

 cart.    s( 8) = (  0.0000000 -1.0000000  0.0000000 )
                  (  0.0000000  0.0000000 -1.0000000 )
                  (  1.0000000  0.0000000  0.0000000 )


      isym =  9     120 deg rotation - cart. axis [1,1,1]        

 cryst.   s( 9) = (     0          1          0      )
                  (     0          0          1      )
                  (     1          0          0      )

 cart.    s( 9) = (  0.0000000  0.0000000  1.0000000 )
                  (  1.0000000  0.0000000  0.0000000 )
                  (  0.0000000  1.0000000  0.0000000 )


      isym = 10     120 deg rotation - cart. axis [-1,1,-1]      

 cryst.   s(10) = (    -1          0          1      )
                  (    -1          1          0      )
                  (    -1          0          0      )

 cart.    s(10) = (  0.0000000  0.0000000  1.0000000 )
                  ( -1.0000000  0.0000000  0.0000000 )
                  (  0.0000000 -1.0000000  0.0000000 )


      isym = 11     120 deg rotation - cart. axis [1,-1,-1]      

 cryst.   s(11) = (     1          0         -1      )
                  (     0          0         -1      )
                  (     0          1         -1      )

 cart.    s(11) = (  0.0000000  0.0000000 -1.0000000 )
                  ( -1.0000000  0.0000000  0.0000000 )
                  (  0.0000000  1.0000000  0.0000000 )


      isym = 12     120 deg rotation - cart. axis [-1,-1,1]      

 cryst.   s(12) = (     0         -1          0      )
                  (     1         -1          0      )
                  (     0         -1          1      )

 cart.    s(12) = (  0.0000000  0.0000000 -1.0000000 )
                  (  1.0000000  0.0000000  0.0000000 )
                  (  0.0000000 -1.0000000  0.0000000 )


      isym = 13     inv. 180 deg rotation - cart. axis [1,1,0]   

 cryst.   s(13) = (     1          0         -1      )
                  (     0          1         -1      )
                  (     0          0         -1      )

 cart.    s(13) = (  0.0000000 -1.0000000  0.0000000 )
                  ( -1.0000000  0.0000000  0.0000000 )
                  (  0.0000000  0.0000000  1.0000000 )


      isym = 14     inv. 180 deg rotation - cart. axis [1,-1,0]  

 cryst.   s(14) = (     0          1          0      )
                  (     1          0          0      )
                  (     0          0          1      )

 cart.    s(14) = (  0.0000000  1.0000000  0.0000000 )
                  (  1.0000000  0.0000000  0.0000000 )
                  (  0.0000000  0.0000000  1.0000000 )


      isym = 15     inv.  90 deg rotation - cart. axis [0,0,-1]  

 cryst.   s(15) = (     0         -1          0      )
                  (     0         -1          1      )
                  (     1         -1          0      )

 cart.    s(15) = (  0.0000000 -1.0000000  0.0000000 )
                  (  1.0000000  0.0000000  0.0000000 )
                  (  0.0000000  0.0000000 -1.0000000 )


      isym = 16     inv.  90 deg rotation - cart. axis [0,0,1]   

 cryst.   s(16) = (    -1          0          1      )
                  (    -1          0          0      )
                  (    -1          1          0      )

 cart.    s(16) = (  0.0000000  1.0000000  0.0000000 )
                  ( -1.0000000  0.0000000  0.0000000 )
                  (  0.0000000  0.0000000 -1.0000000 )


      isym = 17     inv. 180 deg rotation - cart. axis [1,0,1]   

 cryst.   s(17) = (     1         -1          0      )
                  (     0         -1          0      )
                  (     0         -1          1      )

 cart.    s(17) = (  0.0000000  0.0000000 -1.0000000 )
                  (  0.0000000  1.0000000  0.0000000 )
                  ( -1.0000000  0.0000000  0.0000000 )


      isym = 18     inv. 180 deg rotation - cart. axis [-1,0,1]  

 cryst.   s(18) = (     0          0          1      )
                  (     0          1          0      )
                  (     1          0          0      )

 cart.    s(18) = (  0.0000000  0.0000000  1.0000000 )
                  (  0.0000000  1.0000000  0.0000000 )
                  (  1.0000000  0.0000000  0.0000000 )


      isym = 19     inv.  90 deg rotation - cart. axis [0,1,0]   

 cryst.   s(19) = (     0          0         -1      )
                  (     1          0         -1      )
                  (     0          1         -1      )

 cart.    s(19) = (  0.0000000  0.0000000 -1.0000000 )
                  (  0.0000000 -1.0000000  0.0000000 )
                  (  1.0000000  0.0000000  0.0000000 )


      isym = 20     inv.  90 deg rotation - cart. axis [0,-1,0]  

 cryst.   s(20) = (    -1          1          0      )
                  (    -1          0          1      )
                  (    -1          0          0      )

 cart.    s(20) = (  0.0000000  0.0000000  1.0000000 )
                  (  0.0000000 -1.0000000  0.0000000 )
                  ( -1.0000000  0.0000000  0.0000000 )


      isym = 21     inv. 180 deg rotation - cart. axis [0,1,1]   

 cryst.   s(21) = (    -1          0          0      )
                  (    -1          1          0      )
                  (    -1          0          1      )

 cart.    s(21) = (  1.0000000  0.0000000  0.0000000 )
                  (  0.0000000  0.0000000 -1.0000000 )
                  (  0.0000000 -1.0000000  0.0000000 )


      isym = 22     inv. 180 deg rotation - cart. axis [0,1,-1]  

 cryst.   s(22) = (     1          0          0      )
                  (     0          0          1      )
                  (     0          1          0      )

 cart.    s(22) = (  1.0000000  0.0000000  0.0000000 )
                  (  0.0000000  0.0000000  1.0000000 )
                  (  0.0000000  1.0000000  0.0000000 )


      isym = 23     inv.  90 deg rotation - cart. axis [-1,0,0]  

 cryst.   s(23) = (     0          1         -1      )
                  (     0          0         -1      )
                  (     1          0         -1      )

 cart.    s(23) = ( -1.0000000  0.0000000  0.0000000 )
                  (  0.0000000  0.0000000 -1.0000000 )
                  (  0.0000000  1.0000000  0.0000000 )


      isym = 24     inv.  90 deg rotation - cart. axis [1,0,0]   

 cryst.   s(24) = (     0         -1          1      )
                  (     1         -1          0      )
                  (     0         -1          0      )

 cart.    s(24) = ( -1.0000000  0.0000000  0.0000000 )
                  (  0.0000000  0.0000000  1.0000000 )
                  (  0.0000000 -1.0000000  0.0000000 )


   Cartesian axes

     site n.     atom                  positions (alat units)
         1        Cd     tau(   1) = (   0.0000000   0.0000000   0.0000000  )
         2        Te     tau(   2) = (   0.3535534   0.3535534   0.3535534  )

   Crystallographic axes

     site n.     atom                  positions (cryst. coord.)
         1        Cd     tau(   1) = (  0.0000000  0.0000000  0.0000000  )
         2        Te     tau(   2) = (  0.2500000  0.2500000  0.2500000  )

     number of k points=  1401
                       cart. coord. in units 2pi/alat
        k(    1) = (   0.0000000   0.0000000   0.0000000), wk =   0.0014276
        k(    2) = (   0.0000000   0.0022097   0.0000000), wk =   0.0014276
        k(    3) = (   0.0000000   0.0044194   0.0000000), wk =   0.0014276
        k(    4) = (   0.0000000   0.0066291   0.0000000), wk =   0.0014276
        k(    5) = (   0.0000000   0.0088388   0.0000000), wk =   0.0014276
        k(    6) = (   0.0000000   0.0110485   0.0000000), wk =   0.0014276
        k(    7) = (   0.0000000   0.0132583   0.0000000), wk =   0.0014276
        k(    8) = (   0.0000000   0.0154680   0.0000000), wk =   0.0014276
        k(    9) = (   0.0000000   0.0176777   0.0000000), wk =   0.0014276
        k(   10) = (   0.0000000   0.0198874   0.0000000), wk =   0.0014276
        k(   11) = (   0.0000000   0.0220971   0.0000000), wk =   0.0014276
        k(   12) = (   0.0000000   0.0243068   0.0000000), wk =   0.0014276
        k(   13) = (   0.0000000   0.0265165   0.0000000), wk =   0.0014276
        k(   14) = (   0.0000000   0.0287262   0.0000000), wk =   0.0014276
        k(   15) = (   0.0000000   0.0309359   0.0000000), wk =   0.0014276
        k(   16) = (   0.0000000   0.0331456   0.0000000), wk =   0.0014276
        k(   17) = (   0.0000000   0.0353553   0.0000000), wk =   0.0014276
        k(   18) = (   0.0000000   0.0375650   0.0000000), wk =   0.0014276
        k(   19) = (   0.0000000   0.0397748   0.0000000), wk =   0.0014276
        k(   20) = (   0.0000000   0.0419845   0.0000000), wk =   0.0014276
        k(   21) = (   0.0000000   0.0441942   0.0000000), wk =   0.0014276
        k(   22) = (   0.0000000   0.0464039   0.0000000), wk =   0.0014276
        k(   23) = (   0.0000000   0.0486136   0.0000000), wk =   0.0014276
        k(   24) = (   0.0000000   0.0508233   0.0000000), wk =   0.0014276
        k(   25) = (   0.0000000   0.0530330   0.0000000), wk =   0.0014276
        k(   26) = (   0.0000000   0.0552427   0.0000000), wk =   0.0014276
        k(   27) = (   0.0000000   0.0574524   0.0000000), wk =   0.0014276
        k(   28) = (   0.0000000   0.0596621   0.0000000), wk =   0.0014276
        k(   29) = (   0.0000000   0.0618718   0.0000000), wk =   0.0014276
        k(   30) = (   0.0000000   0.0640816   0.0000000), wk =   0.0014276
        k(   31) = (   0.0000000   0.0662913   0.0000000), wk =   0.0014276
        k(   32) = (   0.0000000   0.0685010   0.0000000), wk =   0.0014276
        k(   33) = (   0.0000000   0.0707107   0.0000000), wk =   0.0014276
        k(   34) = (   0.0000000   0.0729204   0.0000000), wk =   0.0014276
        k(   35) = (   0.0000000   0.0751301   0.0000000), wk =   0.0014276
        k(   36) = (   0.0000000   0.0773398   0.0000000), wk =   0.0014276
        k(   37) = (   0.0000000   0.0795495   0.0000000), wk =   0.0014276
        k(   38) = (   0.0000000   0.0817592   0.0000000), wk =   0.0014276
        k(   39) = (   0.0000000   0.0839689   0.0000000), wk =   0.0014276
        k(   40) = (   0.0000000   0.0861786   0.0000000), wk =   0.0014276
        k(   41) = (   0.0000000   0.0883883   0.0000000), wk =   0.0014276
        k(   42) = (   0.0000000   0.0905981   0.0000000), wk =   0.0014276
        k(   43) = (   0.0000000   0.0928078   0.0000000), wk =   0.0014276
        k(   44) = (   0.0000000   0.0950175   0.0000000), wk =   0.0014276
        k(   45) = (   0.0000000   0.0972272   0.0000000), wk =   0.0014276
        k(   46) = (   0.0000000   0.0994369   0.0000000), wk =   0.0014276
        k(   47) = (   0.0000000   0.1016466   0.0000000), wk =   0.0014276
        k(   48) = (   0.0000000   0.1038563   0.0000000), wk =   0.0014276
        k(   49) = (   0.0000000   0.1060660   0.0000000), wk =   0.0014276
        k(   50) = (   0.0000000   0.1082757   0.0000000), wk =   0.0014276
        k(   51) = (   0.0000000   0.1104854   0.0000000), wk =   0.0014276
        k(   52) = (   0.0000000   0.1126951   0.0000000), wk =   0.0014276
        k(   53) = (   0.0000000   0.1149049   0.0000000), wk =   0.0014276
        k(   54) = (   0.0000000   0.1171146   0.0000000), wk =   0.0014276
        k(   55) = (   0.0000000   0.1193243   0.0000000), wk =   0.0014276
        k(   56) = (   0.0000000   0.1215340   0.0000000), wk =   0.0014276
        k(   57) = (   0.0000000   0.1237437   0.0000000), wk =   0.0014276
        k(   58) = (   0.0000000   0.1259534   0.0000000), wk =   0.0014276
        k(   59) = (   0.0000000   0.1281631   0.0000000), wk =   0.0014276
        k(   60) = (   0.0000000   0.1303728   0.0000000), wk =   0.0014276
        k(   61) = (   0.0000000   0.1325825   0.0000000), wk =   0.0014276
        k(   62) = (   0.0000000   0.1347922   0.0000000), wk =   0.0014276
        k(   63) = (   0.0000000   0.1370019   0.0000000), wk =   0.0014276
        k(   64) = (   0.0000000   0.1392116   0.0000000), wk =   0.0014276
        k(   65) = (   0.0000000   0.1414214   0.0000000), wk =   0.0014276
        k(   66) = (   0.0000000   0.1436311   0.0000000), wk =   0.0014276
        k(   67) = (   0.0000000   0.1458408   0.0000000), wk =   0.0014276
        k(   68) = (   0.0000000   0.1480505   0.0000000), wk =   0.0014276
        k(   69) = (   0.0000000   0.1502602   0.0000000), wk =   0.0014276
        k(   70) = (   0.0000000   0.1524699   0.0000000), wk =   0.0014276
        k(   71) = (   0.0000000   0.1546796   0.0000000), wk =   0.0014276
        k(   72) = (   0.0000000   0.1568893   0.0000000), wk =   0.0014276
        k(   73) = (   0.0000000   0.1590990   0.0000000), wk =   0.0014276
        k(   74) = (   0.0000000   0.1613087   0.0000000), wk =   0.0014276
        k(   75) = (   0.0000000   0.1635184   0.0000000), wk =   0.0014276
        k(   76) = (   0.0000000   0.1657282   0.0000000), wk =   0.0014276
        k(   77) = (   0.0000000   0.1679379   0.0000000), wk =   0.0014276
        k(   78) = (   0.0000000   0.1701476   0.0000000), wk =   0.0014276
        k(   79) = (   0.0000000   0.1723573   0.0000000), wk =   0.0014276
        k(   80) = (   0.0000000   0.1745670   0.0000000), wk =   0.0014276
        k(   81) = (   0.0000000   0.1767767   0.0000000), wk =   0.0014276
        k(   82) = (   0.0000000   0.1789864   0.0000000), wk =   0.0014276
        k(   83) = (   0.0000000   0.1811961   0.0000000), wk =   0.0014276
        k(   84) = (   0.0000000   0.1834058   0.0000000), wk =   0.0014276
        k(   85) = (   0.0000000   0.1856155   0.0000000), wk =   0.0014276
        k(   86) = (   0.0000000   0.1878252   0.0000000), wk =   0.0014276
        k(   87) = (   0.0000000   0.1900349   0.0000000), wk =   0.0014276
        k(   88) = (   0.0000000   0.1922447   0.0000000), wk =   0.0014276
        k(   89) = (   0.0000000   0.1944544   0.0000000), wk =   0.0014276
        k(   90) = (   0.0000000   0.1966641   0.0000000), wk =   0.0014276
        k(   91) = (   0.0000000   0.1988738   0.0000000), wk =   0.0014276
        k(   92) = (   0.0000000   0.2010835   0.0000000), wk =   0.0014276
        k(   93) = (   0.0000000   0.2032932   0.0000000), wk =   0.0014276
        k(   94) = (   0.0000000   0.2055029   0.0000000), wk =   0.0014276
        k(   95) = (   0.0000000   0.2077126   0.0000000), wk =   0.0014276
        k(   96) = (   0.0000000   0.2099223   0.0000000), wk =   0.0014276
        k(   97) = (   0.0000000   0.2121320   0.0000000), wk =   0.0014276
        k(   98) = (   0.0000000   0.2143417   0.0000000), wk =   0.0014276
        k(   99) = (   0.0000000   0.2165515   0.0000000), wk =   0.0014276
        k(  100) = (   0.0000000   0.2187612   0.0000000), wk =   0.0014276
        k(  101) = (   0.0000000   0.2209709   0.0000000), wk =   0.0014276
        k(  102) = (   0.0000000   0.2231806   0.0000000), wk =   0.0014276
        k(  103) = (   0.0000000   0.2253903   0.0000000), wk =   0.0014276
        k(  104) = (   0.0000000   0.2276000   0.0000000), wk =   0.0014276
        k(  105) = (   0.0000000   0.2298097   0.0000000), wk =   0.0014276
        k(  106) = (   0.0000000   0.2320194   0.0000000), wk =   0.0014276
        k(  107) = (   0.0000000   0.2342291   0.0000000), wk =   0.0014276
        k(  108) = (   0.0000000   0.2364388   0.0000000), wk =   0.0014276
        k(  109) = (   0.0000000   0.2386485   0.0000000), wk =   0.0014276
        k(  110) = (   0.0000000   0.2408582   0.0000000), wk =   0.0014276
        k(  111) = (   0.0000000   0.2430680   0.0000000), wk =   0.0014276
        k(  112) = (   0.0000000   0.2452777   0.0000000), wk =   0.0014276
        k(  113) = (   0.0000000   0.2474874   0.0000000), wk =   0.0014276
        k(  114) = (   0.0000000   0.2496971   0.0000000), wk =   0.0014276
        k(  115) = (   0.0000000   0.2519068   0.0000000), wk =   0.0014276
        k(  116) = (   0.0000000   0.2541165   0.0000000), wk =   0.0014276
        k(  117) = (   0.0000000   0.2563262   0.0000000), wk =   0.0014276
        k(  118) = (   0.0000000   0.2585359   0.0000000), wk =   0.0014276
        k(  119) = (   0.0000000   0.2607456   0.0000000), wk =   0.0014276
        k(  120) = (   0.0000000   0.2629553   0.0000000), wk =   0.0014276
        k(  121) = (   0.0000000   0.2651650   0.0000000), wk =   0.0014276
        k(  122) = (   0.0000000   0.2673748   0.0000000), wk =   0.0014276
        k(  123) = (   0.0000000   0.2695845   0.0000000), wk =   0.0014276
        k(  124) = (   0.0000000   0.2717942   0.0000000), wk =   0.0014276
        k(  125) = (   0.0000000   0.2740039   0.0000000), wk =   0.0014276
        k(  126) = (   0.0000000   0.2762136   0.0000000), wk =   0.0014276
        k(  127) = (   0.0000000   0.2784233   0.0000000), wk =   0.0014276
        k(  128) = (   0.0000000   0.2806330   0.0000000), wk =   0.0014276
        k(  129) = (   0.0000000   0.2828427   0.0000000), wk =   0.0014276
        k(  130) = (   0.0000000   0.2850524   0.0000000), wk =   0.0014276
        k(  131) = (   0.0000000   0.2872621   0.0000000), wk =   0.0014276
        k(  132) = (   0.0000000   0.2894718   0.0000000), wk =   0.0014276
        k(  133) = (   0.0000000   0.2916815   0.0000000), wk =   0.0014276
        k(  134) = (   0.0000000   0.2938913   0.0000000), wk =   0.0014276
        k(  135) = (   0.0000000   0.2961010   0.0000000), wk =   0.0014276
        k(  136) = (   0.0000000   0.2983107   0.0000000), wk =   0.0014276
        k(  137) = (   0.0000000   0.3005204   0.0000000), wk =   0.0014276
        k(  138) = (   0.0000000   0.3027301   0.0000000), wk =   0.0014276
        k(  139) = (   0.0000000   0.3049398   0.0000000), wk =   0.0014276
        k(  140) = (   0.0000000   0.3071495   0.0000000), wk =   0.0014276
        k(  141) = (   0.0000000   0.3093592   0.0000000), wk =   0.0014276
        k(  142) = (   0.0000000   0.3115689   0.0000000), wk =   0.0014276
        k(  143) = (   0.0000000   0.3137786   0.0000000), wk =   0.0014276
        k(  144) = (   0.0000000   0.3159883   0.0000000), wk =   0.0014276
        k(  145) = (   0.0000000   0.3181981   0.0000000), wk =   0.0014276
        k(  146) = (   0.0000000   0.3204078   0.0000000), wk =   0.0014276
        k(  147) = (   0.0000000   0.3226175   0.0000000), wk =   0.0014276
        k(  148) = (   0.0000000   0.3248272   0.0000000), wk =   0.0014276
        k(  149) = (   0.0000000   0.3270369   0.0000000), wk =   0.0014276
        k(  150) = (   0.0000000   0.3292466   0.0000000), wk =   0.0014276
        k(  151) = (   0.0000000   0.3314563   0.0000000), wk =   0.0014276
        k(  152) = (   0.0000000   0.3336660   0.0000000), wk =   0.0014276
        k(  153) = (   0.0000000   0.3358757   0.0000000), wk =   0.0014276
        k(  154) = (   0.0000000   0.3380854   0.0000000), wk =   0.0014276
        k(  155) = (   0.0000000   0.3402951   0.0000000), wk =   0.0014276
        k(  156) = (   0.0000000   0.3425048   0.0000000), wk =   0.0014276
        k(  157) = (   0.0000000   0.3447146   0.0000000), wk =   0.0014276
        k(  158) = (   0.0000000   0.3469243   0.0000000), wk =   0.0014276
        k(  159) = (   0.0000000   0.3491340   0.0000000), wk =   0.0014276
        k(  160) = (   0.0000000   0.3513437   0.0000000), wk =   0.0014276
        k(  161) = (   0.0000000   0.3535534   0.0000000), wk =   0.0014276
        k(  162) = (   0.0000000   0.3557631   0.0000000), wk =   0.0014276
        k(  163) = (   0.0000000   0.3579728   0.0000000), wk =   0.0014276
        k(  164) = (   0.0000000   0.3601825   0.0000000), wk =   0.0014276
        k(  165) = (   0.0000000   0.3623922   0.0000000), wk =   0.0014276
        k(  166) = (   0.0000000   0.3646019   0.0000000), wk =   0.0014276
        k(  167) = (   0.0000000   0.3668116   0.0000000), wk =   0.0014276
        k(  168) = (   0.0000000   0.3690214   0.0000000), wk =   0.0014276
        k(  169) = (   0.0000000   0.3712311   0.0000000), wk =   0.0014276
        k(  170) = (   0.0000000   0.3734408   0.0000000), wk =   0.0014276
        k(  171) = (   0.0000000   0.3756505   0.0000000), wk =   0.0014276
        k(  172) = (   0.0000000   0.3778602   0.0000000), wk =   0.0014276
        k(  173) = (   0.0000000   0.3800699   0.0000000), wk =   0.0014276
        k(  174) = (   0.0000000   0.3822796   0.0000000), wk =   0.0014276
        k(  175) = (   0.0000000   0.3844893   0.0000000), wk =   0.0014276
        k(  176) = (   0.0000000   0.3866990   0.0000000), wk =   0.0014276
        k(  177) = (   0.0000000   0.3889087   0.0000000), wk =   0.0014276
        k(  178) = (   0.0000000   0.3911184   0.0000000), wk =   0.0014276
        k(  179) = (   0.0000000   0.3933281   0.0000000), wk =   0.0014276
        k(  180) = (   0.0000000   0.3955379   0.0000000), wk =   0.0014276
        k(  181) = (   0.0000000   0.3977476   0.0000000), wk =   0.0014276
        k(  182) = (   0.0000000   0.3999573   0.0000000), wk =   0.0014276
        k(  183) = (   0.0000000   0.4021670   0.0000000), wk =   0.0014276
        k(  184) = (   0.0000000   0.4043767   0.0000000), wk =   0.0014276
        k(  185) = (   0.0000000   0.4065864   0.0000000), wk =   0.0014276
        k(  186) = (   0.0000000   0.4087961   0.0000000), wk =   0.0014276
        k(  187) = (   0.0000000   0.4110058   0.0000000), wk =   0.0014276
        k(  188) = (   0.0000000   0.4132155   0.0000000), wk =   0.0014276
        k(  189) = (   0.0000000   0.4154252   0.0000000), wk =   0.0014276
        k(  190) = (   0.0000000   0.4176349   0.0000000), wk =   0.0014276
        k(  191) = (   0.0000000   0.4198447   0.0000000), wk =   0.0014276
        k(  192) = (   0.0000000   0.4220544   0.0000000), wk =   0.0014276
        k(  193) = (   0.0000000   0.4242641   0.0000000), wk =   0.0014276
        k(  194) = (   0.0000000   0.4264738   0.0000000), wk =   0.0014276
        k(  195) = (   0.0000000   0.4286835   0.0000000), wk =   0.0014276
        k(  196) = (   0.0000000   0.4308932   0.0000000), wk =   0.0014276
        k(  197) = (   0.0000000   0.4331029   0.0000000), wk =   0.0014276
        k(  198) = (   0.0000000   0.4353126   0.0000000), wk =   0.0014276
        k(  199) = (   0.0000000   0.4375223   0.0000000), wk =   0.0014276
        k(  200) = (   0.0000000   0.4397320   0.0000000), wk =   0.0014276
        k(  201) = (   0.0000000   0.4419417   0.0000000), wk =   0.0014276
        k(  202) = (   0.0000000   0.4441514   0.0000000), wk =   0.0014276
        k(  203) = (   0.0000000   0.4463612   0.0000000), wk =   0.0014276
        k(  204) = (   0.0000000   0.4485709   0.0000000), wk =   0.0014276
        k(  205) = (   0.0000000   0.4507806   0.0000000), wk =   0.0014276
        k(  206) = (   0.0000000   0.4529903   0.0000000), wk =   0.0014276
        k(  207) = (   0.0000000   0.4552000   0.0000000), wk =   0.0014276
        k(  208) = (   0.0000000   0.4574097   0.0000000), wk =   0.0014276
        k(  209) = (   0.0000000   0.4596194   0.0000000), wk =   0.0014276
        k(  210) = (   0.0000000   0.4618291   0.0000000), wk =   0.0014276
        k(  211) = (   0.0000000   0.4640388   0.0000000), wk =   0.0014276
        k(  212) = (   0.0000000   0.4662485   0.0000000), wk =   0.0014276
        k(  213) = (   0.0000000   0.4684582   0.0000000), wk =   0.0014276
        k(  214) = (   0.0000000   0.4706680   0.0000000), wk =   0.0014276
        k(  215) = (   0.0000000   0.4728777   0.0000000), wk =   0.0014276
        k(  216) = (   0.0000000   0.4750874   0.0000000), wk =   0.0014276
        k(  217) = (   0.0000000   0.4772971   0.0000000), wk =   0.0014276
        k(  218) = (   0.0000000   0.4795068   0.0000000), wk =   0.0014276
        k(  219) = (   0.0000000   0.4817165   0.0000000), wk =   0.0014276
        k(  220) = (   0.0000000   0.4839262   0.0000000), wk =   0.0014276
        k(  221) = (   0.0000000   0.4861359   0.0000000), wk =   0.0014276
        k(  222) = (   0.0000000   0.4883456   0.0000000), wk =   0.0014276
        k(  223) = (   0.0000000   0.4905553   0.0000000), wk =   0.0014276
        k(  224) = (   0.0000000   0.4927650   0.0000000), wk =   0.0014276
        k(  225) = (   0.0000000   0.4949747   0.0000000), wk =   0.0014276
        k(  226) = (   0.0000000   0.4971845   0.0000000), wk =   0.0014276
        k(  227) = (   0.0000000   0.4993942   0.0000000), wk =   0.0014276
        k(  228) = (   0.0000000   0.5016039   0.0000000), wk =   0.0014276
        k(  229) = (   0.0000000   0.5038136   0.0000000), wk =   0.0014276
        k(  230) = (   0.0000000   0.5060233   0.0000000), wk =   0.0014276
        k(  231) = (   0.0000000   0.5082330   0.0000000), wk =   0.0014276
        k(  232) = (   0.0000000   0.5104427   0.0000000), wk =   0.0014276
        k(  233) = (   0.0000000   0.5126524   0.0000000), wk =   0.0014276
        k(  234) = (   0.0000000   0.5148621   0.0000000), wk =   0.0014276
        k(  235) = (   0.0000000   0.5170718   0.0000000), wk =   0.0014276
        k(  236) = (   0.0000000   0.5192815   0.0000000), wk =   0.0014276
        k(  237) = (   0.0000000   0.5214913   0.0000000), wk =   0.0014276
        k(  238) = (   0.0000000   0.5237010   0.0000000), wk =   0.0014276
        k(  239) = (   0.0000000   0.5259107   0.0000000), wk =   0.0014276
        k(  240) = (   0.0000000   0.5281204   0.0000000), wk =   0.0014276
        k(  241) = (   0.0000000   0.5303301   0.0000000), wk =   0.0014276
        k(  242) = (   0.0000000   0.5325398   0.0000000), wk =   0.0014276
        k(  243) = (   0.0000000   0.5347495   0.0000000), wk =   0.0014276
        k(  244) = (   0.0000000   0.5369592   0.0000000), wk =   0.0014276
        k(  245) = (   0.0000000   0.5391689   0.0000000), wk =   0.0014276
        k(  246) = (   0.0000000   0.5413786   0.0000000), wk =   0.0014276
        k(  247) = (   0.0000000   0.5435883   0.0000000), wk =   0.0014276
        k(  248) = (   0.0000000   0.5457980   0.0000000), wk =   0.0014276
        k(  249) = (   0.0000000   0.5480078   0.0000000), wk =   0.0014276
        k(  250) = (   0.0000000   0.5502175   0.0000000), wk =   0.0014276
        k(  251) = (   0.0000000   0.5524272   0.0000000), wk =   0.0014276
        k(  252) = (   0.0000000   0.5546369   0.0000000), wk =   0.0014276
        k(  253) = (   0.0000000   0.5568466   0.0000000), wk =   0.0014276
        k(  254) = (   0.0000000   0.5590563   0.0000000), wk =   0.0014276
        k(  255) = (   0.0000000   0.5612660   0.0000000), wk =   0.0014276
        k(  256) = (   0.0000000   0.5634757   0.0000000), wk =   0.0014276
        k(  257) = (   0.0000000   0.5656854   0.0000000), wk =   0.0014276
        k(  258) = (   0.0000000   0.5678951   0.0000000), wk =   0.0014276
        k(  259) = (   0.0000000   0.5701048   0.0000000), wk =   0.0014276
        k(  260) = (   0.0000000   0.5723146   0.0000000), wk =   0.0014276
        k(  261) = (   0.0000000   0.5745243   0.0000000), wk =   0.0014276
        k(  262) = (   0.0000000   0.5767340   0.0000000), wk =   0.0014276
        k(  263) = (   0.0000000   0.5789437   0.0000000), wk =   0.0014276
        k(  264) = (   0.0000000   0.5811534   0.0000000), wk =   0.0014276
        k(  265) = (   0.0000000   0.5833631   0.0000000), wk =   0.0014276
        k(  266) = (   0.0000000   0.5855728   0.0000000), wk =   0.0014276
        k(  267) = (   0.0000000   0.5877825   0.0000000), wk =   0.0014276
        k(  268) = (   0.0000000   0.5899922   0.0000000), wk =   0.0014276
        k(  269) = (   0.0000000   0.5922019   0.0000000), wk =   0.0014276
        k(  270) = (   0.0000000   0.5944116   0.0000000), wk =   0.0014276
        k(  271) = (   0.0000000   0.5966213   0.0000000), wk =   0.0014276
        k(  272) = (   0.0000000   0.5988311   0.0000000), wk =   0.0014276
        k(  273) = (   0.0000000   0.6010408   0.0000000), wk =   0.0014276
        k(  274) = (   0.0000000   0.6032505   0.0000000), wk =   0.0014276
        k(  275) = (   0.0000000   0.6054602   0.0000000), wk =   0.0014276
        k(  276) = (   0.0000000   0.6076699   0.0000000), wk =   0.0014276
        k(  277) = (   0.0000000   0.6098796   0.0000000), wk =   0.0014276
        k(  278) = (   0.0000000   0.6120893   0.0000000), wk =   0.0014276
        k(  279) = (   0.0000000   0.6142990   0.0000000), wk =   0.0014276
        k(  280) = (   0.0000000   0.6165087   0.0000000), wk =   0.0014276
        k(  281) = (   0.0000000   0.6187184   0.0000000), wk =   0.0014276
        k(  282) = (   0.0000000   0.6209281   0.0000000), wk =   0.0014276
        k(  283) = (   0.0000000   0.6231379   0.0000000), wk =   0.0014276
        k(  284) = (   0.0000000   0.6253476   0.0000000), wk =   0.0014276
        k(  285) = (   0.0000000   0.6275573   0.0000000), wk =   0.0014276
        k(  286) = (   0.0000000   0.6297670   0.0000000), wk =   0.0014276
        k(  287) = (   0.0000000   0.6319767   0.0000000), wk =   0.0014276
        k(  288) = (   0.0000000   0.6341864   0.0000000), wk =   0.0014276
        k(  289) = (   0.0000000   0.6363961   0.0000000), wk =   0.0014276
        k(  290) = (   0.0000000   0.6386058   0.0000000), wk =   0.0014276
        k(  291) = (   0.0000000   0.6408155   0.0000000), wk =   0.0014276
        k(  292) = (   0.0000000   0.6430252   0.0000000), wk =   0.0014276
        k(  293) = (   0.0000000   0.6452349   0.0000000), wk =   0.0014276
        k(  294) = (   0.0000000   0.6474446   0.0000000), wk =   0.0014276
        k(  295) = (   0.0000000   0.6496544   0.0000000), wk =   0.0014276
        k(  296) = (   0.0000000   0.6518641   0.0000000), wk =   0.0014276
        k(  297) = (   0.0000000   0.6540738   0.0000000), wk =   0.0014276
        k(  298) = (   0.0000000   0.6562835   0.0000000), wk =   0.0014276
        k(  299) = (   0.0000000   0.6584932   0.0000000), wk =   0.0014276
        k(  300) = (   0.0000000   0.6607029   0.0000000), wk =   0.0014276
        k(  301) = (   0.0000000   0.6629126   0.0000000), wk =   0.0014276
        k(  302) = (   0.0000000   0.6651223   0.0000000), wk =   0.0014276
        k(  303) = (   0.0000000   0.6673320   0.0000000), wk =   0.0014276
        k(  304) = (   0.0000000   0.6695417   0.0000000), wk =   0.0014276
        k(  305) = (   0.0000000   0.6717514   0.0000000), wk =   0.0014276
        k(  306) = (   0.0000000   0.6739612   0.0000000), wk =   0.0014276
        k(  307) = (   0.0000000   0.6761709   0.0000000), wk =   0.0014276
        k(  308) = (   0.0000000   0.6783806   0.0000000), wk =   0.0014276
        k(  309) = (   0.0000000   0.6805903   0.0000000), wk =   0.0014276
        k(  310) = (   0.0000000   0.6828000   0.0000000), wk =   0.0014276
        k(  311) = (   0.0000000   0.6850097   0.0000000), wk =   0.0014276
        k(  312) = (   0.0000000   0.6872194   0.0000000), wk =   0.0014276
        k(  313) = (   0.0000000   0.6894291   0.0000000), wk =   0.0014276
        k(  314) = (   0.0000000   0.6916388   0.0000000), wk =   0.0014276
        k(  315) = (   0.0000000   0.6938485   0.0000000), wk =   0.0014276
        k(  316) = (   0.0000000   0.6960582   0.0000000), wk =   0.0014276
        k(  317) = (   0.0000000   0.6982679   0.0000000), wk =   0.0014276
        k(  318) = (   0.0000000   0.7004777   0.0000000), wk =   0.0014276
        k(  319) = (   0.0000000   0.7026874   0.0000000), wk =   0.0014276
        k(  320) = (   0.0000000   0.7048971   0.0000000), wk =   0.0014276
        k(  321) = (   0.0000000   0.7071068   0.0000000), wk =   0.0014276
        k(  322) = (   0.0022097   0.7071068   0.0022097), wk =   0.0014276
        k(  323) = (   0.0044194   0.7071068   0.0044194), wk =   0.0014276
        k(  324) = (   0.0066291   0.7071068   0.0066291), wk =   0.0014276
        k(  325) = (   0.0088388   0.7071068   0.0088388), wk =   0.0014276
        k(  326) = (   0.0110485   0.7071068   0.0110485), wk =   0.0014276
        k(  327) = (   0.0132583   0.7071068   0.0132583), wk =   0.0014276
        k(  328) = (   0.0154680   0.7071068   0.0154680), wk =   0.0014276
        k(  329) = (   0.0176777   0.7071068   0.0176777), wk =   0.0014276
        k(  330) = (   0.0198874   0.7071068   0.0198874), wk =   0.0014276
        k(  331) = (   0.0220971   0.7071068   0.0220971), wk =   0.0014276
        k(  332) = (   0.0243068   0.7071068   0.0243068), wk =   0.0014276
        k(  333) = (   0.0265165   0.7071068   0.0265165), wk =   0.0014276
        k(  334) = (   0.0287262   0.7071068   0.0287262), wk =   0.0014276
        k(  335) = (   0.0309359   0.7071068   0.0309359), wk =   0.0014276
        k(  336) = (   0.0331456   0.7071068   0.0331456), wk =   0.0014276
        k(  337) = (   0.0353553   0.7071068   0.0353553), wk =   0.0014276
        k(  338) = (   0.0375650   0.7071068   0.0375650), wk =   0.0014276
        k(  339) = (   0.0397748   0.7071068   0.0397748), wk =   0.0014276
        k(  340) = (   0.0419845   0.7071068   0.0419845), wk =   0.0014276
        k(  341) = (   0.0441942   0.7071068   0.0441942), wk =   0.0014276
        k(  342) = (   0.0464039   0.7071068   0.0464039), wk =   0.0014276
        k(  343) = (   0.0486136   0.7071068   0.0486136), wk =   0.0014276
        k(  344) = (   0.0508233   0.7071068   0.0508233), wk =   0.0014276
        k(  345) = (   0.0530330   0.7071068   0.0530330), wk =   0.0014276
        k(  346) = (   0.0552427   0.7071068   0.0552427), wk =   0.0014276
        k(  347) = (   0.0574524   0.7071068   0.0574524), wk =   0.0014276
        k(  348) = (   0.0596621   0.7071068   0.0596621), wk =   0.0014276
        k(  349) = (   0.0618718   0.7071068   0.0618718), wk =   0.0014276
        k(  350) = (   0.0640816   0.7071068   0.0640816), wk =   0.0014276
        k(  351) = (   0.0662913   0.7071068   0.0662913), wk =   0.0014276
        k(  352) = (   0.0685010   0.7071068   0.0685010), wk =   0.0014276
        k(  353) = (   0.0707107   0.7071068   0.0707107), wk =   0.0014276
        k(  354) = (   0.0729204   0.7071068   0.0729204), wk =   0.0014276
        k(  355) = (   0.0751301   0.7071068   0.0751301), wk =   0.0014276
        k(  356) = (   0.0773398   0.7071068   0.0773398), wk =   0.0014276
        k(  357) = (   0.0795495   0.7071068   0.0795495), wk =   0.0014276
        k(  358) = (   0.0817592   0.7071068   0.0817592), wk =   0.0014276
        k(  359) = (   0.0839689   0.7071068   0.0839689), wk =   0.0014276
        k(  360) = (   0.0861786   0.7071068   0.0861786), wk =   0.0014276
        k(  361) = (   0.0883883   0.7071068   0.0883883), wk =   0.0014276
        k(  362) = (   0.0905981   0.7071068   0.0905981), wk =   0.0014276
        k(  363) = (   0.0928078   0.7071068   0.0928078), wk =   0.0014276
        k(  364) = (   0.0950175   0.7071068   0.0950175), wk =   0.0014276
        k(  365) = (   0.0972272   0.7071068   0.0972272), wk =   0.0014276
        k(  366) = (   0.0994369   0.7071068   0.0994369), wk =   0.0014276
        k(  367) = (   0.1016466   0.7071068   0.1016466), wk =   0.0014276
        k(  368) = (   0.1038563   0.7071068   0.1038563), wk =   0.0014276
        k(  369) = (   0.1060660   0.7071068   0.1060660), wk =   0.0014276
        k(  370) = (   0.1082757   0.7071068   0.1082757), wk =   0.0014276
        k(  371) = (   0.1104854   0.7071068   0.1104854), wk =   0.0014276
        k(  372) = (   0.1126951   0.7071068   0.1126951), wk =   0.0014276
        k(  373) = (   0.1149049   0.7071068   0.1149049), wk =   0.0014276
        k(  374) = (   0.1171146   0.7071068   0.1171146), wk =   0.0014276
        k(  375) = (   0.1193243   0.7071068   0.1193243), wk =   0.0014276
        k(  376) = (   0.1215340   0.7071068   0.1215340), wk =   0.0014276
        k(  377) = (   0.1237437   0.7071068   0.1237437), wk =   0.0014276
        k(  378) = (   0.1259534   0.7071068   0.1259534), wk =   0.0014276
        k(  379) = (   0.1281631   0.7071068   0.1281631), wk =   0.0014276
        k(  380) = (   0.1303728   0.7071068   0.1303728), wk =   0.0014276
        k(  381) = (   0.1325825   0.7071068   0.1325825), wk =   0.0014276
        k(  382) = (   0.1347922   0.7071068   0.1347922), wk =   0.0014276
        k(  383) = (   0.1370019   0.7071068   0.1370019), wk =   0.0014276
        k(  384) = (   0.1392116   0.7071068   0.1392116), wk =   0.0014276
        k(  385) = (   0.1414214   0.7071068   0.1414214), wk =   0.0014276
        k(  386) = (   0.1436311   0.7071068   0.1436311), wk =   0.0014276
        k(  387) = (   0.1458408   0.7071068   0.1458408), wk =   0.0014276
        k(  388) = (   0.1480505   0.7071068   0.1480505), wk =   0.0014276
        k(  389) = (   0.1502602   0.7071068   0.1502602), wk =   0.0014276
        k(  390) = (   0.1524699   0.7071068   0.1524699), wk =   0.0014276
        k(  391) = (   0.1546796   0.7071068   0.1546796), wk =   0.0014276
        k(  392) = (   0.1568893   0.7071068   0.1568893), wk =   0.0014276
        k(  393) = (   0.1590990   0.7071068   0.1590990), wk =   0.0014276
        k(  394) = (   0.1613087   0.7071068   0.1613087), wk =   0.0014276
        k(  395) = (   0.1635184   0.7071068   0.1635184), wk =   0.0014276
        k(  396) = (   0.1657282   0.7071068   0.1657282), wk =   0.0014276
        k(  397) = (   0.1679379   0.7071068   0.1679379), wk =   0.0014276
        k(  398) = (   0.1701476   0.7071068   0.1701476), wk =   0.0014276
        k(  399) = (   0.1723573   0.7071068   0.1723573), wk =   0.0014276
        k(  400) = (   0.1745670   0.7071068   0.1745670), wk =   0.0014276
        k(  401) = (   0.1767767   0.7071068   0.1767767), wk =   0.0014276
        k(  402) = (   0.1856155   0.7026874   0.1723573), wk =   0.0014276
        k(  403) = (   0.1944544   0.6982679   0.1679379), wk =   0.0014276
        k(  404) = (   0.2032932   0.6938485   0.1635184), wk =   0.0014276
        k(  405) = (   0.2121320   0.6894291   0.1590990), wk =   0.0014276
        k(  406) = (   0.2209709   0.6850097   0.1546796), wk =   0.0014276
        k(  407) = (   0.2298097   0.6805903   0.1502602), wk =   0.0014276
        k(  408) = (   0.2386485   0.6761709   0.1458408), wk =   0.0014276
        k(  409) = (   0.2474874   0.6717514   0.1414214), wk =   0.0014276
        k(  410) = (   0.2563262   0.6673320   0.1370019), wk =   0.0014276
        k(  411) = (   0.2651650   0.6629126   0.1325825), wk =   0.0014276
        k(  412) = (   0.2740039   0.6584932   0.1281631), wk =   0.0014276
        k(  413) = (   0.2828427   0.6540738   0.1237437), wk =   0.0014276
        k(  414) = (   0.2916815   0.6496544   0.1193243), wk =   0.0014276
        k(  415) = (   0.3005204   0.6452349   0.1149049), wk =   0.0014276
        k(  416) = (   0.3093592   0.6408155   0.1104854), wk =   0.0014276
        k(  417) = (   0.3181981   0.6363961   0.1060660), wk =   0.0014276
        k(  418) = (   0.3270369   0.6319767   0.1016466), wk =   0.0014276
        k(  419) = (   0.3358757   0.6275573   0.0972272), wk =   0.0014276
        k(  420) = (   0.3447146   0.6231379   0.0928078), wk =   0.0014276
        k(  421) = (   0.3535534   0.6187184   0.0883883), wk =   0.0014276
        k(  422) = (   0.3623922   0.6142990   0.0839689), wk =   0.0014276
        k(  423) = (   0.3712311   0.6098796   0.0795495), wk =   0.0014276
        k(  424) = (   0.3800699   0.6054602   0.0751301), wk =   0.0014276
        k(  425) = (   0.3889087   0.6010408   0.0707107), wk =   0.0014276
        k(  426) = (   0.3977476   0.5966213   0.0662913), wk =   0.0014276
        k(  427) = (   0.4065864   0.5922019   0.0618718), wk =   0.0014276
        k(  428) = (   0.4154252   0.5877825   0.0574524), wk =   0.0014276
        k(  429) = (   0.4242641   0.5833631   0.0530330), wk =   0.0014276
        k(  430) = (   0.4331029   0.5789437   0.0486136), wk =   0.0014276
        k(  431) = (   0.4419417   0.5745243   0.0441942), wk =   0.0014276
        k(  432) = (   0.4507806   0.5701048   0.0397748), wk =   0.0014276
        k(  433) = (   0.4596194   0.5656854   0.0353553), wk =   0.0014276
        k(  434) = (   0.4684582   0.5612660   0.0309359), wk =   0.0014276
        k(  435) = (   0.4772971   0.5568466   0.0265165), wk =   0.0014276
        k(  436) = (   0.4861359   0.5524272   0.0220971), wk =   0.0014276
        k(  437) = (   0.4949747   0.5480078   0.0176777), wk =   0.0014276
        k(  438) = (   0.5038136   0.5435883   0.0132583), wk =   0.0014276
        k(  439) = (   0.5126524   0.5391689   0.0088388), wk =   0.0014276
        k(  440) = (   0.5214913   0.5347495   0.0044194), wk =   0.0014276
        k(  441) = (   0.5303301   0.5303301   0.0000000), wk =   0.0014276
        k(  442) = (   0.5288569   0.5288569  -0.0000000), wk =   0.0014276
        k(  443) = (   0.5273838   0.5273838   0.0000000), wk =   0.0014276
        k(  444) = (   0.5259107   0.5259107   0.0000000), wk =   0.0014276
        k(  445) = (   0.5244375   0.5244375  -0.0000000), wk =   0.0014276
        k(  446) = (   0.5229644   0.5229644   0.0000000), wk =   0.0014276
        k(  447) = (   0.5214913   0.5214913   0.0000000), wk =   0.0014276
        k(  448) = (   0.5200181   0.5200181  -0.0000000), wk =   0.0014276
        k(  449) = (   0.5185450   0.5185450   0.0000000), wk =   0.0014276
        k(  450) = (   0.5170718   0.5170718   0.0000000), wk =   0.0014276
        k(  451) = (   0.5155987   0.5155987  -0.0000000), wk =   0.0014276
        k(  452) = (   0.5141256   0.5141256   0.0000000), wk =   0.0014276
        k(  453) = (   0.5126524   0.5126524   0.0000000), wk =   0.0014276
        k(  454) = (   0.5111793   0.5111793  -0.0000000), wk =   0.0014276
        k(  455) = (   0.5097061   0.5097061   0.0000000), wk =   0.0014276
        k(  456) = (   0.5082330   0.5082330   0.0000000), wk =   0.0014276
        k(  457) = (   0.5067599   0.5067599  -0.0000000), wk =   0.0014276
        k(  458) = (   0.5052867   0.5052867   0.0000000), wk =   0.0014276
        k(  459) = (   0.5038136   0.5038136   0.0000000), wk =   0.0014276
        k(  460) = (   0.5023404   0.5023404  -0.0000000), wk =   0.0014276
        k(  461) = (   0.5008673   0.5008673   0.0000000), wk =   0.0014276
        k(  462) = (   0.4993942   0.4993942   0.0000000), wk =   0.0014276
        k(  463) = (   0.4979210   0.4979210  -0.0000000), wk =   0.0014276
        k(  464) = (   0.4964479   0.4964479   0.0000000), wk =   0.0014276
        k(  465) = (   0.4949747   0.4949747   0.0000000), wk =   0.0014276
        k(  466) = (   0.4935016   0.4935016  -0.0000000), wk =   0.0014276
        k(  467) = (   0.4920285   0.4920285   0.0000000), wk =   0.0014276
        k(  468) = (   0.4905553   0.4905553   0.0000000), wk =   0.0014276
        k(  469) = (   0.4890822   0.4890822  -0.0000000), wk =   0.0014276
        k(  470) = (   0.4876091   0.4876091   0.0000000), wk =   0.0014276
        k(  471) = (   0.4861359   0.4861359   0.0000000), wk =   0.0014276
        k(  472) = (   0.4846628   0.4846628  -0.0000000), wk =   0.0014276
        k(  473) = (   0.4831896   0.4831896   0.0000000), wk =   0.0014276
        k(  474) = (   0.4817165   0.4817165   0.0000000), wk =   0.0014276
        k(  475) = (   0.4802434   0.4802434  -0.0000000), wk =   0.0014276
        k(  476) = (   0.4787702   0.4787702   0.0000000), wk =   0.0014276
        k(  477) = (   0.4772971   0.4772971   0.0000000), wk =   0.0014276
        k(  478) = (   0.4758239   0.4758239  -0.0000000), wk =   0.0014276
        k(  479) = (   0.4743508   0.4743508   0.0000000), wk =   0.0014276
        k(  480) = (   0.4728777   0.4728777   0.0000000), wk =   0.0014276
        k(  481) = (   0.4714045   0.4714045  -0.0000000), wk =   0.0014276
        k(  482) = (   0.4699314   0.4699314   0.0000000), wk =   0.0014276
        k(  483) = (   0.4684582   0.4684582   0.0000000), wk =   0.0014276
        k(  484) = (   0.4669851   0.4669851  -0.0000000), wk =   0.0014276
        k(  485) = (   0.4655120   0.4655120   0.0000000), wk =   0.0014276
        k(  486) = (   0.4640388   0.4640388   0.0000000), wk =   0.0014276
        k(  487) = (   0.4625657   0.4625657  -0.0000000), wk =   0.0014276
        k(  488) = (   0.4610925   0.4610925   0.0000000), wk =   0.0014276
        k(  489) = (   0.4596194   0.4596194   0.0000000), wk =   0.0014276
        k(  490) = (   0.4581463   0.4581463  -0.0000000), wk =   0.0014276
        k(  491) = (   0.4566731   0.4566731   0.0000000), wk =   0.0014276
        k(  492) = (   0.4552000   0.4552000   0.0000000), wk =   0.0014276
        k(  493) = (   0.4537269   0.4537269  -0.0000000), wk =   0.0014276
        k(  494) = (   0.4522537   0.4522537   0.0000000), wk =   0.0014276
        k(  495) = (   0.4507806   0.4507806   0.0000000), wk =   0.0014276
        k(  496) = (   0.4493074   0.4493074  -0.0000000), wk =   0.0014276
        k(  497) = (   0.4478343   0.4478343   0.0000000), wk =   0.0014276
        k(  498) = (   0.4463612   0.4463612   0.0000000), wk =   0.0014276
        k(  499) = (   0.4448880   0.4448880  -0.0000000), wk =   0.0014276
        k(  500) = (   0.4434149   0.4434149   0.0000000), wk =   0.0014276
        k(  501) = (   0.4419417   0.4419417   0.0000000), wk =   0.0014276
        k(  502) = (   0.4404686   0.4404686  -0.0000000), wk =   0.0014276
        k(  503) = (   0.4389955   0.4389955   0.0000000), wk =   0.0014276
        k(  504) = (   0.4375223   0.4375223   0.0000000), wk =   0.0014276
        k(  505) = (   0.4360492   0.4360492  -0.0000000), wk =   0.0014276
        k(  506) = (   0.4345760   0.4345760   0.0000000), wk =   0.0014276
        k(  507) = (   0.4331029   0.4331029   0.0000000), wk =   0.0014276
        k(  508) = (   0.4316298   0.4316298  -0.0000000), wk =   0.0014276
        k(  509) = (   0.4301566   0.4301566   0.0000000), wk =   0.0014276
        k(  510) = (   0.4286835   0.4286835   0.0000000), wk =   0.0014276
        k(  511) = (   0.4272103   0.4272103  -0.0000000), wk =   0.0014276
        k(  512) = (   0.4257372   0.4257372   0.0000000), wk =   0.0014276
        k(  513) = (   0.4242641   0.4242641   0.0000000), wk =   0.0014276
        k(  514) = (   0.4227909   0.4227909  -0.0000000), wk =   0.0014276
        k(  515) = (   0.4213178   0.4213178   0.0000000), wk =   0.0014276
        k(  516) = (   0.4198447   0.4198447   0.0000000), wk =   0.0014276
        k(  517) = (   0.4183715   0.4183715  -0.0000000), wk =   0.0014276
        k(  518) = (   0.4168984   0.4168984   0.0000000), wk =   0.0014276
        k(  519) = (   0.4154252   0.4154252   0.0000000), wk =   0.0014276
        k(  520) = (   0.4139521   0.4139521  -0.0000000), wk =   0.0014276
        k(  521) = (   0.4124790   0.4124790   0.0000000), wk =   0.0014276
        k(  522) = (   0.4110058   0.4110058   0.0000000), wk =   0.0014276
        k(  523) = (   0.4095327   0.4095327  -0.0000000), wk =   0.0014276
        k(  524) = (   0.4080595   0.4080595   0.0000000), wk =   0.0014276
        k(  525) = (   0.4065864   0.4065864   0.0000000), wk =   0.0014276
        k(  526) = (   0.4051133   0.4051133  -0.0000000), wk =   0.0014276
        k(  527) = (   0.4036401   0.4036401   0.0000000), wk =   0.0014276
        k(  528) = (   0.4021670   0.4021670   0.0000000), wk =   0.0014276
        k(  529) = (   0.4006938   0.4006938  -0.0000000), wk =   0.0014276
        k(  530) = (   0.3992207   0.3992207   0.0000000), wk =   0.0014276
        k(  531) = (   0.3977476   0.3977476   0.0000000), wk =   0.0014276
        k(  532) = (   0.3962744   0.3962744  -0.0000000), wk =   0.0014276
        k(  533) = (   0.3948013   0.3948013   0.0000000), wk =   0.0014276
        k(  534) = (   0.3933281   0.3933281   0.0000000), wk =   0.0014276
        k(  535) = (   0.3918550   0.3918550  -0.0000000), wk =   0.0014276
        k(  536) = (   0.3903819   0.3903819   0.0000000), wk =   0.0014276
        k(  537) = (   0.3889087   0.3889087   0.0000000), wk =   0.0014276
        k(  538) = (   0.3874356   0.3874356  -0.0000000), wk =   0.0014276
        k(  539) = (   0.3859625   0.3859625   0.0000000), wk =   0.0014276
        k(  540) = (   0.3844893   0.3844893   0.0000000), wk =   0.0014276
        k(  541) = (   0.3830162   0.3830162  -0.0000000), wk =   0.0014276
        k(  542) = (   0.3815430   0.3815430   0.0000000), wk =   0.0014276
        k(  543) = (   0.3800699   0.3800699   0.0000000), wk =   0.0014276
        k(  544) = (   0.3785968   0.3785968  -0.0000000), wk =   0.0014276
        k(  545) = (   0.3771236   0.3771236   0.0000000), wk =   0.0014276
        k(  546) = (   0.3756505   0.3756505   0.0000000), wk =   0.0014276
        k(  547) = (   0.3741773   0.3741773  -0.0000000), wk =   0.0014276
        k(  548) = (   0.3727042   0.3727042   0.0000000), wk =   0.0014276
        k(  549) = (   0.3712311   0.3712311   0.0000000), wk =   0.0014276
        k(  550) = (   0.3697579   0.3697579  -0.0000000), wk =   0.0014276
        k(  551) = (   0.3682848   0.3682848   0.0000000), wk =   0.0014276
        k(  552) = (   0.3668116   0.3668116   0.0000000), wk =   0.0014276
        k(  553) = (   0.3653385   0.3653385  -0.0000000), wk =   0.0014276
        k(  554) = (   0.3638654   0.3638654   0.0000000), wk =   0.0014276
        k(  555) = (   0.3623922   0.3623922   0.0000000), wk =   0.0014276
        k(  556) = (   0.3609191   0.3609191  -0.0000000), wk =   0.0014276
        k(  557) = (   0.3594459   0.3594459   0.0000000), wk =   0.0014276
        k(  558) = (   0.3579728   0.3579728   0.0000000), wk =   0.0014276
        k(  559) = (   0.3564997   0.3564997  -0.0000000), wk =   0.0014276
        k(  560) = (   0.3550265   0.3550265   0.0000000), wk =   0.0014276
        k(  561) = (   0.3535534   0.3535534   0.0000000), wk =   0.0014276
        k(  562) = (   0.3520803   0.3520803  -0.0000000), wk =   0.0014276
        k(  563) = (   0.3506071   0.3506071   0.0000000), wk =   0.0014276
        k(  564) = (   0.3491340   0.3491340   0.0000000), wk =   0.0014276
        k(  565) = (   0.3476608   0.3476608  -0.0000000), wk =   0.0014276
        k(  566) = (   0.3461877   0.3461877   0.0000000), wk =   0.0014276
        k(  567) = (   0.3447146   0.3447146   0.0000000), wk =   0.0014276
        k(  568) = (   0.3432414   0.3432414  -0.0000000), wk =   0.0014276
        k(  569) = (   0.3417683   0.3417683   0.0000000), wk =   0.0014276
        k(  570) = (   0.3402951   0.3402951   0.0000000), wk =   0.0014276
        k(  571) = (   0.3388220   0.3388220  -0.0000000), wk =   0.0014276
        k(  572) = (   0.3373489   0.3373489   0.0000000), wk =   0.0014276
        k(  573) = (   0.3358757   0.3358757   0.0000000), wk =   0.0014276
        k(  574) = (   0.3344026   0.3344026  -0.0000000), wk =   0.0014276
        k(  575) = (   0.3329294   0.3329294   0.0000000), wk =   0.0014276
        k(  576) = (   0.3314563   0.3314563   0.0000000), wk =   0.0014276
        k(  577) = (   0.3299832   0.3299832  -0.0000000), wk =   0.0014276
        k(  578) = (   0.3285100   0.3285100   0.0000000), wk =   0.0014276
        k(  579) = (   0.3270369   0.3270369   0.0000000), wk =   0.0014276
        k(  580) = (   0.3255637   0.3255637  -0.0000000), wk =   0.0014276
        k(  581) = (   0.3240906   0.3240906   0.0000000), wk =   0.0014276
        k(  582) = (   0.3226175   0.3226175   0.0000000), wk =   0.0014276
        k(  583) = (   0.3211443   0.3211443  -0.0000000), wk =   0.0014276
        k(  584) = (   0.3196712   0.3196712   0.0000000), wk =   0.0014276
        k(  585) = (   0.3181981   0.3181981   0.0000000), wk =   0.0014276
        k(  586) = (   0.3167249   0.3167249  -0.0000000), wk =   0.0014276
        k(  587) = (   0.3152518   0.3152518   0.0000000), wk =   0.0014276
        k(  588) = (   0.3137786   0.3137786   0.0000000), wk =   0.0014276
        k(  589) = (   0.3123055   0.3123055  -0.0000000), wk =   0.0014276
        k(  590) = (   0.3108324   0.3108324   0.0000000), wk =   0.0014276
        k(  591) = (   0.3093592   0.3093592   0.0000000), wk =   0.0014276
        k(  592) = (   0.3078861   0.3078861  -0.0000000), wk =   0.0014276
        k(  593) = (   0.3064129   0.3064129   0.0000000), wk =   0.0014276
        k(  594) = (   0.3049398   0.3049398   0.0000000), wk =   0.0014276
        k(  595) = (   0.3034667   0.3034667  -0.0000000), wk =   0.0014276
        k(  596) = (   0.3019935   0.3019935   0.0000000), wk =   0.0014276
        k(  597) = (   0.3005204   0.3005204   0.0000000), wk =   0.0014276
        k(  598) = (   0.2990472   0.2990472  -0.0000000), wk =   0.0014276
        k(  599) = (   0.2975741   0.2975741   0.0000000), wk =   0.0014276
        k(  600) = (   0.2961010   0.2961010   0.0000000), wk =   0.0014276
        k(  601) = (   0.2946278   0.2946278  -0.0000000), wk =   0.0014276
        k(  602) = (   0.2931547   0.2931547   0.0000000), wk =   0.0014276
        k(  603) = (   0.2916815   0.2916815   0.0000000), wk =   0.0014276
        k(  604) = (   0.2902084   0.2902084  -0.0000000), wk =   0.0014276
        k(  605) = (   0.2887353   0.2887353   0.0000000), wk =   0.0014276
        k(  606) = (   0.2872621   0.2872621   0.0000000), wk =   0.0014276
        k(  607) = (   0.2857890   0.2857890  -0.0000000), wk =   0.0014276
        k(  608) = (   0.2843159   0.2843159   0.0000000), wk =   0.0014276
        k(  609) = (   0.2828427   0.2828427   0.0000000), wk =   0.0014276
        k(  610) = (   0.2813696   0.2813696  -0.0000000), wk =   0.0014276
        k(  611) = (   0.2798964   0.2798964   0.0000000), wk =   0.0014276
        k(  612) = (   0.2784233   0.2784233   0.0000000), wk =   0.0014276
        k(  613) = (   0.2769502   0.2769502  -0.0000000), wk =   0.0014276
        k(  614) = (   0.2754770   0.2754770   0.0000000), wk =   0.0014276
        k(  615) = (   0.2740039   0.2740039   0.0000000), wk =   0.0014276
        k(  616) = (   0.2725307   0.2725307  -0.0000000), wk =   0.0014276
        k(  617) = (   0.2710576   0.2710576   0.0000000), wk =   0.0014276
        k(  618) = (   0.2695845   0.2695845   0.0000000), wk =   0.0014276
        k(  619) = (   0.2681113   0.2681113  -0.0000000), wk =   0.0014276
        k(  620) = (   0.2666382   0.2666382   0.0000000), wk =   0.0014276
        k(  621) = (   0.2651650   0.2651650   0.0000000), wk =   0.0014276
        k(  622) = (   0.2636919   0.2636919  -0.0000000), wk =   0.0014276
        k(  623) = (   0.2622188   0.2622188   0.0000000), wk =   0.0014276
        k(  624) = (   0.2607456   0.2607456   0.0000000), wk =   0.0014276
        k(  625) = (   0.2592725   0.2592725  -0.0000000), wk =   0.0014276
        k(  626) = (   0.2577993   0.2577993   0.0000000), wk =   0.0014276
        k(  627) = (   0.2563262   0.2563262   0.0000000), wk =   0.0014276
        k(  628) = (   0.2548531   0.2548531  -0.0000000), wk =   0.0014276
        k(  629) = (   0.2533799   0.2533799   0.0000000), wk =   0.0014276
        k(  630) = (   0.2519068   0.2519068   0.0000000), wk =   0.0014276
        k(  631) = (   0.2504337   0.2504337  -0.0000000), wk =   0.0014276
        k(  632) = (   0.2489605   0.2489605   0.0000000), wk =   0.0014276
        k(  633) = (   0.2474874   0.2474874   0.0000000), wk =   0.0014276
        k(  634) = (   0.2460142   0.2460142  -0.0000000), wk =   0.0014276
        k(  635) = (   0.2445411   0.2445411   0.0000000), wk =   0.0014276
        k(  636) = (   0.2430680   0.2430680   0.0000000), wk =   0.0014276
        k(  637) = (   0.2415948   0.2415948  -0.0000000), wk =   0.0014276
        k(  638) = (   0.2401217   0.2401217   0.0000000), wk =   0.0014276
        k(  639) = (   0.2386485   0.2386485   0.0000000), wk =   0.0014276
        k(  640) = (   0.2371754   0.2371754  -0.0000000), wk =   0.0014276
        k(  641) = (   0.2357023   0.2357023   0.0000000), wk =   0.0014276
        k(  642) = (   0.2342291   0.2342291   0.0000000), wk =   0.0014276
        k(  643) = (   0.2327560   0.2327560  -0.0000000), wk =   0.0014276
        k(  644) = (   0.2312828   0.2312828   0.0000000), wk =   0.0014276
        k(  645) = (   0.2298097   0.2298097   0.0000000), wk =   0.0014276
        k(  646) = (   0.2283366   0.2283366  -0.0000000), wk =   0.0014276
        k(  647) = (   0.2268634   0.2268634   0.0000000), wk =   0.0014276
        k(  648) = (   0.2253903   0.2253903   0.0000000), wk =   0.0014276
        k(  649) = (   0.2239171   0.2239171  -0.0000000), wk =   0.0014276
        k(  650) = (   0.2224440   0.2224440   0.0000000), wk =   0.0014276
        k(  651) = (   0.2209709   0.2209709   0.0000000), wk =   0.0014276
        k(  652) = (   0.2194977   0.2194977  -0.0000000), wk =   0.0014276
        k(  653) = (   0.2180246   0.2180246   0.0000000), wk =   0.0014276
        k(  654) = (   0.2165515   0.2165515   0.0000000), wk =   0.0014276
        k(  655) = (   0.2150783   0.2150783  -0.0000000), wk =   0.0014276
        k(  656) = (   0.2136052   0.2136052   0.0000000), wk =   0.0014276
        k(  657) = (   0.2121320   0.2121320   0.0000000), wk =   0.0014276
        k(  658) = (   0.2106589   0.2106589  -0.0000000), wk =   0.0014276
        k(  659) = (   0.2091858   0.2091858   0.0000000), wk =   0.0014276
        k(  660) = (   0.2077126   0.2077126   0.0000000), wk =   0.0014276
        k(  661) = (   0.2062395   0.2062395  -0.0000000), wk =   0.0014276
        k(  662) = (   0.2047663   0.2047663   0.0000000), wk =   0.0014276
        k(  663) = (   0.2032932   0.2032932   0.0000000), wk =   0.0014276
        k(  664) = (   0.2018201   0.2018201  -0.0000000), wk =   0.0014276
        k(  665) = (   0.2003469   0.2003469   0.0000000), wk =   0.0014276
        k(  666) = (   0.1988738   0.1988738   0.0000000), wk =   0.0014276
        k(  667) = (   0.1974006   0.1974006  -0.0000000), wk =   0.0014276
        k(  668) = (   0.1959275   0.1959275   0.0000000), wk =   0.0014276
        k(  669) = (   0.1944544   0.1944544   0.0000000), wk =   0.0014276
        k(  670) = (   0.1929812   0.1929812  -0.0000000), wk =   0.0014276
        k(  671) = (   0.1915081   0.1915081   0.0000000), wk =   0.0014276
        k(  672) = (   0.1900349   0.1900349   0.0000000), wk =   0.0014276
        k(  673) = (   0.1885618   0.1885618  -0.0000000), wk =   0.0014276
        k(  674) = (   0.1870887   0.1870887   0.0000000), wk =   0.0014276
        k(  675) = (   0.1856155   0.1856155   0.0000000), wk =   0.0014276
        k(  676) = (   0.1841424   0.1841424  -0.0000000), wk =   0.0014276
        k(  677) = (   0.1826693   0.1826693   0.0000000), wk =   0.0014276
        k(  678) = (   0.1811961   0.1811961   0.0000000), wk =   0.0014276
        k(  679) = (   0.1797230   0.1797230  -0.0000000), wk =   0.0014276
        k(  680) = (   0.1782498   0.1782498   0.0000000), wk =   0.0014276
        k(  681) = (   0.1767767   0.1767767   0.0000000), wk =   0.0014276
        k(  682) = (   0.1753036   0.1753036  -0.0000000), wk =   0.0014276
        k(  683) = (   0.1738304   0.1738304   0.0000000), wk =   0.0014276
        k(  684) = (   0.1723573   0.1723573   0.0000000), wk =   0.0014276
        k(  685) = (   0.1708841   0.1708841  -0.0000000), wk =   0.0014276
        k(  686) = (   0.1694110   0.1694110   0.0000000), wk =   0.0014276
        k(  687) = (   0.1679379   0.1679379   0.0000000), wk =   0.0014276
        k(  688) = (   0.1664647   0.1664647  -0.0000000), wk =   0.0014276
        k(  689) = (   0.1649916   0.1649916   0.0000000), wk =   0.0014276
        k(  690) = (   0.1635184   0.1635184   0.0000000), wk =   0.0014276
        k(  691) = (   0.1620453   0.1620453  -0.0000000), wk =   0.0014276
        k(  692) = (   0.1605722   0.1605722   0.0000000), wk =   0.0014276
        k(  693) = (   0.1590990   0.1590990   0.0000000), wk =   0.0014276
        k(  694) = (   0.1576259   0.1576259  -0.0000000), wk =   0.0014276
        k(  695) = (   0.1561527   0.1561527   0.0000000), wk =   0.0014276
        k(  696) = (   0.1546796   0.1546796   0.0000000), wk =   0.0014276
        k(  697) = (   0.1532065   0.1532065  -0.0000000), wk =   0.0014276
        k(  698) = (   0.1517333   0.1517333   0.0000000), wk =   0.0014276
        k(  699) = (   0.1502602   0.1502602   0.0000000), wk =   0.0014276
        k(  700) = (   0.1487871   0.1487871  -0.0000000), wk =   0.0014276
        k(  701) = (   0.1473139   0.1473139   0.0000000), wk =   0.0014276
        k(  702) = (   0.1458408   0.1458408   0.0000000), wk =   0.0014276
        k(  703) = (   0.1443676   0.1443676  -0.0000000), wk =   0.0014276
        k(  704) = (   0.1428945   0.1428945   0.0000000), wk =   0.0014276
        k(  705) = (   0.1414214   0.1414214   0.0000000), wk =   0.0014276
        k(  706) = (   0.1399482   0.1399482  -0.0000000), wk =   0.0014276
        k(  707) = (   0.1384751   0.1384751   0.0000000), wk =   0.0014276
        k(  708) = (   0.1370019   0.1370019   0.0000000), wk =   0.0014276
        k(  709) = (   0.1355288   0.1355288  -0.0000000), wk =   0.0014276
        k(  710) = (   0.1340557   0.1340557   0.0000000), wk =   0.0014276
        k(  711) = (   0.1325825   0.1325825   0.0000000), wk =   0.0014276
        k(  712) = (   0.1311094   0.1311094  -0.0000000), wk =   0.0014276
        k(  713) = (   0.1296362   0.1296362   0.0000000), wk =   0.0014276
        k(  714) = (   0.1281631   0.1281631   0.0000000), wk =   0.0014276
        k(  715) = (   0.1266900   0.1266900  -0.0000000), wk =   0.0014276
        k(  716) = (   0.1252168   0.1252168   0.0000000), wk =   0.0014276
        k(  717) = (   0.1237437   0.1237437   0.0000000), wk =   0.0014276
        k(  718) = (   0.1222705   0.1222705  -0.0000000), wk =   0.0014276
        k(  719) = (   0.1207974   0.1207974   0.0000000), wk =   0.0014276
        k(  720) = (   0.1193243   0.1193243   0.0000000), wk =   0.0014276
        k(  721) = (   0.1178511   0.1178511  -0.0000000), wk =   0.0014276
        k(  722) = (   0.1163780   0.1163780   0.0000000), wk =   0.0014276
        k(  723) = (   0.1149049   0.1149049   0.0000000), wk =   0.0014276
        k(  724) = (   0.1134317   0.1134317  -0.0000000), wk =   0.0014276
        k(  725) = (   0.1119586   0.1119586   0.0000000), wk =   0.0014276
        k(  726) = (   0.1104854   0.1104854   0.0000000), wk =   0.0014276
        k(  727) = (   0.1090123   0.1090123  -0.0000000), wk =   0.0014276
        k(  728) = (   0.1075392   0.1075392   0.0000000), wk =   0.0014276
        k(  729) = (   0.1060660   0.1060660   0.0000000), wk =   0.0014276
        k(  730) = (   0.1045929   0.1045929  -0.0000000), wk =   0.0014276
        k(  731) = (   0.1031197   0.1031197   0.0000000), wk =   0.0014276
        k(  732) = (   0.1016466   0.1016466   0.0000000), wk =   0.0014276
        k(  733) = (   0.1001735   0.1001735  -0.0000000), wk =   0.0014276
        k(  734) = (   0.0987003   0.0987003   0.0000000), wk =   0.0014276
        k(  735) = (   0.0972272   0.0972272   0.0000000), wk =   0.0014276
        k(  736) = (   0.0957540   0.0957540  -0.0000000), wk =   0.0014276
        k(  737) = (   0.0942809   0.0942809   0.0000000), wk =   0.0014276
        k(  738) = (   0.0928078   0.0928078   0.0000000), wk =   0.0014276
        k(  739) = (   0.0913346   0.0913346  -0.0000000), wk =   0.0014276
        k(  740) = (   0.0898615   0.0898615   0.0000000), wk =   0.0014276
        k(  741) = (   0.0883883   0.0883883   0.0000000), wk =   0.0014276
        k(  742) = (   0.0869152   0.0869152  -0.0000000), wk =   0.0014276
        k(  743) = (   0.0854421   0.0854421   0.0000000), wk =   0.0014276
        k(  744) = (   0.0839689   0.0839689   0.0000000), wk =   0.0014276
        k(  745) = (   0.0824958   0.0824958  -0.0000000), wk =   0.0014276
        k(  746) = (   0.0810227   0.0810227   0.0000000), wk =   0.0014276
        k(  747) = (   0.0795495   0.0795495   0.0000000), wk =   0.0014276
        k(  748) = (   0.0780764   0.0780764  -0.0000000), wk =   0.0014276
        k(  749) = (   0.0766032   0.0766032   0.0000000), wk =   0.0014276
        k(  750) = (   0.0751301   0.0751301   0.0000000), wk =   0.0014276
        k(  751) = (   0.0736570   0.0736570  -0.0000000), wk =   0.0014276
        k(  752) = (   0.0721838   0.0721838   0.0000000), wk =   0.0014276
        k(  753) = (   0.0707107   0.0707107   0.0000000), wk =   0.0014276
        k(  754) = (   0.0692375   0.0692375  -0.0000000), wk =   0.0014276
        k(  755) = (   0.0677644   0.0677644   0.0000000), wk =   0.0014276
        k(  756) = (   0.0662913   0.0662913   0.0000000), wk =   0.0014276
        k(  757) = (   0.0648181   0.0648181  -0.0000000), wk =   0.0014276
        k(  758) = (   0.0633450   0.0633450   0.0000000), wk =   0.0014276
        k(  759) = (   0.0618718   0.0618718   0.0000000), wk =   0.0014276
        k(  760) = (   0.0603987   0.0603987  -0.0000000), wk =   0.0014276
        k(  761) = (   0.0589256   0.0589256   0.0000000), wk =   0.0014276
        k(  762) = (   0.0574524   0.0574524   0.0000000), wk =   0.0014276
        k(  763) = (   0.0559793   0.0559793  -0.0000000), wk =   0.0014276
        k(  764) = (   0.0545061   0.0545061   0.0000000), wk =   0.0014276
        k(  765) = (   0.0530330   0.0530330   0.0000000), wk =   0.0014276
        k(  766) = (   0.0515599   0.0515599  -0.0000000), wk =   0.0014276
        k(  767) = (   0.0500867   0.0500867   0.0000000), wk =   0.0014276
        k(  768) = (   0.0486136   0.0486136   0.0000000), wk =   0.0014276
        k(  769) = (   0.0471405   0.0471405  -0.0000000), wk =   0.0014276
        k(  770) = (   0.0456673   0.0456673   0.0000000), wk =   0.0014276
        k(  771) = (   0.0441942   0.0441942   0.0000000), wk =   0.0014276
        k(  772) = (   0.0427210   0.0427210  -0.0000000), wk =   0.0014276
        k(  773) = (   0.0412479   0.0412479   0.0000000), wk =   0.0014276
        k(  774) = (   0.0397748   0.0397748   0.0000000), wk =   0.0014276
        k(  775) = (   0.0383016   0.0383016  -0.0000000), wk =   0.0014276
        k(  776) = (   0.0368285   0.0368285   0.0000000), wk =   0.0014276
        k(  777) = (   0.0353553   0.0353553   0.0000000), wk =   0.0014276
        k(  778) = (   0.0338822   0.0338822  -0.0000000), wk =   0.0014276
        k(  779) = (   0.0324091   0.0324091   0.0000000), wk =   0.0014276
        k(  780) = (   0.0309359   0.0309359   0.0000000), wk =   0.0014276
        k(  781) = (   0.0294628   0.0294628  -0.0000000), wk =   0.0014276
        k(  782) = (   0.0279896   0.0279896   0.0000000), wk =   0.0014276
        k(  783) = (   0.0265165   0.0265165   0.0000000), wk =   0.0014276
        k(  784) = (   0.0250434   0.0250434  -0.0000000), wk =   0.0014276
        k(  785) = (   0.0235702   0.0235702   0.0000000), wk =   0.0014276
        k(  786) = (   0.0220971   0.0220971   0.0000000), wk =   0.0014276
        k(  787) = (   0.0206239   0.0206239  -0.0000000), wk =   0.0014276
        k(  788) = (   0.0191508   0.0191508   0.0000000), wk =   0.0014276
        k(  789) = (   0.0176777   0.0176777   0.0000000), wk =   0.0014276
        k(  790) = (   0.0162045   0.0162045  -0.0000000), wk =   0.0014276
        k(  791) = (   0.0147314   0.0147314   0.0000000), wk =   0.0014276
        k(  792) = (   0.0132583   0.0132583   0.0000000), wk =   0.0014276
        k(  793) = (   0.0117851   0.0117851  -0.0000000), wk =   0.0014276
        k(  794) = (   0.0103120   0.0103120   0.0000000), wk =   0.0014276
        k(  795) = (   0.0088388   0.0088388   0.0000000), wk =   0.0014276
        k(  796) = (   0.0073657   0.0073657  -0.0000000), wk =   0.0014276
        k(  797) = (   0.0058926   0.0058926   0.0000000), wk =   0.0014276
        k(  798) = (   0.0044194   0.0044194   0.0000000), wk =   0.0014276
        k(  799) = (   0.0029463   0.0029463  -0.0000000), wk =   0.0014276
        k(  800) = (   0.0014731   0.0014731   0.0000000), wk =   0.0014276
        k(  801) = (   0.0000000   0.0000000   0.0000000), wk =   0.0014276
        k(  802) = (   0.0012627   0.0012627   0.0012627), wk =   0.0014276
        k(  803) = (   0.0025254   0.0025254   0.0025254), wk =   0.0014276
        k(  804) = (   0.0037881   0.0037881   0.0037881), wk =   0.0014276
        k(  805) = (   0.0050508   0.0050508   0.0050508), wk =   0.0014276
        k(  806) = (   0.0063135   0.0063135   0.0063135), wk =   0.0014276
        k(  807) = (   0.0075761   0.0075761   0.0075761), wk =   0.0014276
        k(  808) = (   0.0088388   0.0088388   0.0088388), wk =   0.0014276
        k(  809) = (   0.0101015   0.0101015   0.0101015), wk =   0.0014276
        k(  810) = (   0.0113642   0.0113642   0.0113642), wk =   0.0014276
        k(  811) = (   0.0126269   0.0126269   0.0126269), wk =   0.0014276
        k(  812) = (   0.0138896   0.0138896   0.0138896), wk =   0.0014276
        k(  813) = (   0.0151523   0.0151523   0.0151523), wk =   0.0014276
        k(  814) = (   0.0164150   0.0164150   0.0164150), wk =   0.0014276
        k(  815) = (   0.0176777   0.0176777   0.0176777), wk =   0.0014276
        k(  816) = (   0.0189404   0.0189404   0.0189404), wk =   0.0014276
        k(  817) = (   0.0202031   0.0202031   0.0202031), wk =   0.0014276
        k(  818) = (   0.0214657   0.0214657   0.0214657), wk =   0.0014276
        k(  819) = (   0.0227284   0.0227284   0.0227284), wk =   0.0014276
        k(  820) = (   0.0239911   0.0239911   0.0239911), wk =   0.0014276
        k(  821) = (   0.0252538   0.0252538   0.0252538), wk =   0.0014276
        k(  822) = (   0.0265165   0.0265165   0.0265165), wk =   0.0014276
        k(  823) = (   0.0277792   0.0277792   0.0277792), wk =   0.0014276
        k(  824) = (   0.0290419   0.0290419   0.0290419), wk =   0.0014276
        k(  825) = (   0.0303046   0.0303046   0.0303046), wk =   0.0014276
        k(  826) = (   0.0315673   0.0315673   0.0315673), wk =   0.0014276
        k(  827) = (   0.0328300   0.0328300   0.0328300), wk =   0.0014276
        k(  828) = (   0.0340926   0.0340926   0.0340926), wk =   0.0014276
        k(  829) = (   0.0353553   0.0353553   0.0353553), wk =   0.0014276
        k(  830) = (   0.0366180   0.0366180   0.0366180), wk =   0.0014276
        k(  831) = (   0.0378807   0.0378807   0.0378807), wk =   0.0014276
        k(  832) = (   0.0391434   0.0391434   0.0391434), wk =   0.0014276
        k(  833) = (   0.0404061   0.0404061   0.0404061), wk =   0.0014276
        k(  834) = (   0.0416688   0.0416688   0.0416688), wk =   0.0014276
        k(  835) = (   0.0429315   0.0429315   0.0429315), wk =   0.0014276
        k(  836) = (   0.0441942   0.0441942   0.0441942), wk =   0.0014276
        k(  837) = (   0.0454569   0.0454569   0.0454569), wk =   0.0014276
        k(  838) = (   0.0467196   0.0467196   0.0467196), wk =   0.0014276
        k(  839) = (   0.0479822   0.0479822   0.0479822), wk =   0.0014276
        k(  840) = (   0.0492449   0.0492449   0.0492449), wk =   0.0014276
        k(  841) = (   0.0505076   0.0505076   0.0505076), wk =   0.0014276
        k(  842) = (   0.0517703   0.0517703   0.0517703), wk =   0.0014276
        k(  843) = (   0.0530330   0.0530330   0.0530330), wk =   0.0014276
        k(  844) = (   0.0542957   0.0542957   0.0542957), wk =   0.0014276
        k(  845) = (   0.0555584   0.0555584   0.0555584), wk =   0.0014276
        k(  846) = (   0.0568211   0.0568211   0.0568211), wk =   0.0014276
        k(  847) = (   0.0580838   0.0580838   0.0580838), wk =   0.0014276
        k(  848) = (   0.0593465   0.0593465   0.0593465), wk =   0.0014276
        k(  849) = (   0.0606092   0.0606092   0.0606092), wk =   0.0014276
        k(  850) = (   0.0618718   0.0618718   0.0618718), wk =   0.0014276
        k(  851) = (   0.0631345   0.0631345   0.0631345), wk =   0.0014276
        k(  852) = (   0.0643972   0.0643972   0.0643972), wk =   0.0014276
        k(  853) = (   0.0656599   0.0656599   0.0656599), wk =   0.0014276
        k(  854) = (   0.0669226   0.0669226   0.0669226), wk =   0.0014276
        k(  855) = (   0.0681853   0.0681853   0.0681853), wk =   0.0014276
        k(  856) = (   0.0694480   0.0694480   0.0694480), wk =   0.0014276
        k(  857) = (   0.0707107   0.0707107   0.0707107), wk =   0.0014276
        k(  858) = (   0.0719734   0.0719734   0.0719734), wk =   0.0014276
        k(  859) = (   0.0732361   0.0732361   0.0732361), wk =   0.0014276
        k(  860) = (   0.0744988   0.0744988   0.0744988), wk =   0.0014276
        k(  861) = (   0.0757614   0.0757614   0.0757614), wk =   0.0014276
        k(  862) = (   0.0770241   0.0770241   0.0770241), wk =   0.0014276
        k(  863) = (   0.0782868   0.0782868   0.0782868), wk =   0.0014276
        k(  864) = (   0.0795495   0.0795495   0.0795495), wk =   0.0014276
        k(  865) = (   0.0808122   0.0808122   0.0808122), wk =   0.0014276
        k(  866) = (   0.0820749   0.0820749   0.0820749), wk =   0.0014276
        k(  867) = (   0.0833376   0.0833376   0.0833376), wk =   0.0014276
        k(  868) = (   0.0846003   0.0846003   0.0846003), wk =   0.0014276
        k(  869) = (   0.0858630   0.0858630   0.0858630), wk =   0.0014276
        k(  870) = (   0.0871257   0.0871257   0.0871257), wk =   0.0014276
        k(  871) = (   0.0883883   0.0883883   0.0883883), wk =   0.0014276
        k(  872) = (   0.0896510   0.0896510   0.0896510), wk =   0.0014276
        k(  873) = (   0.0909137   0.0909137   0.0909137), wk =   0.0014276
        k(  874) = (   0.0921764   0.0921764   0.0921764), wk =   0.0014276
        k(  875) = (   0.0934391   0.0934391   0.0934391), wk =   0.0014276
        k(  876) = (   0.0947018   0.0947018   0.0947018), wk =   0.0014276
        k(  877) = (   0.0959645   0.0959645   0.0959645), wk =   0.0014276
        k(  878) = (   0.0972272   0.0972272   0.0972272), wk =   0.0014276
        k(  879) = (   0.0984899   0.0984899   0.0984899), wk =   0.0014276
        k(  880) = (   0.0997526   0.0997526   0.0997526), wk =   0.0014276
        k(  881) = (   0.1010153   0.1010153   0.1010153), wk =   0.0014276
        k(  882) = (   0.1022779   0.1022779   0.1022779), wk =   0.0014276
        k(  883) = (   0.1035406   0.1035406   0.1035406), wk =   0.0014276
        k(  884) = (   0.1048033   0.1048033   0.1048033), wk =   0.0014276
        k(  885) = (   0.1060660   0.1060660   0.1060660), wk =   0.0014276
        k(  886) = (   0.1073287   0.1073287   0.1073287), wk =   0.0014276
        k(  887) = (   0.1085914   0.1085914   0.1085914), wk =   0.0014276
        k(  888) = (   0.1098541   0.1098541   0.1098541), wk =   0.0014276
        k(  889) = (   0.1111168   0.1111168   0.1111168), wk =   0.0014276
        k(  890) = (   0.1123795   0.1123795   0.1123795), wk =   0.0014276
        k(  891) = (   0.1136422   0.1136422   0.1136422), wk =   0.0014276
        k(  892) = (   0.1149049   0.1149049   0.1149049), wk =   0.0014276
        k(  893) = (   0.1161675   0.1161675   0.1161675), wk =   0.0014276
        k(  894) = (   0.1174302   0.1174302   0.1174302), wk =   0.0014276
        k(  895) = (   0.1186929   0.1186929   0.1186929), wk =   0.0014276
        k(  896) = (   0.1199556   0.1199556   0.1199556), wk =   0.0014276
        k(  897) = (   0.1212183   0.1212183   0.1212183), wk =   0.0014276
        k(  898) = (   0.1224810   0.1224810   0.1224810), wk =   0.0014276
        k(  899) = (   0.1237437   0.1237437   0.1237437), wk =   0.0014276
        k(  900) = (   0.1250064   0.1250064   0.1250064), wk =   0.0014276
        k(  901) = (   0.1262691   0.1262691   0.1262691), wk =   0.0014276
        k(  902) = (   0.1275318   0.1275318   0.1275318), wk =   0.0014276
        k(  903) = (   0.1287944   0.1287944   0.1287944), wk =   0.0014276
        k(  904) = (   0.1300571   0.1300571   0.1300571), wk =   0.0014276
        k(  905) = (   0.1313198   0.1313198   0.1313198), wk =   0.0014276
        k(  906) = (   0.1325825   0.1325825   0.1325825), wk =   0.0014276
        k(  907) = (   0.1338452   0.1338452   0.1338452), wk =   0.0014276
        k(  908) = (   0.1351079   0.1351079   0.1351079), wk =   0.0014276
        k(  909) = (   0.1363706   0.1363706   0.1363706), wk =   0.0014276
        k(  910) = (   0.1376333   0.1376333   0.1376333), wk =   0.0014276
        k(  911) = (   0.1388960   0.1388960   0.1388960), wk =   0.0014276
        k(  912) = (   0.1401587   0.1401587   0.1401587), wk =   0.0014276
        k(  913) = (   0.1414214   0.1414214   0.1414214), wk =   0.0014276
        k(  914) = (   0.1426840   0.1426840   0.1426840), wk =   0.0014276
        k(  915) = (   0.1439467   0.1439467   0.1439467), wk =   0.0014276
        k(  916) = (   0.1452094   0.1452094   0.1452094), wk =   0.0014276
        k(  917) = (   0.1464721   0.1464721   0.1464721), wk =   0.0014276
        k(  918) = (   0.1477348   0.1477348   0.1477348), wk =   0.0014276
        k(  919) = (   0.1489975   0.1489975   0.1489975), wk =   0.0014276
        k(  920) = (   0.1502602   0.1502602   0.1502602), wk =   0.0014276
        k(  921) = (   0.1515229   0.1515229   0.1515229), wk =   0.0014276
        k(  922) = (   0.1527856   0.1527856   0.1527856), wk =   0.0014276
        k(  923) = (   0.1540483   0.1540483   0.1540483), wk =   0.0014276
        k(  924) = (   0.1553110   0.1553110   0.1553110), wk =   0.0014276
        k(  925) = (   0.1565736   0.1565736   0.1565736), wk =   0.0014276
        k(  926) = (   0.1578363   0.1578363   0.1578363), wk =   0.0014276
        k(  927) = (   0.1590990   0.1590990   0.1590990), wk =   0.0014276
        k(  928) = (   0.1603617   0.1603617   0.1603617), wk =   0.0014276
        k(  929) = (   0.1616244   0.1616244   0.1616244), wk =   0.0014276
        k(  930) = (   0.1628871   0.1628871   0.1628871), wk =   0.0014276
        k(  931) = (   0.1641498   0.1641498   0.1641498), wk =   0.0014276
        k(  932) = (   0.1654125   0.1654125   0.1654125), wk =   0.0014276
        k(  933) = (   0.1666752   0.1666752   0.1666752), wk =   0.0014276
        k(  934) = (   0.1679379   0.1679379   0.1679379), wk =   0.0014276
        k(  935) = (   0.1692006   0.1692006   0.1692006), wk =   0.0014276
        k(  936) = (   0.1704632   0.1704632   0.1704632), wk =   0.0014276
        k(  937) = (   0.1717259   0.1717259   0.1717259), wk =   0.0014276
        k(  938) = (   0.1729886   0.1729886   0.1729886), wk =   0.0014276
        k(  939) = (   0.1742513   0.1742513   0.1742513), wk =   0.0014276
        k(  940) = (   0.1755140   0.1755140   0.1755140), wk =   0.0014276
        k(  941) = (   0.1767767   0.1767767   0.1767767), wk =   0.0014276
        k(  942) = (   0.1780394   0.1780394   0.1780394), wk =   0.0014276
        k(  943) = (   0.1793021   0.1793021   0.1793021), wk =   0.0014276
        k(  944) = (   0.1805648   0.1805648   0.1805648), wk =   0.0014276
        k(  945) = (   0.1818275   0.1818275   0.1818275), wk =   0.0014276
        k(  946) = (   0.1830901   0.1830901   0.1830901), wk =   0.0014276
        k(  947) = (   0.1843528   0.1843528   0.1843528), wk =   0.0014276
        k(  948) = (   0.1856155   0.1856155   0.1856155), wk =   0.0014276
        k(  949) = (   0.1868782   0.1868782   0.1868782), wk =   0.0014276
        k(  950) = (   0.1881409   0.1881409   0.1881409), wk =   0.0014276
        k(  951) = (   0.1894036   0.1894036   0.1894036), wk =   0.0014276
        k(  952) = (   0.1906663   0.1906663   0.1906663), wk =   0.0014276
        k(  953) = (   0.1919290   0.1919290   0.1919290), wk =   0.0014276
        k(  954) = (   0.1931917   0.1931917   0.1931917), wk =   0.0014276
        k(  955) = (   0.1944544   0.1944544   0.1944544), wk =   0.0014276
        k(  956) = (   0.1957171   0.1957171   0.1957171), wk =   0.0014276
        k(  957) = (   0.1969797   0.1969797   0.1969797), wk =   0.0014276
        k(  958) = (   0.1982424   0.1982424   0.1982424), wk =   0.0014276
        k(  959) = (   0.1995051   0.1995051   0.1995051), wk =   0.0014276
        k(  960) = (   0.2007678   0.2007678   0.2007678), wk =   0.0014276
        k(  961) = (   0.2020305   0.2020305   0.2020305), wk =   0.0014276
        k(  962) = (   0.2032932   0.2032932   0.2032932), wk =   0.0014276
        k(  963) = (   0.2045559   0.2045559   0.2045559), wk =   0.0014276
        k(  964) = (   0.2058186   0.2058186   0.2058186), wk =   0.0014276
        k(  965) = (   0.2070813   0.2070813   0.2070813), wk =   0.0014276
        k(  966) = (   0.2083440   0.2083440   0.2083440), wk =   0.0014276
        k(  967) = (   0.2096067   0.2096067   0.2096067), wk =   0.0014276
        k(  968) = (   0.2108693   0.2108693   0.2108693), wk =   0.0014276
        k(  969) = (   0.2121320   0.2121320   0.2121320), wk =   0.0014276
        k(  970) = (   0.2133947   0.2133947   0.2133947), wk =   0.0014276
        k(  971) = (   0.2146574   0.2146574   0.2146574), wk =   0.0014276
        k(  972) = (   0.2159201   0.2159201   0.2159201), wk =   0.0014276
        k(  973) = (   0.2171828   0.2171828   0.2171828), wk =   0.0014276
        k(  974) = (   0.2184455   0.2184455   0.2184455), wk =   0.0014276
        k(  975) = (   0.2197082   0.2197082   0.2197082), wk =   0.0014276
        k(  976) = (   0.2209709   0.2209709   0.2209709), wk =   0.0014276
        k(  977) = (   0.2222336   0.2222336   0.2222336), wk =   0.0014276
        k(  978) = (   0.2234963   0.2234963   0.2234963), wk =   0.0014276
        k(  979) = (   0.2247589   0.2247589   0.2247589), wk =   0.0014276
        k(  980) = (   0.2260216   0.2260216   0.2260216), wk =   0.0014276
        k(  981) = (   0.2272843   0.2272843   0.2272843), wk =   0.0014276
        k(  982) = (   0.2285470   0.2285470   0.2285470), wk =   0.0014276
        k(  983) = (   0.2298097   0.2298097   0.2298097), wk =   0.0014276
        k(  984) = (   0.2310724   0.2310724   0.2310724), wk =   0.0014276
        k(  985) = (   0.2323351   0.2323351   0.2323351), wk =   0.0014276
        k(  986) = (   0.2335978   0.2335978   0.2335978), wk =   0.0014276
        k(  987) = (   0.2348605   0.2348605   0.2348605), wk =   0.0014276
        k(  988) = (   0.2361232   0.2361232   0.2361232), wk =   0.0014276
        k(  989) = (   0.2373858   0.2373858   0.2373858), wk =   0.0014276
        k(  990) = (   0.2386485   0.2386485   0.2386485), wk =   0.0014276
        k(  991) = (   0.2399112   0.2399112   0.2399112), wk =   0.0014276
        k(  992) = (   0.2411739   0.2411739   0.2411739), wk =   0.0014276
        k(  993) = (   0.2424366   0.2424366   0.2424366), wk =   0.0014276
        k(  994) = (   0.2436993   0.2436993   0.2436993), wk =   0.0014276
        k(  995) = (   0.2449620   0.2449620   0.2449620), wk =   0.0014276
        k(  996) = (   0.2462247   0.2462247   0.2462247), wk =   0.0014276
        k(  997) = (   0.2474874   0.2474874   0.2474874), wk =   0.0014276
        k(  998) = (   0.2487501   0.2487501   0.2487501), wk =   0.0014276
        k(  999) = (   0.2500128   0.2500128   0.2500128), wk =   0.0014276
        k( 1000) = (   0.2512754   0.2512754   0.2512754), wk =   0.0014276
        k( 1001) = (   0.2525381   0.2525381   0.2525381), wk =   0.0014276
        k( 1002) = (   0.2538008   0.2538008   0.2538008), wk =   0.0014276
        k( 1003) = (   0.2550635   0.2550635   0.2550635), wk =   0.0014276
        k( 1004) = (   0.2563262   0.2563262   0.2563262), wk =   0.0014276
        k( 1005) = (   0.2575889   0.2575889   0.2575889), wk =   0.0014276
        k( 1006) = (   0.2588516   0.2588516   0.2588516), wk =   0.0014276
        k( 1007) = (   0.2601143   0.2601143   0.2601143), wk =   0.0014276
        k( 1008) = (   0.2613770   0.2613770   0.2613770), wk =   0.0014276
        k( 1009) = (   0.2626397   0.2626397   0.2626397), wk =   0.0014276
        k( 1010) = (   0.2639024   0.2639024   0.2639024), wk =   0.0014276
        k( 1011) = (   0.2651650   0.2651650   0.2651650), wk =   0.0014276
        k( 1012) = (   0.2664277   0.2664277   0.2664277), wk =   0.0014276
        k( 1013) = (   0.2676904   0.2676904   0.2676904), wk =   0.0014276
        k( 1014) = (   0.2689531   0.2689531   0.2689531), wk =   0.0014276
        k( 1015) = (   0.2702158   0.2702158   0.2702158), wk =   0.0014276
        k( 1016) = (   0.2714785   0.2714785   0.2714785), wk =   0.0014276
        k( 1017) = (   0.2727412   0.2727412   0.2727412), wk =   0.0014276
        k( 1018) = (   0.2740039   0.2740039   0.2740039), wk =   0.0014276
        k( 1019) = (   0.2752666   0.2752666   0.2752666), wk =   0.0014276
        k( 1020) = (   0.2765293   0.2765293   0.2765293), wk =   0.0014276
        k( 1021) = (   0.2777919   0.2777919   0.2777919), wk =   0.0014276
        k( 1022) = (   0.2790546   0.2790546   0.2790546), wk =   0.0014276
        k( 1023) = (   0.2803173   0.2803173   0.2803173), wk =   0.0014276
        k( 1024) = (   0.2815800   0.2815800   0.2815800), wk =   0.0014276
        k( 1025) = (   0.2828427   0.2828427   0.2828427), wk =   0.0014276
        k( 1026) = (   0.2841054   0.2841054   0.2841054), wk =   0.0014276
        k( 1027) = (   0.2853681   0.2853681   0.2853681), wk =   0.0014276
        k( 1028) = (   0.2866308   0.2866308   0.2866308), wk =   0.0014276
        k( 1029) = (   0.2878935   0.2878935   0.2878935), wk =   0.0014276
        k( 1030) = (   0.2891562   0.2891562   0.2891562), wk =   0.0014276
        k( 1031) = (   0.2904189   0.2904189   0.2904189), wk =   0.0014276
        k( 1032) = (   0.2916815   0.2916815   0.2916815), wk =   0.0014276
        k( 1033) = (   0.2929442   0.2929442   0.2929442), wk =   0.0014276
        k( 1034) = (   0.2942069   0.2942069   0.2942069), wk =   0.0014276
        k( 1035) = (   0.2954696   0.2954696   0.2954696), wk =   0.0014276
        k( 1036) = (   0.2967323   0.2967323   0.2967323), wk =   0.0014276
        k( 1037) = (   0.2979950   0.2979950   0.2979950), wk =   0.0014276
        k( 1038) = (   0.2992577   0.2992577   0.2992577), wk =   0.0014276
        k( 1039) = (   0.3005204   0.3005204   0.3005204), wk =   0.0014276
        k( 1040) = (   0.3017831   0.3017831   0.3017831), wk =   0.0014276
        k( 1041) = (   0.3030458   0.3030458   0.3030458), wk =   0.0014276
        k( 1042) = (   0.3043085   0.3043085   0.3043085), wk =   0.0014276
        k( 1043) = (   0.3055711   0.3055711   0.3055711), wk =   0.0014276
        k( 1044) = (   0.3068338   0.3068338   0.3068338), wk =   0.0014276
        k( 1045) = (   0.3080965   0.3080965   0.3080965), wk =   0.0014276
        k( 1046) = (   0.3093592   0.3093592   0.3093592), wk =   0.0014276
        k( 1047) = (   0.3106219   0.3106219   0.3106219), wk =   0.0014276
        k( 1048) = (   0.3118846   0.3118846   0.3118846), wk =   0.0014276
        k( 1049) = (   0.3131473   0.3131473   0.3131473), wk =   0.0014276
        k( 1050) = (   0.3144100   0.3144100   0.3144100), wk =   0.0014276
        k( 1051) = (   0.3156727   0.3156727   0.3156727), wk =   0.0014276
        k( 1052) = (   0.3169354   0.3169354   0.3169354), wk =   0.0014276
        k( 1053) = (   0.3181981   0.3181981   0.3181981), wk =   0.0014276
        k( 1054) = (   0.3194607   0.3194607   0.3194607), wk =   0.0014276
        k( 1055) = (   0.3207234   0.3207234   0.3207234), wk =   0.0014276
        k( 1056) = (   0.3219861   0.3219861   0.3219861), wk =   0.0014276
        k( 1057) = (   0.3232488   0.3232488   0.3232488), wk =   0.0014276
        k( 1058) = (   0.3245115   0.3245115   0.3245115), wk =   0.0014276
        k( 1059) = (   0.3257742   0.3257742   0.3257742), wk =   0.0014276
        k( 1060) = (   0.3270369   0.3270369   0.3270369), wk =   0.0014276
        k( 1061) = (   0.3282996   0.3282996   0.3282996), wk =   0.0014276
        k( 1062) = (   0.3295623   0.3295623   0.3295623), wk =   0.0014276
        k( 1063) = (   0.3308250   0.3308250   0.3308250), wk =   0.0014276
        k( 1064) = (   0.3320876   0.3320876   0.3320876), wk =   0.0014276
        k( 1065) = (   0.3333503   0.3333503   0.3333503), wk =   0.0014276
        k( 1066) = (   0.3346130   0.3346130   0.3346130), wk =   0.0014276
        k( 1067) = (   0.3358757   0.3358757   0.3358757), wk =   0.0014276
        k( 1068) = (   0.3371384   0.3371384   0.3371384), wk =   0.0014276
        k( 1069) = (   0.3384011   0.3384011   0.3384011), wk =   0.0014276
        k( 1070) = (   0.3396638   0.3396638   0.3396638), wk =   0.0014276
        k( 1071) = (   0.3409265   0.3409265   0.3409265), wk =   0.0014276
        k( 1072) = (   0.3421892   0.3421892   0.3421892), wk =   0.0014276
        k( 1073) = (   0.3434519   0.3434519   0.3434519), wk =   0.0014276
        k( 1074) = (   0.3447146   0.3447146   0.3447146), wk =   0.0014276
        k( 1075) = (   0.3459772   0.3459772   0.3459772), wk =   0.0014276
        k( 1076) = (   0.3472399   0.3472399   0.3472399), wk =   0.0014276
        k( 1077) = (   0.3485026   0.3485026   0.3485026), wk =   0.0014276
        k( 1078) = (   0.3497653   0.3497653   0.3497653), wk =   0.0014276
        k( 1079) = (   0.3510280   0.3510280   0.3510280), wk =   0.0014276
        k( 1080) = (   0.3522907   0.3522907   0.3522907), wk =   0.0014276
        k( 1081) = (   0.3535534   0.3535534   0.3535534), wk =   0.0014276
        k( 1082) = (   0.3535534   0.3553212   0.3517856), wk =   0.0014276
        k( 1083) = (   0.3535534   0.3570889   0.3500179), wk =   0.0014276
        k( 1084) = (   0.3535534   0.3588567   0.3482501), wk =   0.0014276
        k( 1085) = (   0.3535534   0.3606245   0.3464823), wk =   0.0014276
        k( 1086) = (   0.3535534   0.3623922   0.3447146), wk =   0.0014276
        k( 1087) = (   0.3535534   0.3641600   0.3429468), wk =   0.0014276
        k( 1088) = (   0.3535534   0.3659278   0.3411790), wk =   0.0014276
        k( 1089) = (   0.3535534   0.3676955   0.3394113), wk =   0.0014276
        k( 1090) = (   0.3535534   0.3694633   0.3376435), wk =   0.0014276
        k( 1091) = (   0.3535534   0.3712311   0.3358757), wk =   0.0014276
        k( 1092) = (   0.3535534   0.3729988   0.3341080), wk =   0.0014276
        k( 1093) = (   0.3535534   0.3747666   0.3323402), wk =   0.0014276
        k( 1094) = (   0.3535534   0.3765344   0.3305724), wk =   0.0014276
        k( 1095) = (   0.3535534   0.3783021   0.3288047), wk =   0.0014276
        k( 1096) = (   0.3535534   0.3800699   0.3270369), wk =   0.0014276
        k( 1097) = (   0.3535534   0.3818377   0.3252691), wk =   0.0014276
        k( 1098) = (   0.3535534   0.3836054   0.3235014), wk =   0.0014276
        k( 1099) = (   0.3535534   0.3853732   0.3217336), wk =   0.0014276
        k( 1100) = (   0.3535534   0.3871410   0.3199658), wk =   0.0014276
        k( 1101) = (   0.3535534   0.3889087   0.3181981), wk =   0.0014276
        k( 1102) = (   0.3535534   0.3906765   0.3164303), wk =   0.0014276
        k( 1103) = (   0.3535534   0.3924443   0.3146625), wk =   0.0014276
        k( 1104) = (   0.3535534   0.3942120   0.3128948), wk =   0.0014276
        k( 1105) = (   0.3535534   0.3959798   0.3111270), wk =   0.0014276
        k( 1106) = (   0.3535534   0.3977476   0.3093592), wk =   0.0014276
        k( 1107) = (   0.3535534   0.3995153   0.3075914), wk =   0.0014276
        k( 1108) = (   0.3535534   0.4012831   0.3058237), wk =   0.0014276
        k( 1109) = (   0.3535534   0.4030509   0.3040559), wk =   0.0014276
        k( 1110) = (   0.3535534   0.4048186   0.3022881), wk =   0.0014276
        k( 1111) = (   0.3535534   0.4065864   0.3005204), wk =   0.0014276
        k( 1112) = (   0.3535534   0.4083542   0.2987526), wk =   0.0014276
        k( 1113) = (   0.3535534   0.4101219   0.2969848), wk =   0.0014276
        k( 1114) = (   0.3535534   0.4118897   0.2952171), wk =   0.0014276
        k( 1115) = (   0.3535534   0.4136575   0.2934493), wk =   0.0014276
        k( 1116) = (   0.3535534   0.4154252   0.2916815), wk =   0.0014276
        k( 1117) = (   0.3535534   0.4171930   0.2899138), wk =   0.0014276
        k( 1118) = (   0.3535534   0.4189608   0.2881460), wk =   0.0014276
        k( 1119) = (   0.3535534   0.4207285   0.2863782), wk =   0.0014276
        k( 1120) = (   0.3535534   0.4224963   0.2846105), wk =   0.0014276
        k( 1121) = (   0.3535534   0.4242641   0.2828427), wk =   0.0014276
        k( 1122) = (   0.3535534   0.4260318   0.2810749), wk =   0.0014276
        k( 1123) = (   0.3535534   0.4277996   0.2793072), wk =   0.0014276
        k( 1124) = (   0.3535534   0.4295674   0.2775394), wk =   0.0014276
        k( 1125) = (   0.3535534   0.4313351   0.2757716), wk =   0.0014276
        k( 1126) = (   0.3535534   0.4331029   0.2740039), wk =   0.0014276
        k( 1127) = (   0.3535534   0.4348707   0.2722361), wk =   0.0014276
        k( 1128) = (   0.3535534   0.4366384   0.2704683), wk =   0.0014276
        k( 1129) = (   0.3535534   0.4384062   0.2687006), wk =   0.0014276
        k( 1130) = (   0.3535534   0.4401740   0.2669328), wk =   0.0014276
        k( 1131) = (   0.3535534   0.4419417   0.2651650), wk =   0.0014276
        k( 1132) = (   0.3535534   0.4437095   0.2633973), wk =   0.0014276
        k( 1133) = (   0.3535534   0.4454773   0.2616295), wk =   0.0014276
        k( 1134) = (   0.3535534   0.4472450   0.2598617), wk =   0.0014276
        k( 1135) = (   0.3535534   0.4490128   0.2580940), wk =   0.0014276
        k( 1136) = (   0.3535534   0.4507806   0.2563262), wk =   0.0014276
        k( 1137) = (   0.3535534   0.4525483   0.2545584), wk =   0.0014276
        k( 1138) = (   0.3535534   0.4543161   0.2527907), wk =   0.0014276
        k( 1139) = (   0.3535534   0.4560839   0.2510229), wk =   0.0014276
        k( 1140) = (   0.3535534   0.4578516   0.2492551), wk =   0.0014276
        k( 1141) = (   0.3535534   0.4596194   0.2474874), wk =   0.0014276
        k( 1142) = (   0.3535534   0.4613872   0.2457196), wk =   0.0014276
        k( 1143) = (   0.3535534   0.4631549   0.2439518), wk =   0.0014276
        k( 1144) = (   0.3535534   0.4649227   0.2421841), wk =   0.0014276
        k( 1145) = (   0.3535534   0.4666905   0.2404163), wk =   0.0014276
        k( 1146) = (   0.3535534   0.4684582   0.2386485), wk =   0.0014276
        k( 1147) = (   0.3535534   0.4702260   0.2368808), wk =   0.0014276
        k( 1148) = (   0.3535534   0.4719938   0.2351130), wk =   0.0014276
        k( 1149) = (   0.3535534   0.4737615   0.2333452), wk =   0.0014276
        k( 1150) = (   0.3535534   0.4755293   0.2315775), wk =   0.0014276
        k( 1151) = (   0.3535534   0.4772971   0.2298097), wk =   0.0014276
        k( 1152) = (   0.3535534   0.4790648   0.2280419), wk =   0.0014276
        k( 1153) = (   0.3535534   0.4808326   0.2262742), wk =   0.0014276
        k( 1154) = (   0.3535534   0.4826004   0.2245064), wk =   0.0014276
        k( 1155) = (   0.3535534   0.4843681   0.2227386), wk =   0.0014276
        k( 1156) = (   0.3535534   0.4861359   0.2209709), wk =   0.0014276
        k( 1157) = (   0.3535534   0.4879037   0.2192031), wk =   0.0014276
        k( 1158) = (   0.3535534   0.4896714   0.2174353), wk =   0.0014276
        k( 1159) = (   0.3535534   0.4914392   0.2156676), wk =   0.0014276
        k( 1160) = (   0.3535534   0.4932070   0.2138998), wk =   0.0014276
        k( 1161) = (   0.3535534   0.4949747   0.2121320), wk =   0.0014276
        k( 1162) = (   0.3535534   0.4967425   0.2103643), wk =   0.0014276
        k( 1163) = (   0.3535534   0.4985103   0.2085965), wk =   0.0014276
        k( 1164) = (   0.3535534   0.5002780   0.2068287), wk =   0.0014276
        k( 1165) = (   0.3535534   0.5020458   0.2050610), wk =   0.0014276
        k( 1166) = (   0.3535534   0.5038136   0.2032932), wk =   0.0014276
        k( 1167) = (   0.3535534   0.5055813   0.2015254), wk =   0.0014276
        k( 1168) = (   0.3535534   0.5073491   0.1997577), wk =   0.0014276
        k( 1169) = (   0.3535534   0.5091169   0.1979899), wk =   0.0014276
        k( 1170) = (   0.3535534   0.5108846   0.1962221), wk =   0.0014276
        k( 1171) = (   0.3535534   0.5126524   0.1944544), wk =   0.0014276
        k( 1172) = (   0.3535534   0.5144202   0.1926866), wk =   0.0014276
        k( 1173) = (   0.3535534   0.5161880   0.1909188), wk =   0.0014276
        k( 1174) = (   0.3535534   0.5179557   0.1891511), wk =   0.0014276
        k( 1175) = (   0.3535534   0.5197235   0.1873833), wk =   0.0014276
        k( 1176) = (   0.3535534   0.5214913   0.1856155), wk =   0.0014276
        k( 1177) = (   0.3535534   0.5232590   0.1838478), wk =   0.0014276
        k( 1178) = (   0.3535534   0.5250268   0.1820800), wk =   0.0014276
        k( 1179) = (   0.3535534   0.5267946   0.1803122), wk =   0.0014276
        k( 1180) = (   0.3535534   0.5285623   0.1785445), wk =   0.0014276
        k( 1181) = (   0.3535534   0.5303301   0.1767767), wk =   0.0014276
        k( 1182) = (   0.3535534   0.5320979   0.1750089), wk =   0.0014276
        k( 1183) = (   0.3535534   0.5338656   0.1732412), wk =   0.0014276
        k( 1184) = (   0.3535534   0.5356334   0.1714734), wk =   0.0014276
        k( 1185) = (   0.3535534   0.5374012   0.1697056), wk =   0.0014276
        k( 1186) = (   0.3535534   0.5391689   0.1679379), wk =   0.0014276
        k( 1187) = (   0.3535534   0.5409367   0.1661701), wk =   0.0014276
        k( 1188) = (   0.3535534   0.5427045   0.1644023), wk =   0.0014276
        k( 1189) = (   0.3535534   0.5444722   0.1626346), wk =   0.0014276
        k( 1190) = (   0.3535534   0.5462400   0.1608668), wk =   0.0014276
        k( 1191) = (   0.3535534   0.5480078   0.1590990), wk =   0.0014276
        k( 1192) = (   0.3535534   0.5497755   0.1573313), wk =   0.0014276
        k( 1193) = (   0.3535534   0.5515433   0.1555635), wk =   0.0014276
        k( 1194) = (   0.3535534   0.5533111   0.1537957), wk =   0.0014276
        k( 1195) = (   0.3535534   0.5550788   0.1520280), wk =   0.0014276
        k( 1196) = (   0.3535534   0.5568466   0.1502602), wk =   0.0014276
        k( 1197) = (   0.3535534   0.5586144   0.1484924), wk =   0.0014276
        k( 1198) = (   0.3535534   0.5603821   0.1467247), wk =   0.0014276
        k( 1199) = (   0.3535534   0.5621499   0.1449569), wk =   0.0014276
        k( 1200) = (   0.3535534   0.5639177   0.1431891), wk =   0.0014276
        k( 1201) = (   0.3535534   0.5656854   0.1414214), wk =   0.0014276
        k( 1202) = (   0.3535534   0.5674532   0.1396536), wk =   0.0014276
        k( 1203) = (   0.3535534   0.5692210   0.1378858), wk =   0.0014276
        k( 1204) = (   0.3535534   0.5709887   0.1361181), wk =   0.0014276
        k( 1205) = (   0.3535534   0.5727565   0.1343503), wk =   0.0014276
        k( 1206) = (   0.3535534   0.5745243   0.1325825), wk =   0.0014276
        k( 1207) = (   0.3535534   0.5762920   0.1308148), wk =   0.0014276
        k( 1208) = (   0.3535534   0.5780598   0.1290470), wk =   0.0014276
        k( 1209) = (   0.3535534   0.5798276   0.1272792), wk =   0.0014276
        k( 1210) = (   0.3535534   0.5815953   0.1255115), wk =   0.0014276
        k( 1211) = (   0.3535534   0.5833631   0.1237437), wk =   0.0014276
        k( 1212) = (   0.3535534   0.5851309   0.1219759), wk =   0.0014276
        k( 1213) = (   0.3535534   0.5868986   0.1202082), wk =   0.0014276
        k( 1214) = (   0.3535534   0.5886664   0.1184404), wk =   0.0014276
        k( 1215) = (   0.3535534   0.5904342   0.1166726), wk =   0.0014276
        k( 1216) = (   0.3535534   0.5922019   0.1149049), wk =   0.0014276
        k( 1217) = (   0.3535534   0.5939697   0.1131371), wk =   0.0014276
        k( 1218) = (   0.3535534   0.5957375   0.1113693), wk =   0.0014276
        k( 1219) = (   0.3535534   0.5975052   0.1096016), wk =   0.0014276
        k( 1220) = (   0.3535534   0.5992730   0.1078338), wk =   0.0014276
        k( 1221) = (   0.3535534   0.6010408   0.1060660), wk =   0.0014276
        k( 1222) = (   0.3535534   0.6028085   0.1042983), wk =   0.0014276
        k( 1223) = (   0.3535534   0.6045763   0.1025305), wk =   0.0014276
        k( 1224) = (   0.3535534   0.6063441   0.1007627), wk =   0.0014276
        k( 1225) = (   0.3535534   0.6081118   0.0989949), wk =   0.0014276
        k( 1226) = (   0.3535534   0.6098796   0.0972272), wk =   0.0014276
        k( 1227) = (   0.3535534   0.6116474   0.0954594), wk =   0.0014276
        k( 1228) = (   0.3535534   0.6134151   0.0936916), wk =   0.0014276
        k( 1229) = (   0.3535534   0.6151829   0.0919239), wk =   0.0014276
        k( 1230) = (   0.3535534   0.6169507   0.0901561), wk =   0.0014276
        k( 1231) = (   0.3535534   0.6187184   0.0883883), wk =   0.0014276
        k( 1232) = (   0.3535534   0.6204862   0.0866206), wk =   0.0014276
        k( 1233) = (   0.3535534   0.6222540   0.0848528), wk =   0.0014276
        k( 1234) = (   0.3535534   0.6240217   0.0830850), wk =   0.0014276
        k( 1235) = (   0.3535534   0.6257895   0.0813173), wk =   0.0014276
        k( 1236) = (   0.3535534   0.6275573   0.0795495), wk =   0.0014276
        k( 1237) = (   0.3535534   0.6293250   0.0777817), wk =   0.0014276
        k( 1238) = (   0.3535534   0.6310928   0.0760140), wk =   0.0014276
        k( 1239) = (   0.3535534   0.6328606   0.0742462), wk =   0.0014276
        k( 1240) = (   0.3535534   0.6346283   0.0724784), wk =   0.0014276
        k( 1241) = (   0.3535534   0.6363961   0.0707107), wk =   0.0014276
        k( 1242) = (   0.3535534   0.6381639   0.0689429), wk =   0.0014276
        k( 1243) = (   0.3535534   0.6399316   0.0671751), wk =   0.0014276
        k( 1244) = (   0.3535534   0.6416994   0.0654074), wk =   0.0014276
        k( 1245) = (   0.3535534   0.6434672   0.0636396), wk =   0.0014276
        k( 1246) = (   0.3535534   0.6452349   0.0618718), wk =   0.0014276
        k( 1247) = (   0.3535534   0.6470027   0.0601041), wk =   0.0014276
        k( 1248) = (   0.3535534   0.6487705   0.0583363), wk =   0.0014276
        k( 1249) = (   0.3535534   0.6505382   0.0565685), wk =   0.0014276
        k( 1250) = (   0.3535534   0.6523060   0.0548008), wk =   0.0014276
        k( 1251) = (   0.3535534   0.6540738   0.0530330), wk =   0.0014276
        k( 1252) = (   0.3535534   0.6558415   0.0512652), wk =   0.0014276
        k( 1253) = (   0.3535534   0.6576093   0.0494975), wk =   0.0014276
        k( 1254) = (   0.3535534   0.6593771   0.0477297), wk =   0.0014276
        k( 1255) = (   0.3535534   0.6611448   0.0459619), wk =   0.0014276
        k( 1256) = (   0.3535534   0.6629126   0.0441942), wk =   0.0014276
        k( 1257) = (   0.3535534   0.6646804   0.0424264), wk =   0.0014276
        k( 1258) = (   0.3535534   0.6664481   0.0406586), wk =   0.0014276
        k( 1259) = (   0.3535534   0.6682159   0.0388909), wk =   0.0014276
        k( 1260) = (   0.3535534   0.6699837   0.0371231), wk =   0.0014276
        k( 1261) = (   0.3535534   0.6717514   0.0353553), wk =   0.0014276
        k( 1262) = (   0.3535534   0.6735192   0.0335876), wk =   0.0014276
        k( 1263) = (   0.3535534   0.6752870   0.0318198), wk =   0.0014276
        k( 1264) = (   0.3535534   0.6770547   0.0300520), wk =   0.0014276
        k( 1265) = (   0.3535534   0.6788225   0.0282843), wk =   0.0014276
        k( 1266) = (   0.3535534   0.6805903   0.0265165), wk =   0.0014276
        k( 1267) = (   0.3535534   0.6823580   0.0247487), wk =   0.0014276
        k( 1268) = (   0.3535534   0.6841258   0.0229810), wk =   0.0014276
        k( 1269) = (   0.3535534   0.6858936   0.0212132), wk =   0.0014276
        k( 1270) = (   0.3535534   0.6876613   0.0194454), wk =   0.0014276
        k( 1271) = (   0.3535534   0.6894291   0.0176777), wk =   0.0014276
        k( 1272) = (   0.3535534   0.6911969   0.0159099), wk =   0.0014276
        k( 1273) = (   0.3535534   0.6929646   0.0141421), wk =   0.0014276
        k( 1274) = (   0.3535534   0.6947324   0.0123744), wk =   0.0014276
        k( 1275) = (   0.3535534   0.6965002   0.0106066), wk =   0.0014276
        k( 1276) = (   0.3535534   0.6982679   0.0088388), wk =   0.0014276
        k( 1277) = (   0.3535534   0.7000357   0.0070711), wk =   0.0014276
        k( 1278) = (   0.3535534   0.7018035   0.0053033), wk =   0.0014276
        k( 1279) = (   0.3535534   0.7035712   0.0035355), wk =   0.0014276
        k( 1280) = (   0.3535534   0.7053390   0.0017678), wk =   0.0014276
        k( 1281) = (   0.3535534   0.7071068   0.0000000), wk =   0.0014276
        k( 1282) = (   0.3506071   0.7071068   0.0000000), wk =   0.0014276
        k( 1283) = (   0.3476608   0.7071068   0.0000000), wk =   0.0014276
        k( 1284) = (   0.3447146   0.7071068  -0.0000000), wk =   0.0014276
        k( 1285) = (   0.3417683   0.7071068   0.0000000), wk =   0.0014276
        k( 1286) = (   0.3388220   0.7071068   0.0000000), wk =   0.0014276
        k( 1287) = (   0.3358757   0.7071068  -0.0000000), wk =   0.0014276
        k( 1288) = (   0.3329294   0.7071068   0.0000000), wk =   0.0014276
        k( 1289) = (   0.3299832   0.7071068  -0.0000000), wk =   0.0014276
        k( 1290) = (   0.3270369   0.7071068   0.0000000), wk =   0.0014276
        k( 1291) = (   0.3240906   0.7071068   0.0000000), wk =   0.0014276
        k( 1292) = (   0.3211443   0.7071068  -0.0000000), wk =   0.0014276
        k( 1293) = (   0.3181981   0.7071068   0.0000000), wk =   0.0014276
        k( 1294) = (   0.3152518   0.7071068   0.0000000), wk =   0.0014276
        k( 1295) = (   0.3123055   0.7071068  -0.0000000), wk =   0.0014276
        k( 1296) = (   0.3093592   0.7071068   0.0000000), wk =   0.0014276
        k( 1297) = (   0.3064129   0.7071068   0.0000000), wk =   0.0014276
        k( 1298) = (   0.3034667   0.7071068   0.0000000), wk =   0.0014276
        k( 1299) = (   0.3005204   0.7071068   0.0000000), wk =   0.0014276
        k( 1300) = (   0.2975741   0.7071068   0.0000000), wk =   0.0014276
        k( 1301) = (   0.2946278   0.7071068   0.0000000), wk =   0.0014276
        k( 1302) = (   0.2916815   0.7071068   0.0000000), wk =   0.0014276
        k( 1303) = (   0.2887353   0.7071068   0.0000000), wk =   0.0014276
        k( 1304) = (   0.2857890   0.7071068   0.0000000), wk =   0.0014276
        k( 1305) = (   0.2828427   0.7071068   0.0000000), wk =   0.0014276
        k( 1306) = (   0.2798964   0.7071068   0.0000000), wk =   0.0014276
        k( 1307) = (   0.2769502   0.7071068   0.0000000), wk =   0.0014276
        k( 1308) = (   0.2740039   0.7071068   0.0000000), wk =   0.0014276
        k( 1309) = (   0.2710576   0.7071068  -0.0000000), wk =   0.0014276
        k( 1310) = (   0.2681113   0.7071068   0.0000000), wk =   0.0014276
        k( 1311) = (   0.2651650   0.7071068   0.0000000), wk =   0.0014276
        k( 1312) = (   0.2622188   0.7071068   0.0000000), wk =   0.0014276
        k( 1313) = (   0.2592725   0.7071068   0.0000000), wk =   0.0014276
        k( 1314) = (   0.2563262   0.7071068   0.0000000), wk =   0.0014276
        k( 1315) = (   0.2533799   0.7071068   0.0000000), wk =   0.0014276
        k( 1316) = (   0.2504337   0.7071068   0.0000000), wk =   0.0014276
        k( 1317) = (   0.2474874   0.7071068   0.0000000), wk =   0.0014276
        k( 1318) = (   0.2445411   0.7071068   0.0000000), wk =   0.0014276
        k( 1319) = (   0.2415948   0.7071068   0.0000000), wk =   0.0014276
        k( 1320) = (   0.2386485   0.7071068   0.0000000), wk =   0.0014276
        k( 1321) = (   0.2357023   0.7071068   0.0000000), wk =   0.0014276
        k( 1322) = (   0.2327560   0.7071068   0.0000000), wk =   0.0014276
        k( 1323) = (   0.2298097   0.7071068   0.0000000), wk =   0.0014276
        k( 1324) = (   0.2268634   0.7071068  -0.0000000), wk =   0.0014276
        k( 1325) = (   0.2239171   0.7071068  -0.0000000), wk =   0.0014276
        k( 1326) = (   0.2209709   0.7071068   0.0000000), wk =   0.0014276
        k( 1327) = (   0.2180246   0.7071068   0.0000000), wk =   0.0014276
        k( 1328) = (   0.2150783   0.7071068   0.0000000), wk =   0.0014276
        k( 1329) = (   0.2121320   0.7071068   0.0000000), wk =   0.0014276
        k( 1330) = (   0.2091858   0.7071068   0.0000000), wk =   0.0014276
        k( 1331) = (   0.2062395   0.7071068   0.0000000), wk =   0.0014276
        k( 1332) = (   0.2032932   0.7071068  -0.0000000), wk =   0.0014276
        k( 1333) = (   0.2003469   0.7071068   0.0000000), wk =   0.0014276
        k( 1334) = (   0.1974006   0.7071068   0.0000000), wk =   0.0014276
        k( 1335) = (   0.1944544   0.7071068   0.0000000), wk =   0.0014276
        k( 1336) = (   0.1915081   0.7071068  -0.0000000), wk =   0.0014276
        k( 1337) = (   0.1885618   0.7071068  -0.0000000), wk =   0.0014276
        k( 1338) = (   0.1856155   0.7071068   0.0000000), wk =   0.0014276
        k( 1339) = (   0.1826693   0.7071068  -0.0000000), wk =   0.0014276
        k( 1340) = (   0.1797230   0.7071068  -0.0000000), wk =   0.0014276
        k( 1341) = (   0.1767767   0.7071068   0.0000000), wk =   0.0014276
        k( 1342) = (   0.1738304   0.7071068   0.0000000), wk =   0.0014276
        k( 1343) = (   0.1708841   0.7071068   0.0000000), wk =   0.0014276
        k( 1344) = (   0.1679379   0.7071068  -0.0000000), wk =   0.0014276
        k( 1345) = (   0.1649916   0.7071068   0.0000000), wk =   0.0014276
        k( 1346) = (   0.1620453   0.7071068   0.0000000), wk =   0.0014276
        k( 1347) = (   0.1590990   0.7071068  -0.0000000), wk =   0.0014276
        k( 1348) = (   0.1561527   0.7071068  -0.0000000), wk =   0.0014276
        k( 1349) = (   0.1532065   0.7071068   0.0000000), wk =   0.0014276
        k( 1350) = (   0.1502602   0.7071068   0.0000000), wk =   0.0014276
        k( 1351) = (   0.1473139   0.7071068  -0.0000000), wk =   0.0014276
        k( 1352) = (   0.1443676   0.7071068   0.0000000), wk =   0.0014276
        k( 1353) = (   0.1414214   0.7071068   0.0000000), wk =   0.0014276
        k( 1354) = (   0.1384751   0.7071068  -0.0000000), wk =   0.0014276
        k( 1355) = (   0.1355288   0.7071068  -0.0000000), wk =   0.0014276
        k( 1356) = (   0.1325825   0.7071068  -0.0000000), wk =   0.0014276
        k( 1357) = (   0.1296362   0.7071068   0.0000000), wk =   0.0014276
        k( 1358) = (   0.1266900   0.7071068   0.0000000), wk =   0.0014276
        k( 1359) = (   0.1237437   0.7071068  -0.0000000), wk =   0.0014276
        k( 1360) = (   0.1207974   0.7071068   0.0000000), wk =   0.0014276
        k( 1361) = (   0.1178511   0.7071068   0.0000000), wk =   0.0014276
        k( 1362) = (   0.1149049   0.7071068  -0.0000000), wk =   0.0014276
        k( 1363) = (   0.1119586   0.7071068   0.0000000), wk =   0.0014276
        k( 1364) = (   0.1090123   0.7071068   0.0000000), wk =   0.0014276
        k( 1365) = (   0.1060660   0.7071068   0.0000000), wk =   0.0014276
        k( 1366) = (   0.1031197   0.7071068  -0.0000000), wk =   0.0014276
        k( 1367) = (   0.1001735   0.7071068   0.0000000), wk =   0.0014276
        k( 1368) = (   0.0972272   0.7071068   0.0000000), wk =   0.0014276
        k( 1369) = (   0.0942809   0.7071068  -0.0000000), wk =   0.0014276
        k( 1370) = (   0.0913346   0.7071068  -0.0000000), wk =   0.0014276
        k( 1371) = (   0.0883883   0.7071068   0.0000000), wk =   0.0014276
        k( 1372) = (   0.0854421   0.7071068   0.0000000), wk =   0.0014276
        k( 1373) = (   0.0824958   0.7071068   0.0000000), wk =   0.0014276
        k( 1374) = (   0.0795495   0.7071068   0.0000000), wk =   0.0014276
        k( 1375) = (   0.0766032   0.7071068   0.0000000), wk =   0.0014276
        k( 1376) = (   0.0736570   0.7071068   0.0000000), wk =   0.0014276
        k( 1377) = (   0.0707107   0.7071068  -0.0000000), wk =   0.0014276
        k( 1378) = (   0.0677644   0.7071068   0.0000000), wk =   0.0014276
        k( 1379) = (   0.0648181   0.7071068   0.0000000), wk =   0.0014276
        k( 1380) = (   0.0618718   0.7071068   0.0000000), wk =   0.0014276
        k( 1381) = (   0.0589256   0.7071068   0.0000000), wk =   0.0014276
        k( 1382) = (   0.0559793   0.7071068   0.0000000), wk =   0.0014276
        k( 1383) = (   0.0530330   0.7071068   0.0000000), wk =   0.0014276
        k( 1384) = (   0.0500867   0.7071068  -0.0000000), wk =   0.0014276
        k( 1385) = (   0.0471405   0.7071068   0.0000000), wk =   0.0014276
        k( 1386) = (   0.0441942   0.7071068   0.0000000), wk =   0.0014276
        k( 1387) = (   0.0412479   0.7071068   0.0000000), wk =   0.0014276
        k( 1388) = (   0.0383016   0.7071068   0.0000000), wk =   0.0014276
        k( 1389) = (   0.0353553   0.7071068   0.0000000), wk =   0.0014276
        k( 1390) = (   0.0324091   0.7071068   0.0000000), wk =   0.0014276
        k( 1391) = (   0.0294628   0.7071068   0.0000000), wk =   0.0014276
        k( 1392) = (   0.0265165   0.7071068   0.0000000), wk =   0.0014276
        k( 1393) = (   0.0235702   0.7071068   0.0000000), wk =   0.0014276
        k( 1394) = (   0.0206239   0.7071068   0.0000000), wk =   0.0014276
        k( 1395) = (   0.0176777   0.7071068   0.0000000), wk =   0.0014276
        k( 1396) = (   0.0147314   0.7071068   0.0000000), wk =   0.0014276
        k( 1397) = (   0.0117851   0.7071068   0.0000000), wk =   0.0014276
        k( 1398) = (   0.0088388   0.7071068   0.0000000), wk =   0.0014276
        k( 1399) = (   0.0058926   0.7071068  -0.0000000), wk =   0.0014276
        k( 1400) = (   0.0029463   0.7071068   0.0000000), wk =   0.0014276
        k( 1401) = (   0.0000000   0.7071068   0.0000000), wk =   0.0014276

                       cryst. coord.
        k(    1) = (   0.0000000   0.0000000   0.0000000), wk =   0.0014276
        k(    2) = (   0.0015625   0.0000000   0.0015625), wk =   0.0014276
        k(    3) = (   0.0031250   0.0000000   0.0031250), wk =   0.0014276
        k(    4) = (   0.0046875   0.0000000   0.0046875), wk =   0.0014276
        k(    5) = (   0.0062500   0.0000000   0.0062500), wk =   0.0014276
        k(    6) = (   0.0078125   0.0000000   0.0078125), wk =   0.0014276
        k(    7) = (   0.0093750   0.0000000   0.0093750), wk =   0.0014276
        k(    8) = (   0.0109375   0.0000000   0.0109375), wk =   0.0014276
        k(    9) = (   0.0125000   0.0000000   0.0125000), wk =   0.0014276
        k(   10) = (   0.0140625   0.0000000   0.0140625), wk =   0.0014276
        k(   11) = (   0.0156250   0.0000000   0.0156250), wk =   0.0014276
        k(   12) = (   0.0171875   0.0000000   0.0171875), wk =   0.0014276
        k(   13) = (   0.0187500   0.0000000   0.0187500), wk =   0.0014276
        k(   14) = (   0.0203125   0.0000000   0.0203125), wk =   0.0014276
        k(   15) = (   0.0218750   0.0000000   0.0218750), wk =   0.0014276
        k(   16) = (   0.0234375   0.0000000   0.0234375), wk =   0.0014276
        k(   17) = (   0.0250000   0.0000000   0.0250000), wk =   0.0014276
        k(   18) = (   0.0265625   0.0000000   0.0265625), wk =   0.0014276
        k(   19) = (   0.0281250   0.0000000   0.0281250), wk =   0.0014276
        k(   20) = (   0.0296875   0.0000000   0.0296875), wk =   0.0014276
        k(   21) = (   0.0312500   0.0000000   0.0312500), wk =   0.0014276
        k(   22) = (   0.0328125   0.0000000   0.0328125), wk =   0.0014276
        k(   23) = (   0.0343750   0.0000000   0.0343750), wk =   0.0014276
        k(   24) = (   0.0359375   0.0000000   0.0359375), wk =   0.0014276
        k(   25) = (   0.0375000   0.0000000   0.0375000), wk =   0.0014276
        k(   26) = (   0.0390625   0.0000000   0.0390625), wk =   0.0014276
        k(   27) = (   0.0406250   0.0000000   0.0406250), wk =   0.0014276
        k(   28) = (   0.0421875   0.0000000   0.0421875), wk =   0.0014276
        k(   29) = (   0.0437500   0.0000000   0.0437500), wk =   0.0014276
        k(   30) = (   0.0453125   0.0000000   0.0453125), wk =   0.0014276
        k(   31) = (   0.0468750   0.0000000   0.0468750), wk =   0.0014276
        k(   32) = (   0.0484375   0.0000000   0.0484375), wk =   0.0014276
        k(   33) = (   0.0500000   0.0000000   0.0500000), wk =   0.0014276
        k(   34) = (   0.0515625   0.0000000   0.0515625), wk =   0.0014276
        k(   35) = (   0.0531250   0.0000000   0.0531250), wk =   0.0014276
        k(   36) = (   0.0546875   0.0000000   0.0546875), wk =   0.0014276
        k(   37) = (   0.0562500   0.0000000   0.0562500), wk =   0.0014276
        k(   38) = (   0.0578125   0.0000000   0.0578125), wk =   0.0014276
        k(   39) = (   0.0593750   0.0000000   0.0593750), wk =   0.0014276
        k(   40) = (   0.0609375   0.0000000   0.0609375), wk =   0.0014276
        k(   41) = (   0.0625000   0.0000000   0.0625000), wk =   0.0014276
        k(   42) = (   0.0640625   0.0000000   0.0640625), wk =   0.0014276
        k(   43) = (   0.0656250   0.0000000   0.0656250), wk =   0.0014276
        k(   44) = (   0.0671875   0.0000000   0.0671875), wk =   0.0014276
        k(   45) = (   0.0687500   0.0000000   0.0687500), wk =   0.0014276
        k(   46) = (   0.0703125   0.0000000   0.0703125), wk =   0.0014276
        k(   47) = (   0.0718750   0.0000000   0.0718750), wk =   0.0014276
        k(   48) = (   0.0734375   0.0000000   0.0734375), wk =   0.0014276
        k(   49) = (   0.0750000   0.0000000   0.0750000), wk =   0.0014276
        k(   50) = (   0.0765625   0.0000000   0.0765625), wk =   0.0014276
        k(   51) = (   0.0781250   0.0000000   0.0781250), wk =   0.0014276
        k(   52) = (   0.0796875   0.0000000   0.0796875), wk =   0.0014276
        k(   53) = (   0.0812500   0.0000000   0.0812500), wk =   0.0014276
        k(   54) = (   0.0828125   0.0000000   0.0828125), wk =   0.0014276
        k(   55) = (   0.0843750   0.0000000   0.0843750), wk =   0.0014276
        k(   56) = (   0.0859375   0.0000000   0.0859375), wk =   0.0014276
        k(   57) = (   0.0875000   0.0000000   0.0875000), wk =   0.0014276
        k(   58) = (   0.0890625   0.0000000   0.0890625), wk =   0.0014276
        k(   59) = (   0.0906250   0.0000000   0.0906250), wk =   0.0014276
        k(   60) = (   0.0921875   0.0000000   0.0921875), wk =   0.0014276
        k(   61) = (   0.0937500   0.0000000   0.0937500), wk =   0.0014276
        k(   62) = (   0.0953125   0.0000000   0.0953125), wk =   0.0014276
        k(   63) = (   0.0968750   0.0000000   0.0968750), wk =   0.0014276
        k(   64) = (   0.0984375   0.0000000   0.0984375), wk =   0.0014276
        k(   65) = (   0.1000000   0.0000000   0.1000000), wk =   0.0014276
        k(   66) = (   0.1015625   0.0000000   0.1015625), wk =   0.0014276
        k(   67) = (   0.1031250   0.0000000   0.1031250), wk =   0.0014276
        k(   68) = (   0.1046875   0.0000000   0.1046875), wk =   0.0014276
        k(   69) = (   0.1062500   0.0000000   0.1062500), wk =   0.0014276
        k(   70) = (   0.1078125   0.0000000   0.1078125), wk =   0.0014276
        k(   71) = (   0.1093750   0.0000000   0.1093750), wk =   0.0014276
        k(   72) = (   0.1109375   0.0000000   0.1109375), wk =   0.0014276
        k(   73) = (   0.1125000   0.0000000   0.1125000), wk =   0.0014276
        k(   74) = (   0.1140625   0.0000000   0.1140625), wk =   0.0014276
        k(   75) = (   0.1156250   0.0000000   0.1156250), wk =   0.0014276
        k(   76) = (   0.1171875   0.0000000   0.1171875), wk =   0.0014276
        k(   77) = (   0.1187500   0.0000000   0.1187500), wk =   0.0014276
        k(   78) = (   0.1203125   0.0000000   0.1203125), wk =   0.0014276
        k(   79) = (   0.1218750   0.0000000   0.1218750), wk =   0.0014276
        k(   80) = (   0.1234375   0.0000000   0.1234375), wk =   0.0014276
        k(   81) = (   0.1250000   0.0000000   0.1250000), wk =   0.0014276
        k(   82) = (   0.1265625   0.0000000   0.1265625), wk =   0.0014276
        k(   83) = (   0.1281250   0.0000000   0.1281250), wk =   0.0014276
        k(   84) = (   0.1296875   0.0000000   0.1296875), wk =   0.0014276
        k(   85) = (   0.1312500   0.0000000   0.1312500), wk =   0.0014276
        k(   86) = (   0.1328125   0.0000000   0.1328125), wk =   0.0014276
        k(   87) = (   0.1343750   0.0000000   0.1343750), wk =   0.0014276
        k(   88) = (   0.1359375   0.0000000   0.1359375), wk =   0.0014276
        k(   89) = (   0.1375000   0.0000000   0.1375000), wk =   0.0014276
        k(   90) = (   0.1390625   0.0000000   0.1390625), wk =   0.0014276
        k(   91) = (   0.1406250   0.0000000   0.1406250), wk =   0.0014276
        k(   92) = (   0.1421875   0.0000000   0.1421875), wk =   0.0014276
        k(   93) = (   0.1437500   0.0000000   0.1437500), wk =   0.0014276
        k(   94) = (   0.1453125   0.0000000   0.1453125), wk =   0.0014276
        k(   95) = (   0.1468750   0.0000000   0.1468750), wk =   0.0014276
        k(   96) = (   0.1484375   0.0000000   0.1484375), wk =   0.0014276
        k(   97) = (   0.1500000   0.0000000   0.1500000), wk =   0.0014276
        k(   98) = (   0.1515625   0.0000000   0.1515625), wk =   0.0014276
        k(   99) = (   0.1531250   0.0000000   0.1531250), wk =   0.0014276
        k(  100) = (   0.1546875   0.0000000   0.1546875), wk =   0.0014276
        k(  101) = (   0.1562500   0.0000000   0.1562500), wk =   0.0014276
        k(  102) = (   0.1578125   0.0000000   0.1578125), wk =   0.0014276
        k(  103) = (   0.1593750   0.0000000   0.1593750), wk =   0.0014276
        k(  104) = (   0.1609375   0.0000000   0.1609375), wk =   0.0014276
        k(  105) = (   0.1625000   0.0000000   0.1625000), wk =   0.0014276
        k(  106) = (   0.1640625   0.0000000   0.1640625), wk =   0.0014276
        k(  107) = (   0.1656250   0.0000000   0.1656250), wk =   0.0014276
        k(  108) = (   0.1671875   0.0000000   0.1671875), wk =   0.0014276
        k(  109) = (   0.1687500   0.0000000   0.1687500), wk =   0.0014276
        k(  110) = (   0.1703125   0.0000000   0.1703125), wk =   0.0014276
        k(  111) = (   0.1718750   0.0000000   0.1718750), wk =   0.0014276
        k(  112) = (   0.1734375   0.0000000   0.1734375), wk =   0.0014276
        k(  113) = (   0.1750000   0.0000000   0.1750000), wk =   0.0014276
        k(  114) = (   0.1765625   0.0000000   0.1765625), wk =   0.0014276
        k(  115) = (   0.1781250   0.0000000   0.1781250), wk =   0.0014276
        k(  116) = (   0.1796875   0.0000000   0.1796875), wk =   0.0014276
        k(  117) = (   0.1812500   0.0000000   0.1812500), wk =   0.0014276
        k(  118) = (   0.1828125   0.0000000   0.1828125), wk =   0.0014276
        k(  119) = (   0.1843750   0.0000000   0.1843750), wk =   0.0014276
        k(  120) = (   0.1859375   0.0000000   0.1859375), wk =   0.0014276
        k(  121) = (   0.1875000   0.0000000   0.1875000), wk =   0.0014276
        k(  122) = (   0.1890625   0.0000000   0.1890625), wk =   0.0014276
        k(  123) = (   0.1906250   0.0000000   0.1906250), wk =   0.0014276
        k(  124) = (   0.1921875   0.0000000   0.1921875), wk =   0.0014276
        k(  125) = (   0.1937500   0.0000000   0.1937500), wk =   0.0014276
        k(  126) = (   0.1953125   0.0000000   0.1953125), wk =   0.0014276
        k(  127) = (   0.1968750   0.0000000   0.1968750), wk =   0.0014276
        k(  128) = (   0.1984375   0.0000000   0.1984375), wk =   0.0014276
        k(  129) = (   0.2000000   0.0000000   0.2000000), wk =   0.0014276
        k(  130) = (   0.2015625   0.0000000   0.2015625), wk =   0.0014276
        k(  131) = (   0.2031250   0.0000000   0.2031250), wk =   0.0014276
        k(  132) = (   0.2046875   0.0000000   0.2046875), wk =   0.0014276
        k(  133) = (   0.2062500   0.0000000   0.2062500), wk =   0.0014276
        k(  134) = (   0.2078125   0.0000000   0.2078125), wk =   0.0014276
        k(  135) = (   0.2093750   0.0000000   0.2093750), wk =   0.0014276
        k(  136) = (   0.2109375   0.0000000   0.2109375), wk =   0.0014276
        k(  137) = (   0.2125000   0.0000000   0.2125000), wk =   0.0014276
        k(  138) = (   0.2140625   0.0000000   0.2140625), wk =   0.0014276
        k(  139) = (   0.2156250   0.0000000   0.2156250), wk =   0.0014276
        k(  140) = (   0.2171875   0.0000000   0.2171875), wk =   0.0014276
        k(  141) = (   0.2187500   0.0000000   0.2187500), wk =   0.0014276
        k(  142) = (   0.2203125   0.0000000   0.2203125), wk =   0.0014276
        k(  143) = (   0.2218750   0.0000000   0.2218750), wk =   0.0014276
        k(  144) = (   0.2234375   0.0000000   0.2234375), wk =   0.0014276
        k(  145) = (   0.2250000   0.0000000   0.2250000), wk =   0.0014276
        k(  146) = (   0.2265625   0.0000000   0.2265625), wk =   0.0014276
        k(  147) = (   0.2281250   0.0000000   0.2281250), wk =   0.0014276
        k(  148) = (   0.2296875   0.0000000   0.2296875), wk =   0.0014276
        k(  149) = (   0.2312500   0.0000000   0.2312500), wk =   0.0014276
        k(  150) = (   0.2328125   0.0000000   0.2328125), wk =   0.0014276
        k(  151) = (   0.2343750   0.0000000   0.2343750), wk =   0.0014276
        k(  152) = (   0.2359375   0.0000000   0.2359375), wk =   0.0014276
        k(  153) = (   0.2375000   0.0000000   0.2375000), wk =   0.0014276
        k(  154) = (   0.2390625   0.0000000   0.2390625), wk =   0.0014276
        k(  155) = (   0.2406250   0.0000000   0.2406250), wk =   0.0014276
        k(  156) = (   0.2421875   0.0000000   0.2421875), wk =   0.0014276
        k(  157) = (   0.2437500   0.0000000   0.2437500), wk =   0.0014276
        k(  158) = (   0.2453125   0.0000000   0.2453125), wk =   0.0014276
        k(  159) = (   0.2468750   0.0000000   0.2468750), wk =   0.0014276
        k(  160) = (   0.2484375   0.0000000   0.2484375), wk =   0.0014276
        k(  161) = (   0.2500000   0.0000000   0.2500000), wk =   0.0014276
        k(  162) = (   0.2515625   0.0000000   0.2515625), wk =   0.0014276
        k(  163) = (   0.2531250   0.0000000   0.2531250), wk =   0.0014276
        k(  164) = (   0.2546875   0.0000000   0.2546875), wk =   0.0014276
        k(  165) = (   0.2562500   0.0000000   0.2562500), wk =   0.0014276
        k(  166) = (   0.2578125   0.0000000   0.2578125), wk =   0.0014276
        k(  167) = (   0.2593750   0.0000000   0.2593750), wk =   0.0014276
        k(  168) = (   0.2609375   0.0000000   0.2609375), wk =   0.0014276
        k(  169) = (   0.2625000   0.0000000   0.2625000), wk =   0.0014276
        k(  170) = (   0.2640625   0.0000000   0.2640625), wk =   0.0014276
        k(  171) = (   0.2656250   0.0000000   0.2656250), wk =   0.0014276
        k(  172) = (   0.2671875   0.0000000   0.2671875), wk =   0.0014276
        k(  173) = (   0.2687500   0.0000000   0.2687500), wk =   0.0014276
        k(  174) = (   0.2703125   0.0000000   0.2703125), wk =   0.0014276
        k(  175) = (   0.2718750   0.0000000   0.2718750), wk =   0.0014276
        k(  176) = (   0.2734375   0.0000000   0.2734375), wk =   0.0014276
        k(  177) = (   0.2750000   0.0000000   0.2750000), wk =   0.0014276
        k(  178) = (   0.2765625   0.0000000   0.2765625), wk =   0.0014276
        k(  179) = (   0.2781250   0.0000000   0.2781250), wk =   0.0014276
        k(  180) = (   0.2796875   0.0000000   0.2796875), wk =   0.0014276
        k(  181) = (   0.2812500   0.0000000   0.2812500), wk =   0.0014276
        k(  182) = (   0.2828125   0.0000000   0.2828125), wk =   0.0014276
        k(  183) = (   0.2843750   0.0000000   0.2843750), wk =   0.0014276
        k(  184) = (   0.2859375   0.0000000   0.2859375), wk =   0.0014276
        k(  185) = (   0.2875000   0.0000000   0.2875000), wk =   0.0014276
        k(  186) = (   0.2890625   0.0000000   0.2890625), wk =   0.0014276
        k(  187) = (   0.2906250   0.0000000   0.2906250), wk =   0.0014276
        k(  188) = (   0.2921875   0.0000000   0.2921875), wk =   0.0014276
        k(  189) = (   0.2937500   0.0000000   0.2937500), wk =   0.0014276
        k(  190) = (   0.2953125   0.0000000   0.2953125), wk =   0.0014276
        k(  191) = (   0.2968750   0.0000000   0.2968750), wk =   0.0014276
        k(  192) = (   0.2984375   0.0000000   0.2984375), wk =   0.0014276
        k(  193) = (   0.3000000   0.0000000   0.3000000), wk =   0.0014276
        k(  194) = (   0.3015625   0.0000000   0.3015625), wk =   0.0014276
        k(  195) = (   0.3031250   0.0000000   0.3031250), wk =   0.0014276
        k(  196) = (   0.3046875   0.0000000   0.3046875), wk =   0.0014276
        k(  197) = (   0.3062500   0.0000000   0.3062500), wk =   0.0014276
        k(  198) = (   0.3078125   0.0000000   0.3078125), wk =   0.0014276
        k(  199) = (   0.3093750   0.0000000   0.3093750), wk =   0.0014276
        k(  200) = (   0.3109375   0.0000000   0.3109375), wk =   0.0014276
        k(  201) = (   0.3125000   0.0000000   0.3125000), wk =   0.0014276
        k(  202) = (   0.3140625   0.0000000   0.3140625), wk =   0.0014276
        k(  203) = (   0.3156250   0.0000000   0.3156250), wk =   0.0014276
        k(  204) = (   0.3171875   0.0000000   0.3171875), wk =   0.0014276
        k(  205) = (   0.3187500   0.0000000   0.3187500), wk =   0.0014276
        k(  206) = (   0.3203125   0.0000000   0.3203125), wk =   0.0014276
        k(  207) = (   0.3218750   0.0000000   0.3218750), wk =   0.0014276
        k(  208) = (   0.3234375   0.0000000   0.3234375), wk =   0.0014276
        k(  209) = (   0.3250000   0.0000000   0.3250000), wk =   0.0014276
        k(  210) = (   0.3265625   0.0000000   0.3265625), wk =   0.0014276
        k(  211) = (   0.3281250   0.0000000   0.3281250), wk =   0.0014276
        k(  212) = (   0.3296875   0.0000000   0.3296875), wk =   0.0014276
        k(  213) = (   0.3312500   0.0000000   0.3312500), wk =   0.0014276
        k(  214) = (   0.3328125   0.0000000   0.3328125), wk =   0.0014276
        k(  215) = (   0.3343750   0.0000000   0.3343750), wk =   0.0014276
        k(  216) = (   0.3359375   0.0000000   0.3359375), wk =   0.0014276
        k(  217) = (   0.3375000   0.0000000   0.3375000), wk =   0.0014276
        k(  218) = (   0.3390625   0.0000000   0.3390625), wk =   0.0014276
        k(  219) = (   0.3406250   0.0000000   0.3406250), wk =   0.0014276
        k(  220) = (   0.3421875   0.0000000   0.3421875), wk =   0.0014276
        k(  221) = (   0.3437500   0.0000000   0.3437500), wk =   0.0014276
        k(  222) = (   0.3453125   0.0000000   0.3453125), wk =   0.0014276
        k(  223) = (   0.3468750   0.0000000   0.3468750), wk =   0.0014276
        k(  224) = (   0.3484375   0.0000000   0.3484375), wk =   0.0014276
        k(  225) = (   0.3500000   0.0000000   0.3500000), wk =   0.0014276
        k(  226) = (   0.3515625   0.0000000   0.3515625), wk =   0.0014276
        k(  227) = (   0.3531250   0.0000000   0.3531250), wk =   0.0014276
        k(  228) = (   0.3546875   0.0000000   0.3546875), wk =   0.0014276
        k(  229) = (   0.3562500   0.0000000   0.3562500), wk =   0.0014276
        k(  230) = (   0.3578125   0.0000000   0.3578125), wk =   0.0014276
        k(  231) = (   0.3593750   0.0000000   0.3593750), wk =   0.0014276
        k(  232) = (   0.3609375   0.0000000   0.3609375), wk =   0.0014276
        k(  233) = (   0.3625000   0.0000000   0.3625000), wk =   0.0014276
        k(  234) = (   0.3640625   0.0000000   0.3640625), wk =   0.0014276
        k(  235) = (   0.3656250   0.0000000   0.3656250), wk =   0.0014276
        k(  236) = (   0.3671875   0.0000000   0.3671875), wk =   0.0014276
        k(  237) = (   0.3687500   0.0000000   0.3687500), wk =   0.0014276
        k(  238) = (   0.3703125   0.0000000   0.3703125), wk =   0.0014276
        k(  239) = (   0.3718750   0.0000000   0.3718750), wk =   0.0014276
        k(  240) = (   0.3734375   0.0000000   0.3734375), wk =   0.0014276
        k(  241) = (   0.3750000   0.0000000   0.3750000), wk =   0.0014276
        k(  242) = (   0.3765625   0.0000000   0.3765625), wk =   0.0014276
        k(  243) = (   0.3781250   0.0000000   0.3781250), wk =   0.0014276
        k(  244) = (   0.3796875   0.0000000   0.3796875), wk =   0.0014276
        k(  245) = (   0.3812500   0.0000000   0.3812500), wk =   0.0014276
        k(  246) = (   0.3828125   0.0000000   0.3828125), wk =   0.0014276
        k(  247) = (   0.3843750   0.0000000   0.3843750), wk =   0.0014276
        k(  248) = (   0.3859375   0.0000000   0.3859375), wk =   0.0014276
        k(  249) = (   0.3875000   0.0000000   0.3875000), wk =   0.0014276
        k(  250) = (   0.3890625   0.0000000   0.3890625), wk =   0.0014276
        k(  251) = (   0.3906250   0.0000000   0.3906250), wk =   0.0014276
        k(  252) = (   0.3921875   0.0000000   0.3921875), wk =   0.0014276
        k(  253) = (   0.3937500   0.0000000   0.3937500), wk =   0.0014276
        k(  254) = (   0.3953125   0.0000000   0.3953125), wk =   0.0014276
        k(  255) = (   0.3968750   0.0000000   0.3968750), wk =   0.0014276
        k(  256) = (   0.3984375   0.0000000   0.3984375), wk =   0.0014276
        k(  257) = (   0.4000000   0.0000000   0.4000000), wk =   0.0014276
        k(  258) = (   0.4015625   0.0000000   0.4015625), wk =   0.0014276
        k(  259) = (   0.4031250   0.0000000   0.4031250), wk =   0.0014276
        k(  260) = (   0.4046875   0.0000000   0.4046875), wk =   0.0014276
        k(  261) = (   0.4062500   0.0000000   0.4062500), wk =   0.0014276
        k(  262) = (   0.4078125   0.0000000   0.4078125), wk =   0.0014276
        k(  263) = (   0.4093750   0.0000000   0.4093750), wk =   0.0014276
        k(  264) = (   0.4109375   0.0000000   0.4109375), wk =   0.0014276
        k(  265) = (   0.4125000   0.0000000   0.4125000), wk =   0.0014276
        k(  266) = (   0.4140625   0.0000000   0.4140625), wk =   0.0014276
        k(  267) = (   0.4156250   0.0000000   0.4156250), wk =   0.0014276
        k(  268) = (   0.4171875   0.0000000   0.4171875), wk =   0.0014276
        k(  269) = (   0.4187500   0.0000000   0.4187500), wk =   0.0014276
        k(  270) = (   0.4203125   0.0000000   0.4203125), wk =   0.0014276
        k(  271) = (   0.4218750   0.0000000   0.4218750), wk =   0.0014276
        k(  272) = (   0.4234375   0.0000000   0.4234375), wk =   0.0014276
        k(  273) = (   0.4250000   0.0000000   0.4250000), wk =   0.0014276
        k(  274) = (   0.4265625   0.0000000   0.4265625), wk =   0.0014276
        k(  275) = (   0.4281250   0.0000000   0.4281250), wk =   0.0014276
        k(  276) = (   0.4296875   0.0000000   0.4296875), wk =   0.0014276
        k(  277) = (   0.4312500   0.0000000   0.4312500), wk =   0.0014276
        k(  278) = (   0.4328125   0.0000000   0.4328125), wk =   0.0014276
        k(  279) = (   0.4343750   0.0000000   0.4343750), wk =   0.0014276
        k(  280) = (   0.4359375   0.0000000   0.4359375), wk =   0.0014276
        k(  281) = (   0.4375000   0.0000000   0.4375000), wk =   0.0014276
        k(  282) = (   0.4390625   0.0000000   0.4390625), wk =   0.0014276
        k(  283) = (   0.4406250   0.0000000   0.4406250), wk =   0.0014276
        k(  284) = (   0.4421875   0.0000000   0.4421875), wk =   0.0014276
        k(  285) = (   0.4437500   0.0000000   0.4437500), wk =   0.0014276
        k(  286) = (   0.4453125   0.0000000   0.4453125), wk =   0.0014276
        k(  287) = (   0.4468750   0.0000000   0.4468750), wk =   0.0014276
        k(  288) = (   0.4484375   0.0000000   0.4484375), wk =   0.0014276
        k(  289) = (   0.4500000   0.0000000   0.4500000), wk =   0.0014276
        k(  290) = (   0.4515625   0.0000000   0.4515625), wk =   0.0014276
        k(  291) = (   0.4531250   0.0000000   0.4531250), wk =   0.0014276
        k(  292) = (   0.4546875   0.0000000   0.4546875), wk =   0.0014276
        k(  293) = (   0.4562500   0.0000000   0.4562500), wk =   0.0014276
        k(  294) = (   0.4578125   0.0000000   0.4578125), wk =   0.0014276
        k(  295) = (   0.4593750   0.0000000   0.4593750), wk =   0.0014276
        k(  296) = (   0.4609375   0.0000000   0.4609375), wk =   0.0014276
        k(  297) = (   0.4625000   0.0000000   0.4625000), wk =   0.0014276
        k(  298) = (   0.4640625   0.0000000   0.4640625), wk =   0.0014276
        k(  299) = (   0.4656250   0.0000000   0.4656250), wk =   0.0014276
        k(  300) = (   0.4671875   0.0000000   0.4671875), wk =   0.0014276
        k(  301) = (   0.4687500   0.0000000   0.4687500), wk =   0.0014276
        k(  302) = (   0.4703125   0.0000000   0.4703125), wk =   0.0014276
        k(  303) = (   0.4718750   0.0000000   0.4718750), wk =   0.0014276
        k(  304) = (   0.4734375   0.0000000   0.4734375), wk =   0.0014276
        k(  305) = (   0.4750000   0.0000000   0.4750000), wk =   0.0014276
        k(  306) = (   0.4765625   0.0000000   0.4765625), wk =   0.0014276
        k(  307) = (   0.4781250   0.0000000   0.4781250), wk =   0.0014276
        k(  308) = (   0.4796875   0.0000000   0.4796875), wk =   0.0014276
        k(  309) = (   0.4812500   0.0000000   0.4812500), wk =   0.0014276
        k(  310) = (   0.4828125   0.0000000   0.4828125), wk =   0.0014276
        k(  311) = (   0.4843750   0.0000000   0.4843750), wk =   0.0014276
        k(  312) = (   0.4859375   0.0000000   0.4859375), wk =   0.0014276
        k(  313) = (   0.4875000   0.0000000   0.4875000), wk =   0.0014276
        k(  314) = (   0.4890625   0.0000000   0.4890625), wk =   0.0014276
        k(  315) = (   0.4906250   0.0000000   0.4906250), wk =   0.0014276
        k(  316) = (   0.4921875   0.0000000   0.4921875), wk =   0.0014276
        k(  317) = (   0.4937500   0.0000000   0.4937500), wk =   0.0014276
        k(  318) = (   0.4953125   0.0000000   0.4953125), wk =   0.0014276
        k(  319) = (   0.4968750   0.0000000   0.4968750), wk =   0.0014276
        k(  320) = (   0.4984375   0.0000000   0.4984375), wk =   0.0014276
        k(  321) = (   0.5000000   0.0000000   0.5000000), wk =   0.0014276
        k(  322) = (   0.5015625   0.0031250   0.5015625), wk =   0.0014276
        k(  323) = (   0.5031250   0.0062500   0.5031250), wk =   0.0014276
        k(  324) = (   0.5046875   0.0093750   0.5046875), wk =   0.0014276
        k(  325) = (   0.5062500   0.0125000   0.5062500), wk =   0.0014276
        k(  326) = (   0.5078125   0.0156250   0.5078125), wk =   0.0014276
        k(  327) = (   0.5093750   0.0187500   0.5093750), wk =   0.0014276
        k(  328) = (   0.5109375   0.0218750   0.5109375), wk =   0.0014276
        k(  329) = (   0.5125000   0.0250000   0.5125000), wk =   0.0014276
        k(  330) = (   0.5140625   0.0281250   0.5140625), wk =   0.0014276
        k(  331) = (   0.5156250   0.0312500   0.5156250), wk =   0.0014276
        k(  332) = (   0.5171875   0.0343750   0.5171875), wk =   0.0014276
        k(  333) = (   0.5187500   0.0375000   0.5187500), wk =   0.0014276
        k(  334) = (   0.5203125   0.0406250   0.5203125), wk =   0.0014276
        k(  335) = (   0.5218750   0.0437500   0.5218750), wk =   0.0014276
        k(  336) = (   0.5234375   0.0468750   0.5234375), wk =   0.0014276
        k(  337) = (   0.5250000   0.0500000   0.5250000), wk =   0.0014276
        k(  338) = (   0.5265625   0.0531250   0.5265625), wk =   0.0014276
        k(  339) = (   0.5281250   0.0562500   0.5281250), wk =   0.0014276
        k(  340) = (   0.5296875   0.0593750   0.5296875), wk =   0.0014276
        k(  341) = (   0.5312500   0.0625000   0.5312500), wk =   0.0014276
        k(  342) = (   0.5328125   0.0656250   0.5328125), wk =   0.0014276
        k(  343) = (   0.5343750   0.0687500   0.5343750), wk =   0.0014276
        k(  344) = (   0.5359375   0.0718750   0.5359375), wk =   0.0014276
        k(  345) = (   0.5375000   0.0750000   0.5375000), wk =   0.0014276
        k(  346) = (   0.5390625   0.0781250   0.5390625), wk =   0.0014276
        k(  347) = (   0.5406250   0.0812500   0.5406250), wk =   0.0014276
        k(  348) = (   0.5421875   0.0843750   0.5421875), wk =   0.0014276
        k(  349) = (   0.5437500   0.0875000   0.5437500), wk =   0.0014276
        k(  350) = (   0.5453125   0.0906250   0.5453125), wk =   0.0014276
        k(  351) = (   0.5468750   0.0937500   0.5468750), wk =   0.0014276
        k(  352) = (   0.5484375   0.0968750   0.5484375), wk =   0.0014276
        k(  353) = (   0.5500000   0.1000000   0.5500000), wk =   0.0014276
        k(  354) = (   0.5515625   0.1031250   0.5515625), wk =   0.0014276
        k(  355) = (   0.5531250   0.1062500   0.5531250), wk =   0.0014276
        k(  356) = (   0.5546875   0.1093750   0.5546875), wk =   0.0014276
        k(  357) = (   0.5562500   0.1125000   0.5562500), wk =   0.0014276
        k(  358) = (   0.5578125   0.1156250   0.5578125), wk =   0.0014276
        k(  359) = (   0.5593750   0.1187500   0.5593750), wk =   0.0014276
        k(  360) = (   0.5609375   0.1218750   0.5609375), wk =   0.0014276
        k(  361) = (   0.5625000   0.1250000   0.5625000), wk =   0.0014276
        k(  362) = (   0.5640625   0.1281250   0.5640625), wk =   0.0014276
        k(  363) = (   0.5656250   0.1312500   0.5656250), wk =   0.0014276
        k(  364) = (   0.5671875   0.1343750   0.5671875), wk =   0.0014276
        k(  365) = (   0.5687500   0.1375000   0.5687500), wk =   0.0014276
        k(  366) = (   0.5703125   0.1406250   0.5703125), wk =   0.0014276
        k(  367) = (   0.5718750   0.1437500   0.5718750), wk =   0.0014276
        k(  368) = (   0.5734375   0.1468750   0.5734375), wk =   0.0014276
        k(  369) = (   0.5750000   0.1500000   0.5750000), wk =   0.0014276
        k(  370) = (   0.5765625   0.1531250   0.5765625), wk =   0.0014276
        k(  371) = (   0.5781250   0.1562500   0.5781250), wk =   0.0014276
        k(  372) = (   0.5796875   0.1593750   0.5796875), wk =   0.0014276
        k(  373) = (   0.5812500   0.1625000   0.5812500), wk =   0.0014276
        k(  374) = (   0.5828125   0.1656250   0.5828125), wk =   0.0014276
        k(  375) = (   0.5843750   0.1687500   0.5843750), wk =   0.0014276
        k(  376) = (   0.5859375   0.1718750   0.5859375), wk =   0.0014276
        k(  377) = (   0.5875000   0.1750000   0.5875000), wk =   0.0014276
        k(  378) = (   0.5890625   0.1781250   0.5890625), wk =   0.0014276
        k(  379) = (   0.5906250   0.1812500   0.5906250), wk =   0.0014276
        k(  380) = (   0.5921875   0.1843750   0.5921875), wk =   0.0014276
        k(  381) = (   0.5937500   0.1875000   0.5937500), wk =   0.0014276
        k(  382) = (   0.5953125   0.1906250   0.5953125), wk =   0.0014276
        k(  383) = (   0.5968750   0.1937500   0.5968750), wk =   0.0014276
        k(  384) = (   0.5984375   0.1968750   0.5984375), wk =   0.0014276
        k(  385) = (   0.6000000   0.2000000   0.6000000), wk =   0.0014276
        k(  386) = (   0.6015625   0.2031250   0.6015625), wk =   0.0014276
        k(  387) = (   0.6031250   0.2062500   0.6031250), wk =   0.0014276
        k(  388) = (   0.6046875   0.2093750   0.6046875), wk =   0.0014276
        k(  389) = (   0.6062500   0.2125000   0.6062500), wk =   0.0014276
        k(  390) = (   0.6078125   0.2156250   0.6078125), wk =   0.0014276
        k(  391) = (   0.6093750   0.2187500   0.6093750), wk =   0.0014276
        k(  392) = (   0.6109375   0.2218750   0.6109375), wk =   0.0014276
        k(  393) = (   0.6125000   0.2250000   0.6125000), wk =   0.0014276
        k(  394) = (   0.6140625   0.2281250   0.6140625), wk =   0.0014276
        k(  395) = (   0.6156250   0.2312500   0.6156250), wk =   0.0014276
        k(  396) = (   0.6171875   0.2343750   0.6171875), wk =   0.0014276
        k(  397) = (   0.6187500   0.2375000   0.6187500), wk =   0.0014276
        k(  398) = (   0.6203125   0.2406250   0.6203125), wk =   0.0014276
        k(  399) = (   0.6218750   0.2437500   0.6218750), wk =   0.0014276
        k(  400) = (   0.6234375   0.2468750   0.6234375), wk =   0.0014276
        k(  401) = (   0.6250000   0.2500000   0.6250000), wk =   0.0014276
        k(  402) = (   0.6187500   0.2531250   0.6281250), wk =   0.0014276
        k(  403) = (   0.6125000   0.2562500   0.6312500), wk =   0.0014276
        k(  404) = (   0.6062500   0.2593750   0.6343750), wk =   0.0014276
        k(  405) = (   0.6000000   0.2625000   0.6375000), wk =   0.0014276
        k(  406) = (   0.5937500   0.2656250   0.6406250), wk =   0.0014276
        k(  407) = (   0.5875000   0.2687500   0.6437500), wk =   0.0014276
        k(  408) = (   0.5812500   0.2718750   0.6468750), wk =   0.0014276
        k(  409) = (   0.5750000   0.2750000   0.6500000), wk =   0.0014276
        k(  410) = (   0.5687500   0.2781250   0.6531250), wk =   0.0014276
        k(  411) = (   0.5625000   0.2812500   0.6562500), wk =   0.0014276
        k(  412) = (   0.5562500   0.2843750   0.6593750), wk =   0.0014276
        k(  413) = (   0.5500000   0.2875000   0.6625000), wk =   0.0014276
        k(  414) = (   0.5437500   0.2906250   0.6656250), wk =   0.0014276
        k(  415) = (   0.5375000   0.2937500   0.6687500), wk =   0.0014276
        k(  416) = (   0.5312500   0.2968750   0.6718750), wk =   0.0014276
        k(  417) = (   0.5250000   0.3000000   0.6750000), wk =   0.0014276
        k(  418) = (   0.5187500   0.3031250   0.6781250), wk =   0.0014276
        k(  419) = (   0.5125000   0.3062500   0.6812500), wk =   0.0014276
        k(  420) = (   0.5062500   0.3093750   0.6843750), wk =   0.0014276
        k(  421) = (   0.5000000   0.3125000   0.6875000), wk =   0.0014276
        k(  422) = (   0.4937500   0.3156250   0.6906250), wk =   0.0014276
        k(  423) = (   0.4875000   0.3187500   0.6937500), wk =   0.0014276
        k(  424) = (   0.4812500   0.3218750   0.6968750), wk =   0.0014276
        k(  425) = (   0.4750000   0.3250000   0.7000000), wk =   0.0014276
        k(  426) = (   0.4687500   0.3281250   0.7031250), wk =   0.0014276
        k(  427) = (   0.4625000   0.3312500   0.7062500), wk =   0.0014276
        k(  428) = (   0.4562500   0.3343750   0.7093750), wk =   0.0014276
        k(  429) = (   0.4500000   0.3375000   0.7125000), wk =   0.0014276
        k(  430) = (   0.4437500   0.3406250   0.7156250), wk =   0.0014276
        k(  431) = (   0.4375000   0.3437500   0.7187500), wk =   0.0014276
        k(  432) = (   0.4312500   0.3468750   0.7218750), wk =   0.0014276
        k(  433) = (   0.4250000   0.3500000   0.7250000), wk =   0.0014276
        k(  434) = (   0.4187500   0.3531250   0.7281250), wk =   0.0014276
        k(  435) = (   0.4125000   0.3562500   0.7312500), wk =   0.0014276
        k(  436) = (   0.4062500   0.3593750   0.7343750), wk =   0.0014276
        k(  437) = (   0.4000000   0.3625000   0.7375000), wk =   0.0014276
        k(  438) = (   0.3937500   0.3656250   0.7406250), wk =   0.0014276
        k(  439) = (   0.3875000   0.3687500   0.7437500), wk =   0.0014276
        k(  440) = (   0.3812500   0.3718750   0.7468750), wk =   0.0014276
        k(  441) = (   0.3750000   0.3750000   0.7500000), wk =   0.0014276
        k(  442) = (   0.3739583   0.3739583   0.7479167), wk =   0.0014276
        k(  443) = (   0.3729167   0.3729167   0.7458333), wk =   0.0014276
        k(  444) = (   0.3718750   0.3718750   0.7437500), wk =   0.0014276
        k(  445) = (   0.3708333   0.3708333   0.7416667), wk =   0.0014276
        k(  446) = (   0.3697917   0.3697917   0.7395833), wk =   0.0014276
        k(  447) = (   0.3687500   0.3687500   0.7375000), wk =   0.0014276
        k(  448) = (   0.3677083   0.3677083   0.7354167), wk =   0.0014276
        k(  449) = (   0.3666667   0.3666667   0.7333333), wk =   0.0014276
        k(  450) = (   0.3656250   0.3656250   0.7312500), wk =   0.0014276
        k(  451) = (   0.3645833   0.3645833   0.7291667), wk =   0.0014276
        k(  452) = (   0.3635417   0.3635417   0.7270833), wk =   0.0014276
        k(  453) = (   0.3625000   0.3625000   0.7250000), wk =   0.0014276
        k(  454) = (   0.3614583   0.3614583   0.7229167), wk =   0.0014276
        k(  455) = (   0.3604167   0.3604167   0.7208333), wk =   0.0014276
        k(  456) = (   0.3593750   0.3593750   0.7187500), wk =   0.0014276
        k(  457) = (   0.3583333   0.3583333   0.7166667), wk =   0.0014276
        k(  458) = (   0.3572917   0.3572917   0.7145833), wk =   0.0014276
        k(  459) = (   0.3562500   0.3562500   0.7125000), wk =   0.0014276
        k(  460) = (   0.3552083   0.3552083   0.7104167), wk =   0.0014276
        k(  461) = (   0.3541667   0.3541667   0.7083333), wk =   0.0014276
        k(  462) = (   0.3531250   0.3531250   0.7062500), wk =   0.0014276
        k(  463) = (   0.3520833   0.3520833   0.7041667), wk =   0.0014276
        k(  464) = (   0.3510417   0.3510417   0.7020833), wk =   0.0014276
        k(  465) = (   0.3500000   0.3500000   0.7000000), wk =   0.0014276
        k(  466) = (   0.3489583   0.3489583   0.6979167), wk =   0.0014276
        k(  467) = (   0.3479167   0.3479167   0.6958333), wk =   0.0014276
        k(  468) = (   0.3468750   0.3468750   0.6937500), wk =   0.0014276
        k(  469) = (   0.3458333   0.3458333   0.6916667), wk =   0.0014276
        k(  470) = (   0.3447917   0.3447917   0.6895833), wk =   0.0014276
        k(  471) = (   0.3437500   0.3437500   0.6875000), wk =   0.0014276
        k(  472) = (   0.3427083   0.3427083   0.6854167), wk =   0.0014276
        k(  473) = (   0.3416667   0.3416667   0.6833333), wk =   0.0014276
        k(  474) = (   0.3406250   0.3406250   0.6812500), wk =   0.0014276
        k(  475) = (   0.3395833   0.3395833   0.6791667), wk =   0.0014276
        k(  476) = (   0.3385417   0.3385417   0.6770833), wk =   0.0014276
        k(  477) = (   0.3375000   0.3375000   0.6750000), wk =   0.0014276
        k(  478) = (   0.3364583   0.3364583   0.6729167), wk =   0.0014276
        k(  479) = (   0.3354167   0.3354167   0.6708333), wk =   0.0014276
        k(  480) = (   0.3343750   0.3343750   0.6687500), wk =   0.0014276
        k(  481) = (   0.3333333   0.3333333   0.6666667), wk =   0.0014276
        k(  482) = (   0.3322917   0.3322917   0.6645833), wk =   0.0014276
        k(  483) = (   0.3312500   0.3312500   0.6625000), wk =   0.0014276
        k(  484) = (   0.3302083   0.3302083   0.6604167), wk =   0.0014276
        k(  485) = (   0.3291667   0.3291667   0.6583333), wk =   0.0014276
        k(  486) = (   0.3281250   0.3281250   0.6562500), wk =   0.0014276
        k(  487) = (   0.3270833   0.3270833   0.6541667), wk =   0.0014276
        k(  488) = (   0.3260417   0.3260417   0.6520833), wk =   0.0014276
        k(  489) = (   0.3250000   0.3250000   0.6500000), wk =   0.0014276
        k(  490) = (   0.3239583   0.3239583   0.6479167), wk =   0.0014276
        k(  491) = (   0.3229167   0.3229167   0.6458333), wk =   0.0014276
        k(  492) = (   0.3218750   0.3218750   0.6437500), wk =   0.0014276
        k(  493) = (   0.3208333   0.3208333   0.6416667), wk =   0.0014276
        k(  494) = (   0.3197917   0.3197917   0.6395833), wk =   0.0014276
        k(  495) = (   0.3187500   0.3187500   0.6375000), wk =   0.0014276
        k(  496) = (   0.3177083   0.3177083   0.6354167), wk =   0.0014276
        k(  497) = (   0.3166667   0.3166667   0.6333333), wk =   0.0014276
        k(  498) = (   0.3156250   0.3156250   0.6312500), wk =   0.0014276
        k(  499) = (   0.3145833   0.3145833   0.6291667), wk =   0.0014276
        k(  500) = (   0.3135417   0.3135417   0.6270833), wk =   0.0014276
        k(  501) = (   0.3125000   0.3125000   0.6250000), wk =   0.0014276
        k(  502) = (   0.3114583   0.3114583   0.6229167), wk =   0.0014276
        k(  503) = (   0.3104167   0.3104167   0.6208333), wk =   0.0014276
        k(  504) = (   0.3093750   0.3093750   0.6187500), wk =   0.0014276
        k(  505) = (   0.3083333   0.3083333   0.6166667), wk =   0.0014276
        k(  506) = (   0.3072917   0.3072917   0.6145833), wk =   0.0014276
        k(  507) = (   0.3062500   0.3062500   0.6125000), wk =   0.0014276
        k(  508) = (   0.3052083   0.3052083   0.6104167), wk =   0.0014276
        k(  509) = (   0.3041667   0.3041667   0.6083333), wk =   0.0014276
        k(  510) = (   0.3031250   0.3031250   0.6062500), wk =   0.0014276
        k(  511) = (   0.3020833   0.3020833   0.6041667), wk =   0.0014276
        k(  512) = (   0.3010417   0.3010417   0.6020833), wk =   0.0014276
        k(  513) = (   0.3000000   0.3000000   0.6000000), wk =   0.0014276
        k(  514) = (   0.2989583   0.2989583   0.5979167), wk =   0.0014276
        k(  515) = (   0.2979167   0.2979167   0.5958333), wk =   0.0014276
        k(  516) = (   0.2968750   0.2968750   0.5937500), wk =   0.0014276
        k(  517) = (   0.2958333   0.2958333   0.5916667), wk =   0.0014276
        k(  518) = (   0.2947917   0.2947917   0.5895833), wk =   0.0014276
        k(  519) = (   0.2937500   0.2937500   0.5875000), wk =   0.0014276
        k(  520) = (   0.2927083   0.2927083   0.5854167), wk =   0.0014276
        k(  521) = (   0.2916667   0.2916667   0.5833333), wk =   0.0014276
        k(  522) = (   0.2906250   0.2906250   0.5812500), wk =   0.0014276
        k(  523) = (   0.2895833   0.2895833   0.5791667), wk =   0.0014276
        k(  524) = (   0.2885417   0.2885417   0.5770833), wk =   0.0014276
        k(  525) = (   0.2875000   0.2875000   0.5750000), wk =   0.0014276
        k(  526) = (   0.2864583   0.2864583   0.5729167), wk =   0.0014276
        k(  527) = (   0.2854167   0.2854167   0.5708333), wk =   0.0014276
        k(  528) = (   0.2843750   0.2843750   0.5687500), wk =   0.0014276
        k(  529) = (   0.2833333   0.2833333   0.5666667), wk =   0.0014276
        k(  530) = (   0.2822917   0.2822917   0.5645833), wk =   0.0014276
        k(  531) = (   0.2812500   0.2812500   0.5625000), wk =   0.0014276
        k(  532) = (   0.2802083   0.2802083   0.5604167), wk =   0.0014276
        k(  533) = (   0.2791667   0.2791667   0.5583333), wk =   0.0014276
        k(  534) = (   0.2781250   0.2781250   0.5562500), wk =   0.0014276
        k(  535) = (   0.2770833   0.2770833   0.5541667), wk =   0.0014276
        k(  536) = (   0.2760417   0.2760417   0.5520833), wk =   0.0014276
        k(  537) = (   0.2750000   0.2750000   0.5500000), wk =   0.0014276
        k(  538) = (   0.2739583   0.2739583   0.5479167), wk =   0.0014276
        k(  539) = (   0.2729167   0.2729167   0.5458333), wk =   0.0014276
        k(  540) = (   0.2718750   0.2718750   0.5437500), wk =   0.0014276
        k(  541) = (   0.2708333   0.2708333   0.5416667), wk =   0.0014276
        k(  542) = (   0.2697917   0.2697917   0.5395833), wk =   0.0014276
        k(  543) = (   0.2687500   0.2687500   0.5375000), wk =   0.0014276
        k(  544) = (   0.2677083   0.2677083   0.5354167), wk =   0.0014276
        k(  545) = (   0.2666667   0.2666667   0.5333333), wk =   0.0014276
        k(  546) = (   0.2656250   0.2656250   0.5312500), wk =   0.0014276
        k(  547) = (   0.2645833   0.2645833   0.5291667), wk =   0.0014276
        k(  548) = (   0.2635417   0.2635417   0.5270833), wk =   0.0014276
        k(  549) = (   0.2625000   0.2625000   0.5250000), wk =   0.0014276
        k(  550) = (   0.2614583   0.2614583   0.5229167), wk =   0.0014276
        k(  551) = (   0.2604167   0.2604167   0.5208333), wk =   0.0014276
        k(  552) = (   0.2593750   0.2593750   0.5187500), wk =   0.0014276
        k(  553) = (   0.2583333   0.2583333   0.5166667), wk =   0.0014276
        k(  554) = (   0.2572917   0.2572917   0.5145833), wk =   0.0014276
        k(  555) = (   0.2562500   0.2562500   0.5125000), wk =   0.0014276
        k(  556) = (   0.2552083   0.2552083   0.5104167), wk =   0.0014276
        k(  557) = (   0.2541667   0.2541667   0.5083333), wk =   0.0014276
        k(  558) = (   0.2531250   0.2531250   0.5062500), wk =   0.0014276
        k(  559) = (   0.2520833   0.2520833   0.5041667), wk =   0.0014276
        k(  560) = (   0.2510417   0.2510417   0.5020833), wk =   0.0014276
        k(  561) = (   0.2500000   0.2500000   0.5000000), wk =   0.0014276
        k(  562) = (   0.2489583   0.2489583   0.4979167), wk =   0.0014276
        k(  563) = (   0.2479167   0.2479167   0.4958333), wk =   0.0014276
        k(  564) = (   0.2468750   0.2468750   0.4937500), wk =   0.0014276
        k(  565) = (   0.2458333   0.2458333   0.4916667), wk =   0.0014276
        k(  566) = (   0.2447917   0.2447917   0.4895833), wk =   0.0014276
        k(  567) = (   0.2437500   0.2437500   0.4875000), wk =   0.0014276
        k(  568) = (   0.2427083   0.2427083   0.4854167), wk =   0.0014276
        k(  569) = (   0.2416667   0.2416667   0.4833333), wk =   0.0014276
        k(  570) = (   0.2406250   0.2406250   0.4812500), wk =   0.0014276
        k(  571) = (   0.2395833   0.2395833   0.4791667), wk =   0.0014276
        k(  572) = (   0.2385417   0.2385417   0.4770833), wk =   0.0014276
        k(  573) = (   0.2375000   0.2375000   0.4750000), wk =   0.0014276
        k(  574) = (   0.2364583   0.2364583   0.4729167), wk =   0.0014276
        k(  575) = (   0.2354167   0.2354167   0.4708333), wk =   0.0014276
        k(  576) = (   0.2343750   0.2343750   0.4687500), wk =   0.0014276
        k(  577) = (   0.2333333   0.2333333   0.4666667), wk =   0.0014276
        k(  578) = (   0.2322917   0.2322917   0.4645833), wk =   0.0014276
        k(  579) = (   0.2312500   0.2312500   0.4625000), wk =   0.0014276
        k(  580) = (   0.2302083   0.2302083   0.4604167), wk =   0.0014276
        k(  581) = (   0.2291667   0.2291667   0.4583333), wk =   0.0014276
        k(  582) = (   0.2281250   0.2281250   0.4562500), wk =   0.0014276
        k(  583) = (   0.2270833   0.2270833   0.4541667), wk =   0.0014276
        k(  584) = (   0.2260417   0.2260417   0.4520833), wk =   0.0014276
        k(  585) = (   0.2250000   0.2250000   0.4500000), wk =   0.0014276
        k(  586) = (   0.2239583   0.2239583   0.4479167), wk =   0.0014276
        k(  587) = (   0.2229167   0.2229167   0.4458333), wk =   0.0014276
        k(  588) = (   0.2218750   0.2218750   0.4437500), wk =   0.0014276
        k(  589) = (   0.2208333   0.2208333   0.4416667), wk =   0.0014276
        k(  590) = (   0.2197917   0.2197917   0.4395833), wk =   0.0014276
        k(  591) = (   0.2187500   0.2187500   0.4375000), wk =   0.0014276
        k(  592) = (   0.2177083   0.2177083   0.4354167), wk =   0.0014276
        k(  593) = (   0.2166667   0.2166667   0.4333333), wk =   0.0014276
        k(  594) = (   0.2156250   0.2156250   0.4312500), wk =   0.0014276
        k(  595) = (   0.2145833   0.2145833   0.4291667), wk =   0.0014276
        k(  596) = (   0.2135417   0.2135417   0.4270833), wk =   0.0014276
        k(  597) = (   0.2125000   0.2125000   0.4250000), wk =   0.0014276
        k(  598) = (   0.2114583   0.2114583   0.4229167), wk =   0.0014276
        k(  599) = (   0.2104167   0.2104167   0.4208333), wk =   0.0014276
        k(  600) = (   0.2093750   0.2093750   0.4187500), wk =   0.0014276
        k(  601) = (   0.2083333   0.2083333   0.4166667), wk =   0.0014276
        k(  602) = (   0.2072917   0.2072917   0.4145833), wk =   0.0014276
        k(  603) = (   0.2062500   0.2062500   0.4125000), wk =   0.0014276
        k(  604) = (   0.2052083   0.2052083   0.4104167), wk =   0.0014276
        k(  605) = (   0.2041667   0.2041667   0.4083333), wk =   0.0014276
        k(  606) = (   0.2031250   0.2031250   0.4062500), wk =   0.0014276
        k(  607) = (   0.2020833   0.2020833   0.4041667), wk =   0.0014276
        k(  608) = (   0.2010417   0.2010417   0.4020833), wk =   0.0014276
        k(  609) = (   0.2000000   0.2000000   0.4000000), wk =   0.0014276
        k(  610) = (   0.1989583   0.1989583   0.3979167), wk =   0.0014276
        k(  611) = (   0.1979167   0.1979167   0.3958333), wk =   0.0014276
        k(  612) = (   0.1968750   0.1968750   0.3937500), wk =   0.0014276
        k(  613) = (   0.1958333   0.1958333   0.3916667), wk =   0.0014276
        k(  614) = (   0.1947917   0.1947917   0.3895833), wk =   0.0014276
        k(  615) = (   0.1937500   0.1937500   0.3875000), wk =   0.0014276
        k(  616) = (   0.1927083   0.1927083   0.3854167), wk =   0.0014276
        k(  617) = (   0.1916667   0.1916667   0.3833333), wk =   0.0014276
        k(  618) = (   0.1906250   0.1906250   0.3812500), wk =   0.0014276
        k(  619) = (   0.1895833   0.1895833   0.3791667), wk =   0.0014276
        k(  620) = (   0.1885417   0.1885417   0.3770833), wk =   0.0014276
        k(  621) = (   0.1875000   0.1875000   0.3750000), wk =   0.0014276
        k(  622) = (   0.1864583   0.1864583   0.3729167), wk =   0.0014276
        k(  623) = (   0.1854167   0.1854167   0.3708333), wk =   0.0014276
        k(  624) = (   0.1843750   0.1843750   0.3687500), wk =   0.0014276
        k(  625) = (   0.1833333   0.1833333   0.3666667), wk =   0.0014276
        k(  626) = (   0.1822917   0.1822917   0.3645833), wk =   0.0014276
        k(  627) = (   0.1812500   0.1812500   0.3625000), wk =   0.0014276
        k(  628) = (   0.1802083   0.1802083   0.3604167), wk =   0.0014276
        k(  629) = (   0.1791667   0.1791667   0.3583333), wk =   0.0014276
        k(  630) = (   0.1781250   0.1781250   0.3562500), wk =   0.0014276
        k(  631) = (   0.1770833   0.1770833   0.3541667), wk =   0.0014276
        k(  632) = (   0.1760417   0.1760417   0.3520833), wk =   0.0014276
        k(  633) = (   0.1750000   0.1750000   0.3500000), wk =   0.0014276
        k(  634) = (   0.1739583   0.1739583   0.3479167), wk =   0.0014276
        k(  635) = (   0.1729167   0.1729167   0.3458333), wk =   0.0014276
        k(  636) = (   0.1718750   0.1718750   0.3437500), wk =   0.0014276
        k(  637) = (   0.1708333   0.1708333   0.3416667), wk =   0.0014276
        k(  638) = (   0.1697917   0.1697917   0.3395833), wk =   0.0014276
        k(  639) = (   0.1687500   0.1687500   0.3375000), wk =   0.0014276
        k(  640) = (   0.1677083   0.1677083   0.3354167), wk =   0.0014276
        k(  641) = (   0.1666667   0.1666667   0.3333333), wk =   0.0014276
        k(  642) = (   0.1656250   0.1656250   0.3312500), wk =   0.0014276
        k(  643) = (   0.1645833   0.1645833   0.3291667), wk =   0.0014276
        k(  644) = (   0.1635417   0.1635417   0.3270833), wk =   0.0014276
        k(  645) = (   0.1625000   0.1625000   0.3250000), wk =   0.0014276
        k(  646) = (   0.1614583   0.1614583   0.3229167), wk =   0.0014276
        k(  647) = (   0.1604167   0.1604167   0.3208333), wk =   0.0014276
        k(  648) = (   0.1593750   0.1593750   0.3187500), wk =   0.0014276
        k(  649) = (   0.1583333   0.1583333   0.3166667), wk =   0.0014276
        k(  650) = (   0.1572917   0.1572917   0.3145833), wk =   0.0014276
        k(  651) = (   0.1562500   0.1562500   0.3125000), wk =   0.0014276
        k(  652) = (   0.1552083   0.1552083   0.3104167), wk =   0.0014276
        k(  653) = (   0.1541667   0.1541667   0.3083333), wk =   0.0014276
        k(  654) = (   0.1531250   0.1531250   0.3062500), wk =   0.0014276
        k(  655) = (   0.1520833   0.1520833   0.3041667), wk =   0.0014276
        k(  656) = (   0.1510417   0.1510417   0.3020833), wk =   0.0014276
        k(  657) = (   0.1500000   0.1500000   0.3000000), wk =   0.0014276
        k(  658) = (   0.1489583   0.1489583   0.2979167), wk =   0.0014276
        k(  659) = (   0.1479167   0.1479167   0.2958333), wk =   0.0014276
        k(  660) = (   0.1468750   0.1468750   0.2937500), wk =   0.0014276
        k(  661) = (   0.1458333   0.1458333   0.2916667), wk =   0.0014276
        k(  662) = (   0.1447917   0.1447917   0.2895833), wk =   0.0014276
        k(  663) = (   0.1437500   0.1437500   0.2875000), wk =   0.0014276
        k(  664) = (   0.1427083   0.1427083   0.2854167), wk =   0.0014276
        k(  665) = (   0.1416667   0.1416667   0.2833333), wk =   0.0014276
        k(  666) = (   0.1406250   0.1406250   0.2812500), wk =   0.0014276
        k(  667) = (   0.1395833   0.1395833   0.2791667), wk =   0.0014276
        k(  668) = (   0.1385417   0.1385417   0.2770833), wk =   0.0014276
        k(  669) = (   0.1375000   0.1375000   0.2750000), wk =   0.0014276
        k(  670) = (   0.1364583   0.1364583   0.2729167), wk =   0.0014276
        k(  671) = (   0.1354167   0.1354167   0.2708333), wk =   0.0014276
        k(  672) = (   0.1343750   0.1343750   0.2687500), wk =   0.0014276
        k(  673) = (   0.1333333   0.1333333   0.2666667), wk =   0.0014276
        k(  674) = (   0.1322917   0.1322917   0.2645833), wk =   0.0014276
        k(  675) = (   0.1312500   0.1312500   0.2625000), wk =   0.0014276
        k(  676) = (   0.1302083   0.1302083   0.2604167), wk =   0.0014276
        k(  677) = (   0.1291667   0.1291667   0.2583333), wk =   0.0014276
        k(  678) = (   0.1281250   0.1281250   0.2562500), wk =   0.0014276
        k(  679) = (   0.1270833   0.1270833   0.2541667), wk =   0.0014276
        k(  680) = (   0.1260417   0.1260417   0.2520833), wk =   0.0014276
        k(  681) = (   0.1250000   0.1250000   0.2500000), wk =   0.0014276
        k(  682) = (   0.1239583   0.1239583   0.2479167), wk =   0.0014276
        k(  683) = (   0.1229167   0.1229167   0.2458333), wk =   0.0014276
        k(  684) = (   0.1218750   0.1218750   0.2437500), wk =   0.0014276
        k(  685) = (   0.1208333   0.1208333   0.2416667), wk =   0.0014276
        k(  686) = (   0.1197917   0.1197917   0.2395833), wk =   0.0014276
        k(  687) = (   0.1187500   0.1187500   0.2375000), wk =   0.0014276
        k(  688) = (   0.1177083   0.1177083   0.2354167), wk =   0.0014276
        k(  689) = (   0.1166667   0.1166667   0.2333333), wk =   0.0014276
        k(  690) = (   0.1156250   0.1156250   0.2312500), wk =   0.0014276
        k(  691) = (   0.1145833   0.1145833   0.2291667), wk =   0.0014276
        k(  692) = (   0.1135417   0.1135417   0.2270833), wk =   0.0014276
        k(  693) = (   0.1125000   0.1125000   0.2250000), wk =   0.0014276
        k(  694) = (   0.1114583   0.1114583   0.2229167), wk =   0.0014276
        k(  695) = (   0.1104167   0.1104167   0.2208333), wk =   0.0014276
        k(  696) = (   0.1093750   0.1093750   0.2187500), wk =   0.0014276
        k(  697) = (   0.1083333   0.1083333   0.2166667), wk =   0.0014276
        k(  698) = (   0.1072917   0.1072917   0.2145833), wk =   0.0014276
        k(  699) = (   0.1062500   0.1062500   0.2125000), wk =   0.0014276
        k(  700) = (   0.1052083   0.1052083   0.2104167), wk =   0.0014276
        k(  701) = (   0.1041667   0.1041667   0.2083333), wk =   0.0014276
        k(  702) = (   0.1031250   0.1031250   0.2062500), wk =   0.0014276
        k(  703) = (   0.1020833   0.1020833   0.2041667), wk =   0.0014276
        k(  704) = (   0.1010417   0.1010417   0.2020833), wk =   0.0014276
        k(  705) = (   0.1000000   0.1000000   0.2000000), wk =   0.0014276
        k(  706) = (   0.0989583   0.0989583   0.1979167), wk =   0.0014276
        k(  707) = (   0.0979167   0.0979167   0.1958333), wk =   0.0014276
        k(  708) = (   0.0968750   0.0968750   0.1937500), wk =   0.0014276
        k(  709) = (   0.0958333   0.0958333   0.1916667), wk =   0.0014276
        k(  710) = (   0.0947917   0.0947917   0.1895833), wk =   0.0014276
        k(  711) = (   0.0937500   0.0937500   0.1875000), wk =   0.0014276
        k(  712) = (   0.0927083   0.0927083   0.1854167), wk =   0.0014276
        k(  713) = (   0.0916667   0.0916667   0.1833333), wk =   0.0014276
        k(  714) = (   0.0906250   0.0906250   0.1812500), wk =   0.0014276
        k(  715) = (   0.0895833   0.0895833   0.1791667), wk =   0.0014276
        k(  716) = (   0.0885417   0.0885417   0.1770833), wk =   0.0014276
        k(  717) = (   0.0875000   0.0875000   0.1750000), wk =   0.0014276
        k(  718) = (   0.0864583   0.0864583   0.1729167), wk =   0.0014276
        k(  719) = (   0.0854167   0.0854167   0.1708333), wk =   0.0014276
        k(  720) = (   0.0843750   0.0843750   0.1687500), wk =   0.0014276
        k(  721) = (   0.0833333   0.0833333   0.1666667), wk =   0.0014276
        k(  722) = (   0.0822917   0.0822917   0.1645833), wk =   0.0014276
        k(  723) = (   0.0812500   0.0812500   0.1625000), wk =   0.0014276
        k(  724) = (   0.0802083   0.0802083   0.1604167), wk =   0.0014276
        k(  725) = (   0.0791667   0.0791667   0.1583333), wk =   0.0014276
        k(  726) = (   0.0781250   0.0781250   0.1562500), wk =   0.0014276
        k(  727) = (   0.0770833   0.0770833   0.1541667), wk =   0.0014276
        k(  728) = (   0.0760417   0.0760417   0.1520833), wk =   0.0014276
        k(  729) = (   0.0750000   0.0750000   0.1500000), wk =   0.0014276
        k(  730) = (   0.0739583   0.0739583   0.1479167), wk =   0.0014276
        k(  731) = (   0.0729167   0.0729167   0.1458333), wk =   0.0014276
        k(  732) = (   0.0718750   0.0718750   0.1437500), wk =   0.0014276
        k(  733) = (   0.0708333   0.0708333   0.1416667), wk =   0.0014276
        k(  734) = (   0.0697917   0.0697917   0.1395833), wk =   0.0014276
        k(  735) = (   0.0687500   0.0687500   0.1375000), wk =   0.0014276
        k(  736) = (   0.0677083   0.0677083   0.1354167), wk =   0.0014276
        k(  737) = (   0.0666667   0.0666667   0.1333333), wk =   0.0014276
        k(  738) = (   0.0656250   0.0656250   0.1312500), wk =   0.0014276
        k(  739) = (   0.0645833   0.0645833   0.1291667), wk =   0.0014276
        k(  740) = (   0.0635417   0.0635417   0.1270833), wk =   0.0014276
        k(  741) = (   0.0625000   0.0625000   0.1250000), wk =   0.0014276
        k(  742) = (   0.0614583   0.0614583   0.1229167), wk =   0.0014276
        k(  743) = (   0.0604167   0.0604167   0.1208333), wk =   0.0014276
        k(  744) = (   0.0593750   0.0593750   0.1187500), wk =   0.0014276
        k(  745) = (   0.0583333   0.0583333   0.1166667), wk =   0.0014276
        k(  746) = (   0.0572917   0.0572917   0.1145833), wk =   0.0014276
        k(  747) = (   0.0562500   0.0562500   0.1125000), wk =   0.0014276
        k(  748) = (   0.0552083   0.0552083   0.1104167), wk =   0.0014276
        k(  749) = (   0.0541667   0.0541667   0.1083333), wk =   0.0014276
        k(  750) = (   0.0531250   0.0531250   0.1062500), wk =   0.0014276
        k(  751) = (   0.0520833   0.0520833   0.1041667), wk =   0.0014276
        k(  752) = (   0.0510417   0.0510417   0.1020833), wk =   0.0014276
        k(  753) = (   0.0500000   0.0500000   0.1000000), wk =   0.0014276
        k(  754) = (   0.0489583   0.0489583   0.0979167), wk =   0.0014276
        k(  755) = (   0.0479167   0.0479167   0.0958333), wk =   0.0014276
        k(  756) = (   0.0468750   0.0468750   0.0937500), wk =   0.0014276
        k(  757) = (   0.0458333   0.0458333   0.0916667), wk =   0.0014276
        k(  758) = (   0.0447917   0.0447917   0.0895833), wk =   0.0014276
        k(  759) = (   0.0437500   0.0437500   0.0875000), wk =   0.0014276
        k(  760) = (   0.0427083   0.0427083   0.0854167), wk =   0.0014276
        k(  761) = (   0.0416667   0.0416667   0.0833333), wk =   0.0014276
        k(  762) = (   0.0406250   0.0406250   0.0812500), wk =   0.0014276
        k(  763) = (   0.0395833   0.0395833   0.0791667), wk =   0.0014276
        k(  764) = (   0.0385417   0.0385417   0.0770833), wk =   0.0014276
        k(  765) = (   0.0375000   0.0375000   0.0750000), wk =   0.0014276
        k(  766) = (   0.0364583   0.0364583   0.0729167), wk =   0.0014276
        k(  767) = (   0.0354167   0.0354167   0.0708333), wk =   0.0014276
        k(  768) = (   0.0343750   0.0343750   0.0687500), wk =   0.0014276
        k(  769) = (   0.0333333   0.0333333   0.0666667), wk =   0.0014276
        k(  770) = (   0.0322917   0.0322917   0.0645833), wk =   0.0014276
        k(  771) = (   0.0312500   0.0312500   0.0625000), wk =   0.0014276
        k(  772) = (   0.0302083   0.0302083   0.0604167), wk =   0.0014276
        k(  773) = (   0.0291667   0.0291667   0.0583333), wk =   0.0014276
        k(  774) = (   0.0281250   0.0281250   0.0562500), wk =   0.0014276
        k(  775) = (   0.0270833   0.0270833   0.0541667), wk =   0.0014276
        k(  776) = (   0.0260417   0.0260417   0.0520833), wk =   0.0014276
        k(  777) = (   0.0250000   0.0250000   0.0500000), wk =   0.0014276
        k(  778) = (   0.0239583   0.0239583   0.0479167), wk =   0.0014276
        k(  779) = (   0.0229167   0.0229167   0.0458333), wk =   0.0014276
        k(  780) = (   0.0218750   0.0218750   0.0437500), wk =   0.0014276
        k(  781) = (   0.0208333   0.0208333   0.0416667), wk =   0.0014276
        k(  782) = (   0.0197917   0.0197917   0.0395833), wk =   0.0014276
        k(  783) = (   0.0187500   0.0187500   0.0375000), wk =   0.0014276
        k(  784) = (   0.0177083   0.0177083   0.0354167), wk =   0.0014276
        k(  785) = (   0.0166667   0.0166667   0.0333333), wk =   0.0014276
        k(  786) = (   0.0156250   0.0156250   0.0312500), wk =   0.0014276
        k(  787) = (   0.0145833   0.0145833   0.0291667), wk =   0.0014276
        k(  788) = (   0.0135417   0.0135417   0.0270833), wk =   0.0014276
        k(  789) = (   0.0125000   0.0125000   0.0250000), wk =   0.0014276
        k(  790) = (   0.0114583   0.0114583   0.0229167), wk =   0.0014276
        k(  791) = (   0.0104167   0.0104167   0.0208333), wk =   0.0014276
        k(  792) = (   0.0093750   0.0093750   0.0187500), wk =   0.0014276
        k(  793) = (   0.0083333   0.0083333   0.0166667), wk =   0.0014276
        k(  794) = (   0.0072917   0.0072917   0.0145833), wk =   0.0014276
        k(  795) = (   0.0062500   0.0062500   0.0125000), wk =   0.0014276
        k(  796) = (   0.0052083   0.0052083   0.0104167), wk =   0.0014276
        k(  797) = (   0.0041667   0.0041667   0.0083333), wk =   0.0014276
        k(  798) = (   0.0031250   0.0031250   0.0062500), wk =   0.0014276
        k(  799) = (   0.0020833   0.0020833   0.0041667), wk =   0.0014276
        k(  800) = (   0.0010417   0.0010417   0.0020833), wk =   0.0014276
        k(  801) = (   0.0000000   0.0000000   0.0000000), wk =   0.0014276
        k(  802) = (   0.0017857   0.0017857   0.0017857), wk =   0.0014276
        k(  803) = (   0.0035714   0.0035714   0.0035714), wk =   0.0014276
        k(  804) = (   0.0053571   0.0053571   0.0053571), wk =   0.0014276
        k(  805) = (   0.0071429   0.0071429   0.0071429), wk =   0.0014276
        k(  806) = (   0.0089286   0.0089286   0.0089286), wk =   0.0014276
        k(  807) = (   0.0107143   0.0107143   0.0107143), wk =   0.0014276
        k(  808) = (   0.0125000   0.0125000   0.0125000), wk =   0.0014276
        k(  809) = (   0.0142857   0.0142857   0.0142857), wk =   0.0014276
        k(  810) = (   0.0160714   0.0160714   0.0160714), wk =   0.0014276
        k(  811) = (   0.0178571   0.0178571   0.0178571), wk =   0.0014276
        k(  812) = (   0.0196429   0.0196429   0.0196429), wk =   0.0014276
        k(  813) = (   0.0214286   0.0214286   0.0214286), wk =   0.0014276
        k(  814) = (   0.0232143   0.0232143   0.0232143), wk =   0.0014276
        k(  815) = (   0.0250000   0.0250000   0.0250000), wk =   0.0014276
        k(  816) = (   0.0267857   0.0267857   0.0267857), wk =   0.0014276
        k(  817) = (   0.0285714   0.0285714   0.0285714), wk =   0.0014276
        k(  818) = (   0.0303571   0.0303571   0.0303571), wk =   0.0014276
        k(  819) = (   0.0321429   0.0321429   0.0321429), wk =   0.0014276
        k(  820) = (   0.0339286   0.0339286   0.0339286), wk =   0.0014276
        k(  821) = (   0.0357143   0.0357143   0.0357143), wk =   0.0014276
        k(  822) = (   0.0375000   0.0375000   0.0375000), wk =   0.0014276
        k(  823) = (   0.0392857   0.0392857   0.0392857), wk =   0.0014276
        k(  824) = (   0.0410714   0.0410714   0.0410714), wk =   0.0014276
        k(  825) = (   0.0428571   0.0428571   0.0428571), wk =   0.0014276
        k(  826) = (   0.0446429   0.0446429   0.0446429), wk =   0.0014276
        k(  827) = (   0.0464286   0.0464286   0.0464286), wk =   0.0014276
        k(  828) = (   0.0482143   0.0482143   0.0482143), wk =   0.0014276
        k(  829) = (   0.0500000   0.0500000   0.0500000), wk =   0.0014276
        k(  830) = (   0.0517857   0.0517857   0.0517857), wk =   0.0014276
        k(  831) = (   0.0535714   0.0535714   0.0535714), wk =   0.0014276
        k(  832) = (   0.0553571   0.0553571   0.0553571), wk =   0.0014276
        k(  833) = (   0.0571429   0.0571429   0.0571429), wk =   0.0014276
        k(  834) = (   0.0589286   0.0589286   0.0589286), wk =   0.0014276
        k(  835) = (   0.0607143   0.0607143   0.0607143), wk =   0.0014276
        k(  836) = (   0.0625000   0.0625000   0.0625000), wk =   0.0014276
        k(  837) = (   0.0642857   0.0642857   0.0642857), wk =   0.0014276
        k(  838) = (   0.0660714   0.0660714   0.0660714), wk =   0.0014276
        k(  839) = (   0.0678571   0.0678571   0.0678571), wk =   0.0014276
        k(  840) = (   0.0696429   0.0696429   0.0696429), wk =   0.0014276
        k(  841) = (   0.0714286   0.0714286   0.0714286), wk =   0.0014276
        k(  842) = (   0.0732143   0.0732143   0.0732143), wk =   0.0014276
        k(  843) = (   0.0750000   0.0750000   0.0750000), wk =   0.0014276
        k(  844) = (   0.0767857   0.0767857   0.0767857), wk =   0.0014276
        k(  845) = (   0.0785714   0.0785714   0.0785714), wk =   0.0014276
        k(  846) = (   0.0803571   0.0803571   0.0803571), wk =   0.0014276
        k(  847) = (   0.0821429   0.0821429   0.0821429), wk =   0.0014276
        k(  848) = (   0.0839286   0.0839286   0.0839286), wk =   0.0014276
        k(  849) = (   0.0857143   0.0857143   0.0857143), wk =   0.0014276
        k(  850) = (   0.0875000   0.0875000   0.0875000), wk =   0.0014276
        k(  851) = (   0.0892857   0.0892857   0.0892857), wk =   0.0014276
        k(  852) = (   0.0910714   0.0910714   0.0910714), wk =   0.0014276
        k(  853) = (   0.0928571   0.0928571   0.0928571), wk =   0.0014276
        k(  854) = (   0.0946429   0.0946429   0.0946429), wk =   0.0014276
        k(  855) = (   0.0964286   0.0964286   0.0964286), wk =   0.0014276
        k(  856) = (   0.0982143   0.0982143   0.0982143), wk =   0.0014276
        k(  857) = (   0.1000000   0.1000000   0.1000000), wk =   0.0014276
        k(  858) = (   0.1017857   0.1017857   0.1017857), wk =   0.0014276
        k(  859) = (   0.1035714   0.1035714   0.1035714), wk =   0.0014276
        k(  860) = (   0.1053571   0.1053571   0.1053571), wk =   0.0014276
        k(  861) = (   0.1071429   0.1071429   0.1071429), wk =   0.0014276
        k(  862) = (   0.1089286   0.1089286   0.1089286), wk =   0.0014276
        k(  863) = (   0.1107143   0.1107143   0.1107143), wk =   0.0014276
        k(  864) = (   0.1125000   0.1125000   0.1125000), wk =   0.0014276
        k(  865) = (   0.1142857   0.1142857   0.1142857), wk =   0.0014276
        k(  866) = (   0.1160714   0.1160714   0.1160714), wk =   0.0014276
        k(  867) = (   0.1178571   0.1178571   0.1178571), wk =   0.0014276
        k(  868) = (   0.1196429   0.1196429   0.1196429), wk =   0.0014276
        k(  869) = (   0.1214286   0.1214286   0.1214286), wk =   0.0014276
        k(  870) = (   0.1232143   0.1232143   0.1232143), wk =   0.0014276
        k(  871) = (   0.1250000   0.1250000   0.1250000), wk =   0.0014276
        k(  872) = (   0.1267857   0.1267857   0.1267857), wk =   0.0014276
        k(  873) = (   0.1285714   0.1285714   0.1285714), wk =   0.0014276
        k(  874) = (   0.1303571   0.1303571   0.1303571), wk =   0.0014276
        k(  875) = (   0.1321429   0.1321429   0.1321429), wk =   0.0014276
        k(  876) = (   0.1339286   0.1339286   0.1339286), wk =   0.0014276
        k(  877) = (   0.1357143   0.1357143   0.1357143), wk =   0.0014276
        k(  878) = (   0.1375000   0.1375000   0.1375000), wk =   0.0014276
        k(  879) = (   0.1392857   0.1392857   0.1392857), wk =   0.0014276
        k(  880) = (   0.1410714   0.1410714   0.1410714), wk =   0.0014276
        k(  881) = (   0.1428571   0.1428571   0.1428571), wk =   0.0014276
        k(  882) = (   0.1446429   0.1446429   0.1446429), wk =   0.0014276
        k(  883) = (   0.1464286   0.1464286   0.1464286), wk =   0.0014276
        k(  884) = (   0.1482143   0.1482143   0.1482143), wk =   0.0014276
        k(  885) = (   0.1500000   0.1500000   0.1500000), wk =   0.0014276
        k(  886) = (   0.1517857   0.1517857   0.1517857), wk =   0.0014276
        k(  887) = (   0.1535714   0.1535714   0.1535714), wk =   0.0014276
        k(  888) = (   0.1553571   0.1553571   0.1553571), wk =   0.0014276
        k(  889) = (   0.1571429   0.1571429   0.1571429), wk =   0.0014276
        k(  890) = (   0.1589286   0.1589286   0.1589286), wk =   0.0014276
        k(  891) = (   0.1607143   0.1607143   0.1607143), wk =   0.0014276
        k(  892) = (   0.1625000   0.1625000   0.1625000), wk =   0.0014276
        k(  893) = (   0.1642857   0.1642857   0.1642857), wk =   0.0014276
        k(  894) = (   0.1660714   0.1660714   0.1660714), wk =   0.0014276
        k(  895) = (   0.1678571   0.1678571   0.1678571), wk =   0.0014276
        k(  896) = (   0.1696429   0.1696429   0.1696429), wk =   0.0014276
        k(  897) = (   0.1714286   0.1714286   0.1714286), wk =   0.0014276
        k(  898) = (   0.1732143   0.1732143   0.1732143), wk =   0.0014276
        k(  899) = (   0.1750000   0.1750000   0.1750000), wk =   0.0014276
        k(  900) = (   0.1767857   0.1767857   0.1767857), wk =   0.0014276
        k(  901) = (   0.1785714   0.1785714   0.1785714), wk =   0.0014276
        k(  902) = (   0.1803571   0.1803571   0.1803571), wk =   0.0014276
        k(  903) = (   0.1821429   0.1821429   0.1821429), wk =   0.0014276
        k(  904) = (   0.1839286   0.1839286   0.1839286), wk =   0.0014276
        k(  905) = (   0.1857143   0.1857143   0.1857143), wk =   0.0014276
        k(  906) = (   0.1875000   0.1875000   0.1875000), wk =   0.0014276
        k(  907) = (   0.1892857   0.1892857   0.1892857), wk =   0.0014276
        k(  908) = (   0.1910714   0.1910714   0.1910714), wk =   0.0014276
        k(  909) = (   0.1928571   0.1928571   0.1928571), wk =   0.0014276
        k(  910) = (   0.1946429   0.1946429   0.1946429), wk =   0.0014276
        k(  911) = (   0.1964286   0.1964286   0.1964286), wk =   0.0014276
        k(  912) = (   0.1982143   0.1982143   0.1982143), wk =   0.0014276
        k(  913) = (   0.2000000   0.2000000   0.2000000), wk =   0.0014276
        k(  914) = (   0.2017857   0.2017857   0.2017857), wk =   0.0014276
        k(  915) = (   0.2035714   0.2035714   0.2035714), wk =   0.0014276
        k(  916) = (   0.2053571   0.2053571   0.2053571), wk =   0.0014276
        k(  917) = (   0.2071429   0.2071429   0.2071429), wk =   0.0014276
        k(  918) = (   0.2089286   0.2089286   0.2089286), wk =   0.0014276
        k(  919) = (   0.2107143   0.2107143   0.2107143), wk =   0.0014276
        k(  920) = (   0.2125000   0.2125000   0.2125000), wk =   0.0014276
        k(  921) = (   0.2142857   0.2142857   0.2142857), wk =   0.0014276
        k(  922) = (   0.2160714   0.2160714   0.2160714), wk =   0.0014276
        k(  923) = (   0.2178571   0.2178571   0.2178571), wk =   0.0014276
        k(  924) = (   0.2196429   0.2196429   0.2196429), wk =   0.0014276
        k(  925) = (   0.2214286   0.2214286   0.2214286), wk =   0.0014276
        k(  926) = (   0.2232143   0.2232143   0.2232143), wk =   0.0014276
        k(  927) = (   0.2250000   0.2250000   0.2250000), wk =   0.0014276
        k(  928) = (   0.2267857   0.2267857   0.2267857), wk =   0.0014276
        k(  929) = (   0.2285714   0.2285714   0.2285714), wk =   0.0014276
        k(  930) = (   0.2303571   0.2303571   0.2303571), wk =   0.0014276
        k(  931) = (   0.2321429   0.2321429   0.2321429), wk =   0.0014276
        k(  932) = (   0.2339286   0.2339286   0.2339286), wk =   0.0014276
        k(  933) = (   0.2357143   0.2357143   0.2357143), wk =   0.0014276
        k(  934) = (   0.2375000   0.2375000   0.2375000), wk =   0.0014276
        k(  935) = (   0.2392857   0.2392857   0.2392857), wk =   0.0014276
        k(  936) = (   0.2410714   0.2410714   0.2410714), wk =   0.0014276
        k(  937) = (   0.2428571   0.2428571   0.2428571), wk =   0.0014276
        k(  938) = (   0.2446429   0.2446429   0.2446429), wk =   0.0014276
        k(  939) = (   0.2464286   0.2464286   0.2464286), wk =   0.0014276
        k(  940) = (   0.2482143   0.2482143   0.2482143), wk =   0.0014276
        k(  941) = (   0.2500000   0.2500000   0.2500000), wk =   0.0014276
        k(  942) = (   0.2517857   0.2517857   0.2517857), wk =   0.0014276
        k(  943) = (   0.2535714   0.2535714   0.2535714), wk =   0.0014276
        k(  944) = (   0.2553571   0.2553571   0.2553571), wk =   0.0014276
        k(  945) = (   0.2571429   0.2571429   0.2571429), wk =   0.0014276
        k(  946) = (   0.2589286   0.2589286   0.2589286), wk =   0.0014276
        k(  947) = (   0.2607143   0.2607143   0.2607143), wk =   0.0014276
        k(  948) = (   0.2625000   0.2625000   0.2625000), wk =   0.0014276
        k(  949) = (   0.2642857   0.2642857   0.2642857), wk =   0.0014276
        k(  950) = (   0.2660714   0.2660714   0.2660714), wk =   0.0014276
        k(  951) = (   0.2678571   0.2678571   0.2678571), wk =   0.0014276
        k(  952) = (   0.2696429   0.2696429   0.2696429), wk =   0.0014276
        k(  953) = (   0.2714286   0.2714286   0.2714286), wk =   0.0014276
        k(  954) = (   0.2732143   0.2732143   0.2732143), wk =   0.0014276
        k(  955) = (   0.2750000   0.2750000   0.2750000), wk =   0.0014276
        k(  956) = (   0.2767857   0.2767857   0.2767857), wk =   0.0014276
        k(  957) = (   0.2785714   0.2785714   0.2785714), wk =   0.0014276
        k(  958) = (   0.2803571   0.2803571   0.2803571), wk =   0.0014276
        k(  959) = (   0.2821429   0.2821429   0.2821429), wk =   0.0014276
        k(  960) = (   0.2839286   0.2839286   0.2839286), wk =   0.0014276
        k(  961) = (   0.2857143   0.2857143   0.2857143), wk =   0.0014276
        k(  962) = (   0.2875000   0.2875000   0.2875000), wk =   0.0014276
        k(  963) = (   0.2892857   0.2892857   0.2892857), wk =   0.0014276
        k(  964) = (   0.2910714   0.2910714   0.2910714), wk =   0.0014276
        k(  965) = (   0.2928571   0.2928571   0.2928571), wk =   0.0014276
        k(  966) = (   0.2946429   0.2946429   0.2946429), wk =   0.0014276
        k(  967) = (   0.2964286   0.2964286   0.2964286), wk =   0.0014276
        k(  968) = (   0.2982143   0.2982143   0.2982143), wk =   0.0014276
        k(  969) = (   0.3000000   0.3000000   0.3000000), wk =   0.0014276
        k(  970) = (   0.3017857   0.3017857   0.3017857), wk =   0.0014276
        k(  971) = (   0.3035714   0.3035714   0.3035714), wk =   0.0014276
        k(  972) = (   0.3053571   0.3053571   0.3053571), wk =   0.0014276
        k(  973) = (   0.3071429   0.3071429   0.3071429), wk =   0.0014276
        k(  974) = (   0.3089286   0.3089286   0.3089286), wk =   0.0014276
        k(  975) = (   0.3107143   0.3107143   0.3107143), wk =   0.0014276
        k(  976) = (   0.3125000   0.3125000   0.3125000), wk =   0.0014276
        k(  977) = (   0.3142857   0.3142857   0.3142857), wk =   0.0014276
        k(  978) = (   0.3160714   0.3160714   0.3160714), wk =   0.0014276
        k(  979) = (   0.3178571   0.3178571   0.3178571), wk =   0.0014276
        k(  980) = (   0.3196429   0.3196429   0.3196429), wk =   0.0014276
        k(  981) = (   0.3214286   0.3214286   0.3214286), wk =   0.0014276
        k(  982) = (   0.3232143   0.3232143   0.3232143), wk =   0.0014276
        k(  983) = (   0.3250000   0.3250000   0.3250000), wk =   0.0014276
        k(  984) = (   0.3267857   0.3267857   0.3267857), wk =   0.0014276
        k(  985) = (   0.3285714   0.3285714   0.3285714), wk =   0.0014276
        k(  986) = (   0.3303571   0.3303571   0.3303571), wk =   0.0014276
        k(  987) = (   0.3321429   0.3321429   0.3321429), wk =   0.0014276
        k(  988) = (   0.3339286   0.3339286   0.3339286), wk =   0.0014276
        k(  989) = (   0.3357143   0.3357143   0.3357143), wk =   0.0014276
        k(  990) = (   0.3375000   0.3375000   0.3375000), wk =   0.0014276
        k(  991) = (   0.3392857   0.3392857   0.3392857), wk =   0.0014276
        k(  992) = (   0.3410714   0.3410714   0.3410714), wk =   0.0014276
        k(  993) = (   0.3428571   0.3428571   0.3428571), wk =   0.0014276
        k(  994) = (   0.3446429   0.3446429   0.3446429), wk =   0.0014276
        k(  995) = (   0.3464286   0.3464286   0.3464286), wk =   0.0014276
        k(  996) = (   0.3482143   0.3482143   0.3482143), wk =   0.0014276
        k(  997) = (   0.3500000   0.3500000   0.3500000), wk =   0.0014276
        k(  998) = (   0.3517857   0.3517857   0.3517857), wk =   0.0014276
        k(  999) = (   0.3535714   0.3535714   0.3535714), wk =   0.0014276
        k( 1000) = (   0.3553571   0.3553571   0.3553571), wk =   0.0014276
        k( 1001) = (   0.3571429   0.3571429   0.3571429), wk =   0.0014276
        k( 1002) = (   0.3589286   0.3589286   0.3589286), wk =   0.0014276
        k( 1003) = (   0.3607143   0.3607143   0.3607143), wk =   0.0014276
        k( 1004) = (   0.3625000   0.3625000   0.3625000), wk =   0.0014276
        k( 1005) = (   0.3642857   0.3642857   0.3642857), wk =   0.0014276
        k( 1006) = (   0.3660714   0.3660714   0.3660714), wk =   0.0014276
        k( 1007) = (   0.3678571   0.3678571   0.3678571), wk =   0.0014276
        k( 1008) = (   0.3696429   0.3696429   0.3696429), wk =   0.0014276
        k( 1009) = (   0.3714286   0.3714286   0.3714286), wk =   0.0014276
        k( 1010) = (   0.3732143   0.3732143   0.3732143), wk =   0.0014276
        k( 1011) = (   0.3750000   0.3750000   0.3750000), wk =   0.0014276
        k( 1012) = (   0.3767857   0.3767857   0.3767857), wk =   0.0014276
        k( 1013) = (   0.3785714   0.3785714   0.3785714), wk =   0.0014276
        k( 1014) = (   0.3803571   0.3803571   0.3803571), wk =   0.0014276
        k( 1015) = (   0.3821429   0.3821429   0.3821429), wk =   0.0014276
        k( 1016) = (   0.3839286   0.3839286   0.3839286), wk =   0.0014276
        k( 1017) = (   0.3857143   0.3857143   0.3857143), wk =   0.0014276
        k( 1018) = (   0.3875000   0.3875000   0.3875000), wk =   0.0014276
        k( 1019) = (   0.3892857   0.3892857   0.3892857), wk =   0.0014276
        k( 1020) = (   0.3910714   0.3910714   0.3910714), wk =   0.0014276
        k( 1021) = (   0.3928571   0.3928571   0.3928571), wk =   0.0014276
        k( 1022) = (   0.3946429   0.3946429   0.3946429), wk =   0.0014276
        k( 1023) = (   0.3964286   0.3964286   0.3964286), wk =   0.0014276
        k( 1024) = (   0.3982143   0.3982143   0.3982143), wk =   0.0014276
        k( 1025) = (   0.4000000   0.4000000   0.4000000), wk =   0.0014276
        k( 1026) = (   0.4017857   0.4017857   0.4017857), wk =   0.0014276
        k( 1027) = (   0.4035714   0.4035714   0.4035714), wk =   0.0014276
        k( 1028) = (   0.4053571   0.4053571   0.4053571), wk =   0.0014276
        k( 1029) = (   0.4071429   0.4071429   0.4071429), wk =   0.0014276
        k( 1030) = (   0.4089286   0.4089286   0.4089286), wk =   0.0014276
        k( 1031) = (   0.4107143   0.4107143   0.4107143), wk =   0.0014276
        k( 1032) = (   0.4125000   0.4125000   0.4125000), wk =   0.0014276
        k( 1033) = (   0.4142857   0.4142857   0.4142857), wk =   0.0014276
        k( 1034) = (   0.4160714   0.4160714   0.4160714), wk =   0.0014276
        k( 1035) = (   0.4178571   0.4178571   0.4178571), wk =   0.0014276
        k( 1036) = (   0.4196429   0.4196429   0.4196429), wk =   0.0014276
        k( 1037) = (   0.4214286   0.4214286   0.4214286), wk =   0.0014276
        k( 1038) = (   0.4232143   0.4232143   0.4232143), wk =   0.0014276
        k( 1039) = (   0.4250000   0.4250000   0.4250000), wk =   0.0014276
        k( 1040) = (   0.4267857   0.4267857   0.4267857), wk =   0.0014276
        k( 1041) = (   0.4285714   0.4285714   0.4285714), wk =   0.0014276
        k( 1042) = (   0.4303571   0.4303571   0.4303571), wk =   0.0014276
        k( 1043) = (   0.4321429   0.4321429   0.4321429), wk =   0.0014276
        k( 1044) = (   0.4339286   0.4339286   0.4339286), wk =   0.0014276
        k( 1045) = (   0.4357143   0.4357143   0.4357143), wk =   0.0014276
        k( 1046) = (   0.4375000   0.4375000   0.4375000), wk =   0.0014276
        k( 1047) = (   0.4392857   0.4392857   0.4392857), wk =   0.0014276
        k( 1048) = (   0.4410714   0.4410714   0.4410714), wk =   0.0014276
        k( 1049) = (   0.4428571   0.4428571   0.4428571), wk =   0.0014276
        k( 1050) = (   0.4446429   0.4446429   0.4446429), wk =   0.0014276
        k( 1051) = (   0.4464286   0.4464286   0.4464286), wk =   0.0014276
        k( 1052) = (   0.4482143   0.4482143   0.4482143), wk =   0.0014276
        k( 1053) = (   0.4500000   0.4500000   0.4500000), wk =   0.0014276
        k( 1054) = (   0.4517857   0.4517857   0.4517857), wk =   0.0014276
        k( 1055) = (   0.4535714   0.4535714   0.4535714), wk =   0.0014276
        k( 1056) = (   0.4553571   0.4553571   0.4553571), wk =   0.0014276
        k( 1057) = (   0.4571429   0.4571429   0.4571429), wk =   0.0014276
        k( 1058) = (   0.4589286   0.4589286   0.4589286), wk =   0.0014276
        k( 1059) = (   0.4607143   0.4607143   0.4607143), wk =   0.0014276
        k( 1060) = (   0.4625000   0.4625000   0.4625000), wk =   0.0014276
        k( 1061) = (   0.4642857   0.4642857   0.4642857), wk =   0.0014276
        k( 1062) = (   0.4660714   0.4660714   0.4660714), wk =   0.0014276
        k( 1063) = (   0.4678571   0.4678571   0.4678571), wk =   0.0014276
        k( 1064) = (   0.4696429   0.4696429   0.4696429), wk =   0.0014276
        k( 1065) = (   0.4714286   0.4714286   0.4714286), wk =   0.0014276
        k( 1066) = (   0.4732143   0.4732143   0.4732143), wk =   0.0014276
        k( 1067) = (   0.4750000   0.4750000   0.4750000), wk =   0.0014276
        k( 1068) = (   0.4767857   0.4767857   0.4767857), wk =   0.0014276
        k( 1069) = (   0.4785714   0.4785714   0.4785714), wk =   0.0014276
        k( 1070) = (   0.4803571   0.4803571   0.4803571), wk =   0.0014276
        k( 1071) = (   0.4821429   0.4821429   0.4821429), wk =   0.0014276
        k( 1072) = (   0.4839286   0.4839286   0.4839286), wk =   0.0014276
        k( 1073) = (   0.4857143   0.4857143   0.4857143), wk =   0.0014276
        k( 1074) = (   0.4875000   0.4875000   0.4875000), wk =   0.0014276
        k( 1075) = (   0.4892857   0.4892857   0.4892857), wk =   0.0014276
        k( 1076) = (   0.4910714   0.4910714   0.4910714), wk =   0.0014276
        k( 1077) = (   0.4928571   0.4928571   0.4928571), wk =   0.0014276
        k( 1078) = (   0.4946429   0.4946429   0.4946429), wk =   0.0014276
        k( 1079) = (   0.4964286   0.4964286   0.4964286), wk =   0.0014276
        k( 1080) = (   0.4982143   0.4982143   0.4982143), wk =   0.0014276
        k( 1081) = (   0.5000000   0.5000000   0.5000000), wk =   0.0014276
        k( 1082) = (   0.5000000   0.4987500   0.5012500), wk =   0.0014276
        k( 1083) = (   0.5000000   0.4975000   0.5025000), wk =   0.0014276
        k( 1084) = (   0.5000000   0.4962500   0.5037500), wk =   0.0014276
        k( 1085) = (   0.5000000   0.4950000   0.5050000), wk =   0.0014276
        k( 1086) = (   0.5000000   0.4937500   0.5062500), wk =   0.0014276
        k( 1087) = (   0.5000000   0.4925000   0.5075000), wk =   0.0014276
        k( 1088) = (   0.5000000   0.4912500   0.5087500), wk =   0.0014276
        k( 1089) = (   0.5000000   0.4900000   0.5100000), wk =   0.0014276
        k( 1090) = (   0.5000000   0.4887500   0.5112500), wk =   0.0014276
        k( 1091) = (   0.5000000   0.4875000   0.5125000), wk =   0.0014276
        k( 1092) = (   0.5000000   0.4862500   0.5137500), wk =   0.0014276
        k( 1093) = (   0.5000000   0.4850000   0.5150000), wk =   0.0014276
        k( 1094) = (   0.5000000   0.4837500   0.5162500), wk =   0.0014276
        k( 1095) = (   0.5000000   0.4825000   0.5175000), wk =   0.0014276
        k( 1096) = (   0.5000000   0.4812500   0.5187500), wk =   0.0014276
        k( 1097) = (   0.5000000   0.4800000   0.5200000), wk =   0.0014276
        k( 1098) = (   0.5000000   0.4787500   0.5212500), wk =   0.0014276
        k( 1099) = (   0.5000000   0.4775000   0.5225000), wk =   0.0014276
        k( 1100) = (   0.5000000   0.4762500   0.5237500), wk =   0.0014276
        k( 1101) = (   0.5000000   0.4750000   0.5250000), wk =   0.0014276
        k( 1102) = (   0.5000000   0.4737500   0.5262500), wk =   0.0014276
        k( 1103) = (   0.5000000   0.4725000   0.5275000), wk =   0.0014276
        k( 1104) = (   0.5000000   0.4712500   0.5287500), wk =   0.0014276
        k( 1105) = (   0.5000000   0.4700000   0.5300000), wk =   0.0014276
        k( 1106) = (   0.5000000   0.4687500   0.5312500), wk =   0.0014276
        k( 1107) = (   0.5000000   0.4675000   0.5325000), wk =   0.0014276
        k( 1108) = (   0.5000000   0.4662500   0.5337500), wk =   0.0014276
        k( 1109) = (   0.5000000   0.4650000   0.5350000), wk =   0.0014276
        k( 1110) = (   0.5000000   0.4637500   0.5362500), wk =   0.0014276
        k( 1111) = (   0.5000000   0.4625000   0.5375000), wk =   0.0014276
        k( 1112) = (   0.5000000   0.4612500   0.5387500), wk =   0.0014276
        k( 1113) = (   0.5000000   0.4600000   0.5400000), wk =   0.0014276
        k( 1114) = (   0.5000000   0.4587500   0.5412500), wk =   0.0014276
        k( 1115) = (   0.5000000   0.4575000   0.5425000), wk =   0.0014276
        k( 1116) = (   0.5000000   0.4562500   0.5437500), wk =   0.0014276
        k( 1117) = (   0.5000000   0.4550000   0.5450000), wk =   0.0014276
        k( 1118) = (   0.5000000   0.4537500   0.5462500), wk =   0.0014276
        k( 1119) = (   0.5000000   0.4525000   0.5475000), wk =   0.0014276
        k( 1120) = (   0.5000000   0.4512500   0.5487500), wk =   0.0014276
        k( 1121) = (   0.5000000   0.4500000   0.5500000), wk =   0.0014276
        k( 1122) = (   0.5000000   0.4487500   0.5512500), wk =   0.0014276
        k( 1123) = (   0.5000000   0.4475000   0.5525000), wk =   0.0014276
        k( 1124) = (   0.5000000   0.4462500   0.5537500), wk =   0.0014276
        k( 1125) = (   0.5000000   0.4450000   0.5550000), wk =   0.0014276
        k( 1126) = (   0.5000000   0.4437500   0.5562500), wk =   0.0014276
        k( 1127) = (   0.5000000   0.4425000   0.5575000), wk =   0.0014276
        k( 1128) = (   0.5000000   0.4412500   0.5587500), wk =   0.0014276
        k( 1129) = (   0.5000000   0.4400000   0.5600000), wk =   0.0014276
        k( 1130) = (   0.5000000   0.4387500   0.5612500), wk =   0.0014276
        k( 1131) = (   0.5000000   0.4375000   0.5625000), wk =   0.0014276
        k( 1132) = (   0.5000000   0.4362500   0.5637500), wk =   0.0014276
        k( 1133) = (   0.5000000   0.4350000   0.5650000), wk =   0.0014276
        k( 1134) = (   0.5000000   0.4337500   0.5662500), wk =   0.0014276
        k( 1135) = (   0.5000000   0.4325000   0.5675000), wk =   0.0014276
        k( 1136) = (   0.5000000   0.4312500   0.5687500), wk =   0.0014276
        k( 1137) = (   0.5000000   0.4300000   0.5700000), wk =   0.0014276
        k( 1138) = (   0.5000000   0.4287500   0.5712500), wk =   0.0014276
        k( 1139) = (   0.5000000   0.4275000   0.5725000), wk =   0.0014276
        k( 1140) = (   0.5000000   0.4262500   0.5737500), wk =   0.0014276
        k( 1141) = (   0.5000000   0.4250000   0.5750000), wk =   0.0014276
        k( 1142) = (   0.5000000   0.4237500   0.5762500), wk =   0.0014276
        k( 1143) = (   0.5000000   0.4225000   0.5775000), wk =   0.0014276
        k( 1144) = (   0.5000000   0.4212500   0.5787500), wk =   0.0014276
        k( 1145) = (   0.5000000   0.4200000   0.5800000), wk =   0.0014276
        k( 1146) = (   0.5000000   0.4187500   0.5812500), wk =   0.0014276
        k( 1147) = (   0.5000000   0.4175000   0.5825000), wk =   0.0014276
        k( 1148) = (   0.5000000   0.4162500   0.5837500), wk =   0.0014276
        k( 1149) = (   0.5000000   0.4150000   0.5850000), wk =   0.0014276
        k( 1150) = (   0.5000000   0.4137500   0.5862500), wk =   0.0014276
        k( 1151) = (   0.5000000   0.4125000   0.5875000), wk =   0.0014276
        k( 1152) = (   0.5000000   0.4112500   0.5887500), wk =   0.0014276
        k( 1153) = (   0.5000000   0.4100000   0.5900000), wk =   0.0014276
        k( 1154) = (   0.5000000   0.4087500   0.5912500), wk =   0.0014276
        k( 1155) = (   0.5000000   0.4075000   0.5925000), wk =   0.0014276
        k( 1156) = (   0.5000000   0.4062500   0.5937500), wk =   0.0014276
        k( 1157) = (   0.5000000   0.4050000   0.5950000), wk =   0.0014276
        k( 1158) = (   0.5000000   0.4037500   0.5962500), wk =   0.0014276
        k( 1159) = (   0.5000000   0.4025000   0.5975000), wk =   0.0014276
        k( 1160) = (   0.5000000   0.4012500   0.5987500), wk =   0.0014276
        k( 1161) = (   0.5000000   0.4000000   0.6000000), wk =   0.0014276
        k( 1162) = (   0.5000000   0.3987500   0.6012500), wk =   0.0014276
        k( 1163) = (   0.5000000   0.3975000   0.6025000), wk =   0.0014276
        k( 1164) = (   0.5000000   0.3962500   0.6037500), wk =   0.0014276
        k( 1165) = (   0.5000000   0.3950000   0.6050000), wk =   0.0014276
        k( 1166) = (   0.5000000   0.3937500   0.6062500), wk =   0.0014276
        k( 1167) = (   0.5000000   0.3925000   0.6075000), wk =   0.0014276
        k( 1168) = (   0.5000000   0.3912500   0.6087500), wk =   0.0014276
        k( 1169) = (   0.5000000   0.3900000   0.6100000), wk =   0.0014276
        k( 1170) = (   0.5000000   0.3887500   0.6112500), wk =   0.0014276
        k( 1171) = (   0.5000000   0.3875000   0.6125000), wk =   0.0014276
        k( 1172) = (   0.5000000   0.3862500   0.6137500), wk =   0.0014276
        k( 1173) = (   0.5000000   0.3850000   0.6150000), wk =   0.0014276
        k( 1174) = (   0.5000000   0.3837500   0.6162500), wk =   0.0014276
        k( 1175) = (   0.5000000   0.3825000   0.6175000), wk =   0.0014276
        k( 1176) = (   0.5000000   0.3812500   0.6187500), wk =   0.0014276
        k( 1177) = (   0.5000000   0.3800000   0.6200000), wk =   0.0014276
        k( 1178) = (   0.5000000   0.3787500   0.6212500), wk =   0.0014276
        k( 1179) = (   0.5000000   0.3775000   0.6225000), wk =   0.0014276
        k( 1180) = (   0.5000000   0.3762500   0.6237500), wk =   0.0014276
        k( 1181) = (   0.5000000   0.3750000   0.6250000), wk =   0.0014276
        k( 1182) = (   0.5000000   0.3737500   0.6262500), wk =   0.0014276
        k( 1183) = (   0.5000000   0.3725000   0.6275000), wk =   0.0014276
        k( 1184) = (   0.5000000   0.3712500   0.6287500), wk =   0.0014276
        k( 1185) = (   0.5000000   0.3700000   0.6300000), wk =   0.0014276
        k( 1186) = (   0.5000000   0.3687500   0.6312500), wk =   0.0014276
        k( 1187) = (   0.5000000   0.3675000   0.6325000), wk =   0.0014276
        k( 1188) = (   0.5000000   0.3662500   0.6337500), wk =   0.0014276
        k( 1189) = (   0.5000000   0.3650000   0.6350000), wk =   0.0014276
        k( 1190) = (   0.5000000   0.3637500   0.6362500), wk =   0.0014276
        k( 1191) = (   0.5000000   0.3625000   0.6375000), wk =   0.0014276
        k( 1192) = (   0.5000000   0.3612500   0.6387500), wk =   0.0014276
        k( 1193) = (   0.5000000   0.3600000   0.6400000), wk =   0.0014276
        k( 1194) = (   0.5000000   0.3587500   0.6412500), wk =   0.0014276
        k( 1195) = (   0.5000000   0.3575000   0.6425000), wk =   0.0014276
        k( 1196) = (   0.5000000   0.3562500   0.6437500), wk =   0.0014276
        k( 1197) = (   0.5000000   0.3550000   0.6450000), wk =   0.0014276
        k( 1198) = (   0.5000000   0.3537500   0.6462500), wk =   0.0014276
        k( 1199) = (   0.5000000   0.3525000   0.6475000), wk =   0.0014276
        k( 1200) = (   0.5000000   0.3512500   0.6487500), wk =   0.0014276
        k( 1201) = (   0.5000000   0.3500000   0.6500000), wk =   0.0014276
        k( 1202) = (   0.5000000   0.3487500   0.6512500), wk =   0.0014276
        k( 1203) = (   0.5000000   0.3475000   0.6525000), wk =   0.0014276
        k( 1204) = (   0.5000000   0.3462500   0.6537500), wk =   0.0014276
        k( 1205) = (   0.5000000   0.3450000   0.6550000), wk =   0.0014276
        k( 1206) = (   0.5000000   0.3437500   0.6562500), wk =   0.0014276
        k( 1207) = (   0.5000000   0.3425000   0.6575000), wk =   0.0014276
        k( 1208) = (   0.5000000   0.3412500   0.6587500), wk =   0.0014276
        k( 1209) = (   0.5000000   0.3400000   0.6600000), wk =   0.0014276
        k( 1210) = (   0.5000000   0.3387500   0.6612500), wk =   0.0014276
        k( 1211) = (   0.5000000   0.3375000   0.6625000), wk =   0.0014276
        k( 1212) = (   0.5000000   0.3362500   0.6637500), wk =   0.0014276
        k( 1213) = (   0.5000000   0.3350000   0.6650000), wk =   0.0014276
        k( 1214) = (   0.5000000   0.3337500   0.6662500), wk =   0.0014276
        k( 1215) = (   0.5000000   0.3325000   0.6675000), wk =   0.0014276
        k( 1216) = (   0.5000000   0.3312500   0.6687500), wk =   0.0014276
        k( 1217) = (   0.5000000   0.3300000   0.6700000), wk =   0.0014276
        k( 1218) = (   0.5000000   0.3287500   0.6712500), wk =   0.0014276
        k( 1219) = (   0.5000000   0.3275000   0.6725000), wk =   0.0014276
        k( 1220) = (   0.5000000   0.3262500   0.6737500), wk =   0.0014276
        k( 1221) = (   0.5000000   0.3250000   0.6750000), wk =   0.0014276
        k( 1222) = (   0.5000000   0.3237500   0.6762500), wk =   0.0014276
        k( 1223) = (   0.5000000   0.3225000   0.6775000), wk =   0.0014276
        k( 1224) = (   0.5000000   0.3212500   0.6787500), wk =   0.0014276
        k( 1225) = (   0.5000000   0.3200000   0.6800000), wk =   0.0014276
        k( 1226) = (   0.5000000   0.3187500   0.6812500), wk =   0.0014276
        k( 1227) = (   0.5000000   0.3175000   0.6825000), wk =   0.0014276
        k( 1228) = (   0.5000000   0.3162500   0.6837500), wk =   0.0014276
        k( 1229) = (   0.5000000   0.3150000   0.6850000), wk =   0.0014276
        k( 1230) = (   0.5000000   0.3137500   0.6862500), wk =   0.0014276
        k( 1231) = (   0.5000000   0.3125000   0.6875000), wk =   0.0014276
        k( 1232) = (   0.5000000   0.3112500   0.6887500), wk =   0.0014276
        k( 1233) = (   0.5000000   0.3100000   0.6900000), wk =   0.0014276
        k( 1234) = (   0.5000000   0.3087500   0.6912500), wk =   0.0014276
        k( 1235) = (   0.5000000   0.3075000   0.6925000), wk =   0.0014276
        k( 1236) = (   0.5000000   0.3062500   0.6937500), wk =   0.0014276
        k( 1237) = (   0.5000000   0.3050000   0.6950000), wk =   0.0014276
        k( 1238) = (   0.5000000   0.3037500   0.6962500), wk =   0.0014276
        k( 1239) = (   0.5000000   0.3025000   0.6975000), wk =   0.0014276
        k( 1240) = (   0.5000000   0.3012500   0.6987500), wk =   0.0014276
        k( 1241) = (   0.5000000   0.3000000   0.7000000), wk =   0.0014276
        k( 1242) = (   0.5000000   0.2987500   0.7012500), wk =   0.0014276
        k( 1243) = (   0.5000000   0.2975000   0.7025000), wk =   0.0014276
        k( 1244) = (   0.5000000   0.2962500   0.7037500), wk =   0.0014276
        k( 1245) = (   0.5000000   0.2950000   0.7050000), wk =   0.0014276
        k( 1246) = (   0.5000000   0.2937500   0.7062500), wk =   0.0014276
        k( 1247) = (   0.5000000   0.2925000   0.7075000), wk =   0.0014276
        k( 1248) = (   0.5000000   0.2912500   0.7087500), wk =   0.0014276
        k( 1249) = (   0.5000000   0.2900000   0.7100000), wk =   0.0014276
        k( 1250) = (   0.5000000   0.2887500   0.7112500), wk =   0.0014276
        k( 1251) = (   0.5000000   0.2875000   0.7125000), wk =   0.0014276
        k( 1252) = (   0.5000000   0.2862500   0.7137500), wk =   0.0014276
        k( 1253) = (   0.5000000   0.2850000   0.7150000), wk =   0.0014276
        k( 1254) = (   0.5000000   0.2837500   0.7162500), wk =   0.0014276
        k( 1255) = (   0.5000000   0.2825000   0.7175000), wk =   0.0014276
        k( 1256) = (   0.5000000   0.2812500   0.7187500), wk =   0.0014276
        k( 1257) = (   0.5000000   0.2800000   0.7200000), wk =   0.0014276
        k( 1258) = (   0.5000000   0.2787500   0.7212500), wk =   0.0014276
        k( 1259) = (   0.5000000   0.2775000   0.7225000), wk =   0.0014276
        k( 1260) = (   0.5000000   0.2762500   0.7237500), wk =   0.0014276
        k( 1261) = (   0.5000000   0.2750000   0.7250000), wk =   0.0014276
        k( 1262) = (   0.5000000   0.2737500   0.7262500), wk =   0.0014276
        k( 1263) = (   0.5000000   0.2725000   0.7275000), wk =   0.0014276
        k( 1264) = (   0.5000000   0.2712500   0.7287500), wk =   0.0014276
        k( 1265) = (   0.5000000   0.2700000   0.7300000), wk =   0.0014276
        k( 1266) = (   0.5000000   0.2687500   0.7312500), wk =   0.0014276
        k( 1267) = (   0.5000000   0.2675000   0.7325000), wk =   0.0014276
        k( 1268) = (   0.5000000   0.2662500   0.7337500), wk =   0.0014276
        k( 1269) = (   0.5000000   0.2650000   0.7350000), wk =   0.0014276
        k( 1270) = (   0.5000000   0.2637500   0.7362500), wk =   0.0014276
        k( 1271) = (   0.5000000   0.2625000   0.7375000), wk =   0.0014276
        k( 1272) = (   0.5000000   0.2612500   0.7387500), wk =   0.0014276
        k( 1273) = (   0.5000000   0.2600000   0.7400000), wk =   0.0014276
        k( 1274) = (   0.5000000   0.2587500   0.7412500), wk =   0.0014276
        k( 1275) = (   0.5000000   0.2575000   0.7425000), wk =   0.0014276
        k( 1276) = (   0.5000000   0.2562500   0.7437500), wk =   0.0014276
        k( 1277) = (   0.5000000   0.2550000   0.7450000), wk =   0.0014276
        k( 1278) = (   0.5000000   0.2537500   0.7462500), wk =   0.0014276
        k( 1279) = (   0.5000000   0.2525000   0.7475000), wk =   0.0014276
        k( 1280) = (   0.5000000   0.2512500   0.7487500), wk =   0.0014276
        k( 1281) = (   0.5000000   0.2500000   0.7500000), wk =   0.0014276
        k( 1282) = (   0.5000000   0.2479167   0.7479167), wk =   0.0014276
        k( 1283) = (   0.5000000   0.2458333   0.7458333), wk =   0.0014276
        k( 1284) = (   0.5000000   0.2437500   0.7437500), wk =   0.0014276
        k( 1285) = (   0.5000000   0.2416667   0.7416667), wk =   0.0014276
        k( 1286) = (   0.5000000   0.2395833   0.7395833), wk =   0.0014276
        k( 1287) = (   0.5000000   0.2375000   0.7375000), wk =   0.0014276
        k( 1288) = (   0.5000000   0.2354167   0.7354167), wk =   0.0014276
        k( 1289) = (   0.5000000   0.2333333   0.7333333), wk =   0.0014276
        k( 1290) = (   0.5000000   0.2312500   0.7312500), wk =   0.0014276
        k( 1291) = (   0.5000000   0.2291667   0.7291667), wk =   0.0014276
        k( 1292) = (   0.5000000   0.2270833   0.7270833), wk =   0.0014276
        k( 1293) = (   0.5000000   0.2250000   0.7250000), wk =   0.0014276
        k( 1294) = (   0.5000000   0.2229167   0.7229167), wk =   0.0014276
        k( 1295) = (   0.5000000   0.2208333   0.7208333), wk =   0.0014276
        k( 1296) = (   0.5000000   0.2187500   0.7187500), wk =   0.0014276
        k( 1297) = (   0.5000000   0.2166667   0.7166667), wk =   0.0014276
        k( 1298) = (   0.5000000   0.2145833   0.7145833), wk =   0.0014276
        k( 1299) = (   0.5000000   0.2125000   0.7125000), wk =   0.0014276
        k( 1300) = (   0.5000000   0.2104167   0.7104167), wk =   0.0014276
        k( 1301) = (   0.5000000   0.2083333   0.7083333), wk =   0.0014276
        k( 1302) = (   0.5000000   0.2062500   0.7062500), wk =   0.0014276
        k( 1303) = (   0.5000000   0.2041667   0.7041667), wk =   0.0014276
        k( 1304) = (   0.5000000   0.2020833   0.7020833), wk =   0.0014276
        k( 1305) = (   0.5000000   0.2000000   0.7000000), wk =   0.0014276
        k( 1306) = (   0.5000000   0.1979167   0.6979167), wk =   0.0014276
        k( 1307) = (   0.5000000   0.1958333   0.6958333), wk =   0.0014276
        k( 1308) = (   0.5000000   0.1937500   0.6937500), wk =   0.0014276
        k( 1309) = (   0.5000000   0.1916667   0.6916667), wk =   0.0014276
        k( 1310) = (   0.5000000   0.1895833   0.6895833), wk =   0.0014276
        k( 1311) = (   0.5000000   0.1875000   0.6875000), wk =   0.0014276
        k( 1312) = (   0.5000000   0.1854167   0.6854167), wk =   0.0014276
        k( 1313) = (   0.5000000   0.1833333   0.6833333), wk =   0.0014276
        k( 1314) = (   0.5000000   0.1812500   0.6812500), wk =   0.0014276
        k( 1315) = (   0.5000000   0.1791667   0.6791667), wk =   0.0014276
        k( 1316) = (   0.5000000   0.1770833   0.6770833), wk =   0.0014276
        k( 1317) = (   0.5000000   0.1750000   0.6750000), wk =   0.0014276
        k( 1318) = (   0.5000000   0.1729167   0.6729167), wk =   0.0014276
        k( 1319) = (   0.5000000   0.1708333   0.6708333), wk =   0.0014276
        k( 1320) = (   0.5000000   0.1687500   0.6687500), wk =   0.0014276
        k( 1321) = (   0.5000000   0.1666667   0.6666667), wk =   0.0014276
        k( 1322) = (   0.5000000   0.1645833   0.6645833), wk =   0.0014276
        k( 1323) = (   0.5000000   0.1625000   0.6625000), wk =   0.0014276
        k( 1324) = (   0.5000000   0.1604167   0.6604167), wk =   0.0014276
        k( 1325) = (   0.5000000   0.1583333   0.6583333), wk =   0.0014276
        k( 1326) = (   0.5000000   0.1562500   0.6562500), wk =   0.0014276
        k( 1327) = (   0.5000000   0.1541667   0.6541667), wk =   0.0014276
        k( 1328) = (   0.5000000   0.1520833   0.6520833), wk =   0.0014276
        k( 1329) = (   0.5000000   0.1500000   0.6500000), wk =   0.0014276
        k( 1330) = (   0.5000000   0.1479167   0.6479167), wk =   0.0014276
        k( 1331) = (   0.5000000   0.1458333   0.6458333), wk =   0.0014276
        k( 1332) = (   0.5000000   0.1437500   0.6437500), wk =   0.0014276
        k( 1333) = (   0.5000000   0.1416667   0.6416667), wk =   0.0014276
        k( 1334) = (   0.5000000   0.1395833   0.6395833), wk =   0.0014276
        k( 1335) = (   0.5000000   0.1375000   0.6375000), wk =   0.0014276
        k( 1336) = (   0.5000000   0.1354167   0.6354167), wk =   0.0014276
        k( 1337) = (   0.5000000   0.1333333   0.6333333), wk =   0.0014276
        k( 1338) = (   0.5000000   0.1312500   0.6312500), wk =   0.0014276
        k( 1339) = (   0.5000000   0.1291667   0.6291667), wk =   0.0014276
        k( 1340) = (   0.5000000   0.1270833   0.6270833), wk =   0.0014276
        k( 1341) = (   0.5000000   0.1250000   0.6250000), wk =   0.0014276
        k( 1342) = (   0.5000000   0.1229167   0.6229167), wk =   0.0014276
        k( 1343) = (   0.5000000   0.1208333   0.6208333), wk =   0.0014276
        k( 1344) = (   0.5000000   0.1187500   0.6187500), wk =   0.0014276
        k( 1345) = (   0.5000000   0.1166667   0.6166667), wk =   0.0014276
        k( 1346) = (   0.5000000   0.1145833   0.6145833), wk =   0.0014276
        k( 1347) = (   0.5000000   0.1125000   0.6125000), wk =   0.0014276
        k( 1348) = (   0.5000000   0.1104167   0.6104167), wk =   0.0014276
        k( 1349) = (   0.5000000   0.1083333   0.6083333), wk =   0.0014276
        k( 1350) = (   0.5000000   0.1062500   0.6062500), wk =   0.0014276
        k( 1351) = (   0.5000000   0.1041667   0.6041667), wk =   0.0014276
        k( 1352) = (   0.5000000   0.1020833   0.6020833), wk =   0.0014276
        k( 1353) = (   0.5000000   0.1000000   0.6000000), wk =   0.0014276
        k( 1354) = (   0.5000000   0.0979167   0.5979167), wk =   0.0014276
        k( 1355) = (   0.5000000   0.0958333   0.5958333), wk =   0.0014276
        k( 1356) = (   0.5000000   0.0937500   0.5937500), wk =   0.0014276
        k( 1357) = (   0.5000000   0.0916667   0.5916667), wk =   0.0014276
        k( 1358) = (   0.5000000   0.0895833   0.5895833), wk =   0.0014276
        k( 1359) = (   0.5000000   0.0875000   0.5875000), wk =   0.0014276
        k( 1360) = (   0.5000000   0.0854167   0.5854167), wk =   0.0014276
        k( 1361) = (   0.5000000   0.0833333   0.5833333), wk =   0.0014276
        k( 1362) = (   0.5000000   0.0812500   0.5812500), wk =   0.0014276
        k( 1363) = (   0.5000000   0.0791667   0.5791667), wk =   0.0014276
        k( 1364) = (   0.5000000   0.0770833   0.5770833), wk =   0.0014276
        k( 1365) = (   0.5000000   0.0750000   0.5750000), wk =   0.0014276
        k( 1366) = (   0.5000000   0.0729167   0.5729167), wk =   0.0014276
        k( 1367) = (   0.5000000   0.0708333   0.5708333), wk =   0.0014276
        k( 1368) = (   0.5000000   0.0687500   0.5687500), wk =   0.0014276
        k( 1369) = (   0.5000000   0.0666667   0.5666667), wk =   0.0014276
        k( 1370) = (   0.5000000   0.0645833   0.5645833), wk =   0.0014276
        k( 1371) = (   0.5000000   0.0625000   0.5625000), wk =   0.0014276
        k( 1372) = (   0.5000000   0.0604167   0.5604167), wk =   0.0014276
        k( 1373) = (   0.5000000   0.0583333   0.5583333), wk =   0.0014276
        k( 1374) = (   0.5000000   0.0562500   0.5562500), wk =   0.0014276
        k( 1375) = (   0.5000000   0.0541667   0.5541667), wk =   0.0014276
        k( 1376) = (   0.5000000   0.0520833   0.5520833), wk =   0.0014276
        k( 1377) = (   0.5000000   0.0500000   0.5500000), wk =   0.0014276
        k( 1378) = (   0.5000000   0.0479167   0.5479167), wk =   0.0014276
        k( 1379) = (   0.5000000   0.0458333   0.5458333), wk =   0.0014276
        k( 1380) = (   0.5000000   0.0437500   0.5437500), wk =   0.0014276
        k( 1381) = (   0.5000000   0.0416667   0.5416667), wk =   0.0014276
        k( 1382) = (   0.5000000   0.0395833   0.5395833), wk =   0.0014276
        k( 1383) = (   0.5000000   0.0375000   0.5375000), wk =   0.0014276
        k( 1384) = (   0.5000000   0.0354167   0.5354167), wk =   0.0014276
        k( 1385) = (   0.5000000   0.0333333   0.5333333), wk =   0.0014276
        k( 1386) = (   0.5000000   0.0312500   0.5312500), wk =   0.0014276
        k( 1387) = (   0.5000000   0.0291667   0.5291667), wk =   0.0014276
        k( 1388) = (   0.5000000   0.0270833   0.5270833), wk =   0.0014276
        k( 1389) = (   0.5000000   0.0250000   0.5250000), wk =   0.0014276
        k( 1390) = (   0.5000000   0.0229167   0.5229167), wk =   0.0014276
        k( 1391) = (   0.5000000   0.0208333   0.5208333), wk =   0.0014276
        k( 1392) = (   0.5000000   0.0187500   0.5187500), wk =   0.0014276
        k( 1393) = (   0.5000000   0.0166667   0.5166667), wk =   0.0014276
        k( 1394) = (   0.5000000   0.0145833   0.5145833), wk =   0.0014276
        k( 1395) = (   0.5000000   0.0125000   0.5125000), wk =   0.0014276
        k( 1396) = (   0.5000000   0.0104167   0.5104167), wk =   0.0014276
        k( 1397) = (   0.5000000   0.0083333   0.5083333), wk =   0.0014276
        k( 1398) = (   0.5000000   0.0062500   0.5062500), wk =   0.0014276
        k( 1399) = (   0.5000000   0.0041667   0.5041667), wk =   0.0014276
        k( 1400) = (   0.5000000   0.0020833   0.5020833), wk =   0.0014276
        k( 1401) = (   0.5000000   0.0000000   0.5000000), wk =   0.0014276

     Dense  grid:   160021 G-vectors     FFT dimensions: (  75,  75,  75)

     Smooth grid:    87027 G-vectors     FFT dimensions: (  64,  64,  64)

     Dynamical RAM for                 wfc:       0.25 MB

     Dynamical RAM for     wfc (w. buffer):       0.25 MB

     Dynamical RAM for           str. fact:       0.81 MB

     Dynamical RAM for           local pot:       0.00 MB

     Dynamical RAM for          nlocal pot:       1.00 MB

     Dynamical RAM for                qrad:       4.31 MB

     Dynamical RAM for          rho,v,vnew:       2.89 MB

     Dynamical RAM for           G-vectors:       1.64 MB

     Dynamical RAM for          h,s,v(r/c):       0.01 MB

     Dynamical RAM for          <psi|beta>:       0.00 MB

     Dynamical RAM for                 psi:       0.50 MB

     Dynamical RAM for                hpsi:       0.50 MB

     Dynamical RAM for                spsi:       0.50 MB

     Dynamical RAM for      wfcinit/wfcrot:       0.50 MB

     Dynamical RAM for           addusdens:      76.10 MB

     Estimated static dynamical RAM per process >      14.91 MB

     Estimated max dynamical RAM per process >      91.01 MB

     Estimated total dynamical RAM >     546.05 MB

     The potential is recalculated from file :
     /home/User/opencode_workspace/DFT/calculations/cdte/production_bands_nosoc/out/pwscf.save/charge-density

     Starting wfcs are   13 randomized atomic wfcs

     Band Structure Calculation
     Davidson diagonalization with overlap

     Computing kpt #:     1  of  1401
     total cpu time spent up to now is        1.9 secs

     Computing kpt #:     2  of  1401
     c_bands:  2 eigenvalues not converged
     total cpu time spent up to now is        2.5 secs

     Computing kpt #:     3  of  1401
     c_bands:  2 eigenvalues not converged
     total cpu time spent up to now is        3.1 secs

     Computing kpt #:     4  of  1401
     c_bands:  2 eigenvalues not converged
     total cpu time spent up to now is        3.7 secs

     Computing kpt #:     5  of  1401
     c_bands:  2 eigenvalues not converged
     total cpu time spent up to now is        4.4 secs

     Computing kpt #:     6  of  1401
     c_bands:  2 eigenvalues not converged
     total cpu time spent up to now is        5.1 secs

     Computing kpt #:     7  of  1401
     c_bands:  2 eigenvalues not converged
     total cpu time spent up to now is        5.8 secs

     Computing kpt #:     8  of  1401
     c_bands:  2 eigenvalues not converged
     total cpu time spent up to now is        6.5 secs

     Computing kpt #:     9  of  1401
     c_bands:  2 eigenvalues not converged
     total cpu time spent up to now is        7.0 secs

     Computing kpt #:    10  of  1401
     c_bands:  2 eigenvalues not converged
     total cpu time spent up to now is        7.7 secs

     Computing kpt #:    11  of  1401
     c_bands:  2 eigenvalues not converged
     total cpu time spent up to now is        8.3 secs

     Computing kpt #:    12  of  1401
     c_bands:  1 eigenvalues not converged
     total cpu time spent up to now is        8.8 secs

     Computing kpt #:    13  of  1401
     total cpu time spent up to now is        9.4 secs

     Computing kpt #:    14  of  1401
     c_bands:  2 eigenvalues not converged
     total cpu time spent up to now is        9.9 secs

     Computing kpt #:    15  of  1401
     total cpu time spent up to now is       10.4 secs

     Computing kpt #:    16  of  1401
     total cpu time spent up to now is       11.0 secs

     Computing kpt #:    17  of  1401
     c_bands:  1 eigenvalues not converged
     total cpu time spent up to now is       11.6 secs

     Computing kpt #:    18  of  1401
     total cpu time spent up to now is       12.1 secs

     Computing kpt #:    19  of  1401
     total cpu time spent up to now is       12.7 secs

     Computing kpt #:    20  of  1401
     c_bands:  1 eigenvalues not converged
     total cpu time spent up to now is       13.2 secs

     Computing kpt #:    21  of  1401
     total cpu time spent up to now is       13.8 secs

     Computing kpt #:    22  of  1401
     c_bands:  1 eigenvalues not converged
     total cpu time spent up to now is       14.3 secs

     Computing kpt #:    23  of  1401
     total cpu time spent up to now is       14.8 secs

     Computing kpt #:    24  of  1401
     total cpu time spent up to now is       15.3 secs

     Computing kpt #:    25  of  1401
     total cpu time spent up to now is       15.8 secs

     Computing kpt #:    26  of  1401
     total cpu time spent up to now is       16.3 secs

     Computing kpt #:    27  of  1401
     total cpu time spent up to now is       16.8 secs

     Computing kpt #:    28  of  1401
     total cpu time spent up to now is       17.3 secs

     Computing kpt #:    29  of  1401
     total cpu time spent up to now is       17.8 secs

     Computing kpt #:    30  of  1401
     total cpu time spent up to now is       18.3 secs

     Computing kpt #:    31  of  1401
     total cpu time spent up to now is       18.8 secs

     Computing kpt #:    32  of  1401
     total cpu time spent up to now is       19.4 secs

     Computing kpt #:    33  of  1401
     total cpu time spent up to now is       19.8 secs

     Computing kpt #:    34  of  1401
     total cpu time spent up to now is       20.3 secs

     Computing kpt #:    35  of  1401
     total cpu time spent up to now is       20.8 secs

     Computing kpt #:    36  of  1401
     total cpu time spent up to now is       21.3 secs

     Computing kpt #:    37  of  1401
     total cpu time spent up to now is       21.7 secs

     Computing kpt #:    38  of  1401
     total cpu time spent up to now is       22.2 secs

     Computing kpt #:    39  of  1401
     total cpu time spent up to now is       22.7 secs

     Computing kpt #:    40  of  1401
     total cpu time spent up to now is       23.1 secs

     Computing kpt #:    41  of  1401
     total cpu time spent up to now is       23.6 secs

     Computing kpt #:    42  of  1401
     total cpu time spent up to now is       24.0 secs

     Computing kpt #:    43  of  1401
     total cpu time spent up to now is       24.5 secs

     Computing kpt #:    44  of  1401
     total cpu time spent up to now is       24.9 secs

     Computing kpt #:    45  of  1401
     total cpu time spent up to now is       25.4 secs

     Computing kpt #:    46  of  1401
     total cpu time spent up to now is       25.8 secs

     Computing kpt #:    47  of  1401
     total cpu time spent up to now is       26.3 secs

     Computing kpt #:    48  of  1401
     total cpu time spent up to now is       26.7 secs

     Computing kpt #:    49  of  1401
     total cpu time spent up to now is       27.1 secs

     Computing kpt #:    50  of  1401
     total cpu time spent up to now is       27.5 secs

     Computing kpt #:    51  of  1401
     total cpu time spent up to now is       28.0 secs

     Computing kpt #:    52  of  1401
     total cpu time spent up to now is       28.4 secs

     Computing kpt #:    53  of  1401
     total cpu time spent up to now is       28.8 secs

     Computing kpt #:    54  of  1401
     total cpu time spent up to now is       29.3 secs

     Computing kpt #:    55  of  1401
     total cpu time spent up to now is       29.7 secs

     Computing kpt #:    56  of  1401
     total cpu time spent up to now is       30.3 secs

     Computing kpt #:    57  of  1401
     total cpu time spent up to now is       30.8 secs

     Computing kpt #:    58  of  1401
     total cpu time spent up to now is       31.2 secs

     Computing kpt #:    59  of  1401
     total cpu time spent up to now is       31.7 secs

     Computing kpt #:    60  of  1401
     total cpu time spent up to now is       32.2 secs

     Computing kpt #:    61  of  1401
     total cpu time spent up to now is       32.7 secs

     Computing kpt #:    62  of  1401
     total cpu time spent up to now is       33.1 secs

     Computing kpt #:    63  of  1401
     total cpu time spent up to now is       33.5 secs

     Computing kpt #:    64  of  1401
     total cpu time spent up to now is       34.0 secs

     Computing kpt #:    65  of  1401
     total cpu time spent up to now is       34.5 secs

     Computing kpt #:    66  of  1401
     total cpu time spent up to now is       35.0 secs

     Computing kpt #:    67  of  1401
     total cpu time spent up to now is       35.4 secs

     Computing kpt #:    68  of  1401
     total cpu time spent up to now is       35.8 secs

     Computing kpt #:    69  of  1401
     total cpu time spent up to now is       36.2 secs

     Computing kpt #:    70  of  1401
     total cpu time spent up to now is       36.6 secs

     Computing kpt #:    71  of  1401
     total cpu time spent up to now is       37.0 secs

     Computing kpt #:    72  of  1401
     total cpu time spent up to now is       37.6 secs

     Computing kpt #:    73  of  1401
     total cpu time spent up to now is       38.0 secs

     Computing kpt #:    74  of  1401
     total cpu time spent up to now is       38.5 secs

     Computing kpt #:    75  of  1401
     total cpu time spent up to now is       38.9 secs

     Computing kpt #:    76  of  1401
     total cpu time spent up to now is       39.3 secs

     Computing kpt #:    77  of  1401
     total cpu time spent up to now is       39.7 secs

     Computing kpt #:    78  of  1401
     total cpu time spent up to now is       40.1 secs

     Computing kpt #:    79  of  1401
     total cpu time spent up to now is       40.5 secs

     Computing kpt #:    80  of  1401
     total cpu time spent up to now is       41.0 secs

     Computing kpt #:    81  of  1401
     total cpu time spent up to now is       41.4 secs

     Computing kpt #:    82  of  1401
     total cpu time spent up to now is       41.9 secs

     Computing kpt #:    83  of  1401
     total cpu time spent up to now is       42.3 secs

     Computing kpt #:    84  of  1401
     total cpu time spent up to now is       42.7 secs

     Computing kpt #:    85  of  1401
     total cpu time spent up to now is       43.0 secs

     Computing kpt #:    86  of  1401
     total cpu time spent up to now is       43.4 secs

     Computing kpt #:    87  of  1401
     total cpu time spent up to now is       43.9 secs

     Computing kpt #:    88  of  1401
     total cpu time spent up to now is       44.2 secs

     Computing kpt #:    89  of  1401
     total cpu time spent up to now is       44.6 secs

     Computing kpt #:    90  of  1401
     total cpu time spent up to now is       45.0 secs

     Computing kpt #:    91  of  1401
     total cpu time spent up to now is       45.4 secs

     Computing kpt #:    92  of  1401
     total cpu time spent up to now is       45.8 secs

     Computing kpt #:    93  of  1401
     total cpu time spent up to now is       46.2 secs

     Computing kpt #:    94  of  1401
     total cpu time spent up to now is       46.5 secs

     Computing kpt #:    95  of  1401
     total cpu time spent up to now is       46.9 secs

     Computing kpt #:    96  of  1401
     total cpu time spent up to now is       47.3 secs

     Computing kpt #:    97  of  1401
     total cpu time spent up to now is       47.8 secs

     Computing kpt #:    98  of  1401
     total cpu time spent up to now is       48.2 secs

     Computing kpt #:    99  of  1401
     total cpu time spent up to now is       48.7 secs

     Computing kpt #:   100  of  1401
     total cpu time spent up to now is       49.1 secs

     Computing kpt #:   101  of  1401
     total cpu time spent up to now is       49.5 secs

     Computing kpt #:   102  of  1401
     total cpu time spent up to now is       49.8 secs

     Computing kpt #:   103  of  1401
     total cpu time spent up to now is       50.2 secs

     Computing kpt #:   104  of  1401
     total cpu time spent up to now is       50.6 secs

     Computing kpt #:   105  of  1401
     total cpu time spent up to now is       51.0 secs

     Computing kpt #:   106  of  1401
     total cpu time spent up to now is       51.3 secs

     Computing kpt #:   107  of  1401
     total cpu time spent up to now is       51.7 secs

     Computing kpt #:   108  of  1401
     total cpu time spent up to now is       52.1 secs

     Computing kpt #:   109  of  1401
     total cpu time spent up to now is       52.5 secs

     Computing kpt #:   110  of  1401
     total cpu time spent up to now is       52.9 secs

     Computing kpt #:   111  of  1401
     total cpu time spent up to now is       53.3 secs

     Computing kpt #:   112  of  1401
     total cpu time spent up to now is       53.7 secs

     Computing kpt #:   113  of  1401
     total cpu time spent up to now is       54.0 secs

     Computing kpt #:   114  of  1401
     total cpu time spent up to now is       54.4 secs

     Computing kpt #:   115  of  1401
     total cpu time spent up to now is       54.8 secs

     Computing kpt #:   116  of  1401
     total cpu time spent up to now is       55.2 secs

     Computing kpt #:   117  of  1401
     total cpu time spent up to now is       55.6 secs

     Computing kpt #:   118  of  1401
     total cpu time spent up to now is       56.1 secs

     Computing kpt #:   119  of  1401
     total cpu time spent up to now is       56.5 secs

     Computing kpt #:   120  of  1401
     total cpu time spent up to now is       56.9 secs

     Computing kpt #:   121  of  1401
     total cpu time spent up to now is       57.4 secs

     Computing kpt #:   122  of  1401
     total cpu time spent up to now is       57.8 secs

     Computing kpt #:   123  of  1401
     total cpu time spent up to now is       58.2 secs

     Computing kpt #:   124  of  1401
     total cpu time spent up to now is       58.7 secs

     Computing kpt #:   125  of  1401
     total cpu time spent up to now is       59.1 secs

     Computing kpt #:   126  of  1401
     total cpu time spent up to now is       59.6 secs

     Computing kpt #:   127  of  1401
     total cpu time spent up to now is       60.0 secs

     Computing kpt #:   128  of  1401
     total cpu time spent up to now is       60.4 secs

     Computing kpt #:   129  of  1401
     total cpu time spent up to now is       60.8 secs

     Computing kpt #:   130  of  1401
     total cpu time spent up to now is       61.3 secs

     Computing kpt #:   131  of  1401
     total cpu time spent up to now is       61.7 secs

     Computing kpt #:   132  of  1401
     total cpu time spent up to now is       62.2 secs

     Computing kpt #:   133  of  1401
     total cpu time spent up to now is       62.7 secs

     Computing kpt #:   134  of  1401
     total cpu time spent up to now is       63.1 secs

     Computing kpt #:   135  of  1401
     total cpu time spent up to now is       63.6 secs

     Computing kpt #:   136  of  1401
     total cpu time spent up to now is       64.1 secs

     Computing kpt #:   137  of  1401
     total cpu time spent up to now is       64.5 secs

     Computing kpt #:   138  of  1401
     total cpu time spent up to now is       64.9 secs

     Computing kpt #:   139  of  1401
     total cpu time spent up to now is       65.3 secs

     Computing kpt #:   140  of  1401
     total cpu time spent up to now is       65.7 secs

     Computing kpt #:   141  of  1401
     total cpu time spent up to now is       66.2 secs

     Computing kpt #:   142  of  1401
     total cpu time spent up to now is       66.6 secs

     Computing kpt #:   143  of  1401
     total cpu time spent up to now is       67.1 secs

     Computing kpt #:   144  of  1401
     total cpu time spent up to now is       67.5 secs

     Computing kpt #:   145  of  1401
     total cpu time spent up to now is       68.0 secs

     Computing kpt #:   146  of  1401
     total cpu time spent up to now is       68.5 secs

     Computing kpt #:   147  of  1401
     total cpu time spent up to now is       69.0 secs

     Computing kpt #:   148  of  1401
     total cpu time spent up to now is       69.4 secs

     Computing kpt #:   149  of  1401
     total cpu time spent up to now is       70.0 secs

     Computing kpt #:   150  of  1401
     total cpu time spent up to now is       70.4 secs

     Computing kpt #:   151  of  1401
     total cpu time spent up to now is       70.9 secs

     Computing kpt #:   152  of  1401
     total cpu time spent up to now is       71.3 secs

     Computing kpt #:   153  of  1401
     total cpu time spent up to now is       71.8 secs

     Computing kpt #:   154  of  1401
     total cpu time spent up to now is       72.3 secs

     Computing kpt #:   155  of  1401
     total cpu time spent up to now is       72.8 secs

     Computing kpt #:   156  of  1401
     total cpu time spent up to now is       73.2 secs

     Computing kpt #:   157  of  1401
     total cpu time spent up to now is       73.7 secs

     Computing kpt #:   158  of  1401
     total cpu time spent up to now is       74.3 secs

     Computing kpt #:   159  of  1401
     total cpu time spent up to now is       74.8 secs

     Computing kpt #:   160  of  1401
     total cpu time spent up to now is       75.2 secs

     Computing kpt #:   161  of  1401
     total cpu time spent up to now is       75.6 secs

     Computing kpt #:   162  of  1401
     total cpu time spent up to now is       76.0 secs

     Computing kpt #:   163  of  1401
     total cpu time spent up to now is       76.4 secs

     Computing kpt #:   164  of  1401
     total cpu time spent up to now is       76.8 secs

     Computing kpt #:   165  of  1401
     total cpu time spent up to now is       77.2 secs

     Computing kpt #:   166  of  1401
     total cpu time spent up to now is       77.8 secs

     Computing kpt #:   167  of  1401
     total cpu time spent up to now is       78.2 secs

     Computing kpt #:   168  of  1401
     total cpu time spent up to now is       78.6 secs

     Computing kpt #:   169  of  1401
     total cpu time spent up to now is       79.1 secs

     Computing kpt #:   170  of  1401
     total cpu time spent up to now is       79.5 secs

     Computing kpt #:   171  of  1401
     total cpu time spent up to now is       80.0 secs

     Computing kpt #:   172  of  1401
     total cpu time spent up to now is       80.4 secs

     Computing kpt #:   173  of  1401
     total cpu time spent up to now is       80.9 secs

     Computing kpt #:   174  of  1401
     total cpu time spent up to now is       81.3 secs

     Computing kpt #:   175  of  1401
     total cpu time spent up to now is       81.8 secs

     Computing kpt #:   176  of  1401
     total cpu time spent up to now is       82.2 secs

     Computing kpt #:   177  of  1401
     total cpu time spent up to now is       82.7 secs

     Computing kpt #:   178  of  1401
     total cpu time spent up to now is       83.1 secs

     Computing kpt #:   179  of  1401
     total cpu time spent up to now is       83.6 secs

     Computing kpt #:   180  of  1401
     total cpu time spent up to now is       84.0 secs

     Computing kpt #:   181  of  1401
     total cpu time spent up to now is       84.6 secs

     Computing kpt #:   182  of  1401
     total cpu time spent up to now is       85.2 secs

     Computing kpt #:   183  of  1401
     total cpu time spent up to now is       85.6 secs

     Computing kpt #:   184  of  1401
     total cpu time spent up to now is       86.1 secs

     Computing kpt #:   185  of  1401
     total cpu time spent up to now is       86.5 secs

     Computing kpt #:   186  of  1401
     total cpu time spent up to now is       86.9 secs

     Computing kpt #:   187  of  1401
     total cpu time spent up to now is       87.4 secs

     Computing kpt #:   188  of  1401
     total cpu time spent up to now is       87.8 secs

     Computing kpt #:   189  of  1401
     total cpu time spent up to now is       88.2 secs

     Computing kpt #:   190  of  1401
     total cpu time spent up to now is       88.7 secs

     Computing kpt #:   191  of  1401
     total cpu time spent up to now is       89.2 secs

     Computing kpt #:   192  of  1401
     total cpu time spent up to now is       89.6 secs

     Computing kpt #:   193  of  1401
     total cpu time spent up to now is       90.5 secs

     Computing kpt #:   194  of  1401
     total cpu time spent up to now is       91.4 secs

     Computing kpt #:   195  of  1401
     total cpu time spent up to now is       92.3 secs

     Computing kpt #:   196  of  1401
     total cpu time spent up to now is       92.7 secs

     Computing kpt #:   197  of  1401
     total cpu time spent up to now is       93.1 secs

     Computing kpt #:   198  of  1401
     total cpu time spent up to now is       93.5 secs

     Computing kpt #:   199  of  1401
     total cpu time spent up to now is       94.0 secs

     Computing kpt #:   200  of  1401
     total cpu time spent up to now is       94.5 secs

     Computing kpt #:   201  of  1401
     total cpu time spent up to now is       94.9 secs

     Computing kpt #:   202  of  1401
     total cpu time spent up to now is       95.2 secs

     Computing kpt #:   203  of  1401
     total cpu time spent up to now is       95.6 secs

     Computing kpt #:   204  of  1401
     total cpu time spent up to now is       96.1 secs

     Computing kpt #:   205  of  1401
     total cpu time spent up to now is       96.5 secs

     Computing kpt #:   206  of  1401
     total cpu time spent up to now is       97.0 secs

     Computing kpt #:   207  of  1401
     total cpu time spent up to now is       97.5 secs

     Computing kpt #:   208  of  1401
     total cpu time spent up to now is       98.0 secs

     Computing kpt #:   209  of  1401
     total cpu time spent up to now is       98.4 secs

     Computing kpt #:   210  of  1401
     total cpu time spent up to now is       98.9 secs

     Computing kpt #:   211  of  1401
     total cpu time spent up to now is       99.4 secs

     Computing kpt #:   212  of  1401
     total cpu time spent up to now is      100.0 secs

     Computing kpt #:   213  of  1401
     total cpu time spent up to now is      100.5 secs

     Computing kpt #:   214  of  1401
     total cpu time spent up to now is      101.1 secs

     Computing kpt #:   215  of  1401
     total cpu time spent up to now is      101.6 secs

     Computing kpt #:   216  of  1401
     total cpu time spent up to now is      102.0 secs

     Computing kpt #:   217  of  1401
     total cpu time spent up to now is      102.5 secs

     Computing kpt #:   218  of  1401
     total cpu time spent up to now is      102.9 secs

     Computing kpt #:   219  of  1401
     total cpu time spent up to now is      103.3 secs

     Computing kpt #:   220  of  1401
     total cpu time spent up to now is      103.7 secs

     Computing kpt #:   221  of  1401
     total cpu time spent up to now is      104.2 secs

     Computing kpt #:   222  of  1401
     total cpu time spent up to now is      104.7 secs

     Computing kpt #:   223  of  1401
     total cpu time spent up to now is      105.2 secs

     Computing kpt #:   224  of  1401
     total cpu time spent up to now is      105.7 secs

     Computing kpt #:   225  of  1401
     total cpu time spent up to now is      106.2 secs

     Computing kpt #:   226  of  1401
     total cpu time spent up to now is      106.7 secs

     Computing kpt #:   227  of  1401
     total cpu time spent up to now is      107.1 secs

     Computing kpt #:   228  of  1401
     total cpu time spent up to now is      107.7 secs

     Computing kpt #:   229  of  1401
     total cpu time spent up to now is      108.3 secs

     Computing kpt #:   230  of  1401
     total cpu time spent up to now is      108.7 secs

     Computing kpt #:   231  of  1401
     total cpu time spent up to now is      109.2 secs

     Computing kpt #:   232  of  1401
     total cpu time spent up to now is      109.8 secs

     Computing kpt #:   233  of  1401
     total cpu time spent up to now is      110.4 secs

     Computing kpt #:   234  of  1401
     total cpu time spent up to now is      110.9 secs

     Computing kpt #:   235  of  1401
     total cpu time spent up to now is      111.4 secs

     Computing kpt #:   236  of  1401
     total cpu time spent up to now is      111.9 secs

     Computing kpt #:   237  of  1401
     total cpu time spent up to now is      112.4 secs

     Computing kpt #:   238  of  1401
     total cpu time spent up to now is      112.9 secs

     Computing kpt #:   239  of  1401
     total cpu time spent up to now is      113.5 secs

     Computing kpt #:   240  of  1401
     total cpu time spent up to now is      113.9 secs

     Computing kpt #:   241  of  1401
     total cpu time spent up to now is      114.4 secs

     Computing kpt #:   242  of  1401
     total cpu time spent up to now is      115.1 secs

     Computing kpt #:   243  of  1401
     total cpu time spent up to now is      115.5 secs

     Computing kpt #:   244  of  1401
     total cpu time spent up to now is      116.1 secs

     Computing kpt #:   245  of  1401
     total cpu time spent up to now is      116.6 secs

     Computing kpt #:   246  of  1401
     total cpu time spent up to now is      117.1 secs

     Computing kpt #:   247  of  1401
     total cpu time spent up to now is      117.5 secs

     Computing kpt #:   248  of  1401
     total cpu time spent up to now is      118.1 secs

     Computing kpt #:   249  of  1401
     total cpu time spent up to now is      118.6 secs

     Computing kpt #:   250  of  1401
     total cpu time spent up to now is      119.1 secs

     Computing kpt #:   251  of  1401
     total cpu time spent up to now is      119.6 secs

     Computing kpt #:   252  of  1401
     total cpu time spent up to now is      120.2 secs

     Computing kpt #:   253  of  1401
     total cpu time spent up to now is      120.8 secs

     Computing kpt #:   254  of  1401
     total cpu time spent up to now is      121.3 secs

     Computing kpt #:   255  of  1401
     total cpu time spent up to now is      121.7 secs

     Computing kpt #:   256  of  1401
     total cpu time spent up to now is      122.2 secs

     Computing kpt #:   257  of  1401
     total cpu time spent up to now is      122.8 secs

     Computing kpt #:   258  of  1401
     total cpu time spent up to now is      123.3 secs

     Computing kpt #:   259  of  1401
     total cpu time spent up to now is      123.7 secs

     Computing kpt #:   260  of  1401
     total cpu time spent up to now is      124.2 secs

     Computing kpt #:   261  of  1401
     total cpu time spent up to now is      124.7 secs

     Computing kpt #:   262  of  1401
     total cpu time spent up to now is      125.2 secs

     Computing kpt #:   263  of  1401
     total cpu time spent up to now is      125.8 secs

     Computing kpt #:   264  of  1401
     total cpu time spent up to now is      126.2 secs

     Computing kpt #:   265  of  1401
     total cpu time spent up to now is      126.7 secs

     Computing kpt #:   266  of  1401
     total cpu time spent up to now is      127.2 secs

     Computing kpt #:   267  of  1401
     total cpu time spent up to now is      127.8 secs

     Computing kpt #:   268  of  1401
     total cpu time spent up to now is      128.3 secs

     Computing kpt #:   269  of  1401
     total cpu time spent up to now is      128.8 secs

     Computing kpt #:   270  of  1401
     total cpu time spent up to now is      129.2 secs

     Computing kpt #:   271  of  1401
     total cpu time spent up to now is      129.6 secs

     Computing kpt #:   272  of  1401
     total cpu time spent up to now is      130.1 secs

     Computing kpt #:   273  of  1401
     total cpu time spent up to now is      130.6 secs

     Computing kpt #:   274  of  1401
     total cpu time spent up to now is      131.1 secs

     Computing kpt #:   275  of  1401
     total cpu time spent up to now is      131.6 secs

     Computing kpt #:   276  of  1401
     total cpu time spent up to now is      132.0 secs

     Computing kpt #:   277  of  1401
     total cpu time spent up to now is      132.5 secs

     Computing kpt #:   278  of  1401
     total cpu time spent up to now is      133.0 secs

     Computing kpt #:   279  of  1401
     total cpu time spent up to now is      133.5 secs

     Computing kpt #:   280  of  1401
     total cpu time spent up to now is      134.0 secs

     Computing kpt #:   281  of  1401
     total cpu time spent up to now is      134.6 secs

     Computing kpt #:   282  of  1401
     total cpu time spent up to now is      135.1 secs

     Computing kpt #:   283  of  1401
     total cpu time spent up to now is      135.6 secs

     Computing kpt #:   284  of  1401
     total cpu time spent up to now is      136.1 secs

     Computing kpt #:   285  of  1401
     total cpu time spent up to now is      136.5 secs

     Computing kpt #:   286  of  1401
     total cpu time spent up to now is      137.0 secs

     Computing kpt #:   287  of  1401
     total cpu time spent up to now is      137.5 secs

     Computing kpt #:   288  of  1401
     total cpu time spent up to now is      138.2 secs

     Computing kpt #:   289  of  1401
     total cpu time spent up to now is      138.7 secs

     Computing kpt #:   290  of  1401
     total cpu time spent up to now is      139.2 secs

     Computing kpt #:   291  of  1401
     total cpu time spent up to now is      139.6 secs

     Computing kpt #:   292  of  1401
     total cpu time spent up to now is      140.0 secs

     Computing kpt #:   293  of  1401
     total cpu time spent up to now is      140.5 secs

     Computing kpt #:   294  of  1401
     total cpu time spent up to now is      141.0 secs

     Computing kpt #:   295  of  1401
     total cpu time spent up to now is      141.5 secs

     Computing kpt #:   296  of  1401
     total cpu time spent up to now is      141.9 secs

     Computing kpt #:   297  of  1401
     total cpu time spent up to now is      142.5 secs

     Computing kpt #:   298  of  1401
     total cpu time spent up to now is      142.9 secs

     Computing kpt #:   299  of  1401
     total cpu time spent up to now is      143.5 secs

     Computing kpt #:   300  of  1401
     total cpu time spent up to now is      143.9 secs

     Computing kpt #:   301  of  1401
     total cpu time spent up to now is      144.3 secs

     Computing kpt #:   302  of  1401
     total cpu time spent up to now is      144.8 secs

     Computing kpt #:   303  of  1401
     total cpu time spent up to now is      145.2 secs

     Computing kpt #:   304  of  1401
     total cpu time spent up to now is      145.7 secs

     Computing kpt #:   305  of  1401
     total cpu time spent up to now is      146.1 secs

     Computing kpt #:   306  of  1401
     total cpu time spent up to now is      146.5 secs

     Computing kpt #:   307  of  1401
     total cpu time spent up to now is      146.9 secs

     Computing kpt #:   308  of  1401
     total cpu time spent up to now is      147.4 secs

     Computing kpt #:   309  of  1401
     total cpu time spent up to now is      148.0 secs

     Computing kpt #:   310  of  1401
     total cpu time spent up to now is      148.4 secs

     Computing kpt #:   311  of  1401
     total cpu time spent up to now is      148.8 secs

     Computing kpt #:   312  of  1401
     total cpu time spent up to now is      149.2 secs

     Computing kpt #:   313  of  1401
     total cpu time spent up to now is      149.6 secs

     Computing kpt #:   314  of  1401
     total cpu time spent up to now is      150.0 secs

     Computing kpt #:   315  of  1401
     total cpu time spent up to now is      150.8 secs

     Computing kpt #:   316  of  1401
     total cpu time spent up to now is      152.1 secs

     Computing kpt #:   317  of  1401
     total cpu time spent up to now is      152.7 secs

     Computing kpt #:   318  of  1401
     total cpu time spent up to now is      153.2 secs

     Computing kpt #:   319  of  1401
     total cpu time spent up to now is      153.7 secs

     Computing kpt #:   320  of  1401
     total cpu time spent up to now is      154.3 secs

     Computing kpt #:   321  of  1401
     total cpu time spent up to now is      154.8 secs

     Computing kpt #:   322  of  1401
     total cpu time spent up to now is      155.2 secs

     Computing kpt #:   323  of  1401
     total cpu time spent up to now is      155.7 secs

     Computing kpt #:   324  of  1401
     total cpu time spent up to now is      156.1 secs

     Computing kpt #:   325  of  1401
     total cpu time spent up to now is      156.6 secs

     Computing kpt #:   326  of  1401
     total cpu time spent up to now is      157.0 secs

     Computing kpt #:   327  of  1401
     total cpu time spent up to now is      157.5 secs

     Computing kpt #:   328  of  1401
     total cpu time spent up to now is      158.0 secs

     Computing kpt #:   329  of  1401
     total cpu time spent up to now is      158.5 secs

     Computing kpt #:   330  of  1401
     total cpu time spent up to now is      158.9 secs

     Computing kpt #:   331  of  1401
     total cpu time spent up to now is      159.4 secs

     Computing kpt #:   332  of  1401
     total cpu time spent up to now is      159.9 secs

     Computing kpt #:   333  of  1401
     total cpu time spent up to now is      160.4 secs

     Computing kpt #:   334  of  1401
     total cpu time spent up to now is      160.9 secs

     Computing kpt #:   335  of  1401
     total cpu time spent up to now is      161.4 secs

     Computing kpt #:   336  of  1401
     total cpu time spent up to now is      161.9 secs

     Computing kpt #:   337  of  1401
     total cpu time spent up to now is      162.3 secs

     Computing kpt #:   338  of  1401
     total cpu time spent up to now is      162.8 secs

     Computing kpt #:   339  of  1401
     total cpu time spent up to now is      163.2 secs

     Computing kpt #:   340  of  1401
     total cpu time spent up to now is      163.6 secs

     Computing kpt #:   341  of  1401
     total cpu time spent up to now is      164.1 secs

     Computing kpt #:   342  of  1401
     total cpu time spent up to now is      164.6 secs

     Computing kpt #:   343  of  1401
     total cpu time spent up to now is      165.0 secs

     Computing kpt #:   344  of  1401
     total cpu time spent up to now is      165.5 secs

     Computing kpt #:   345  of  1401
     total cpu time spent up to now is      166.0 secs

     Computing kpt #:   346  of  1401
     total cpu time spent up to now is      166.5 secs

     Computing kpt #:   347  of  1401
     total cpu time spent up to now is      167.0 secs

     Computing kpt #:   348  of  1401
     total cpu time spent up to now is      167.5 secs

     Computing kpt #:   349  of  1401
     total cpu time spent up to now is      168.0 secs

     Computing kpt #:   350  of  1401
     total cpu time spent up to now is      168.6 secs

     Computing kpt #:   351  of  1401
     total cpu time spent up to now is      169.1 secs

     Computing kpt #:   352  of  1401
     total cpu time spent up to now is      169.6 secs

     Computing kpt #:   353  of  1401
     total cpu time spent up to now is      170.0 secs

     Computing kpt #:   354  of  1401
     total cpu time spent up to now is      170.5 secs

     Computing kpt #:   355  of  1401
     total cpu time spent up to now is      171.0 secs

     Computing kpt #:   356  of  1401
     total cpu time spent up to now is      171.4 secs

     Computing kpt #:   357  of  1401
     total cpu time spent up to now is      171.8 secs

     Computing kpt #:   358  of  1401
     total cpu time spent up to now is      172.4 secs

     Computing kpt #:   359  of  1401
     total cpu time spent up to now is      173.0 secs

     Computing kpt #:   360  of  1401
     total cpu time spent up to now is      173.6 secs

     Computing kpt #:   361  of  1401
     total cpu time spent up to now is      174.1 secs

     Computing kpt #:   362  of  1401
     total cpu time spent up to now is      174.6 secs

     Computing kpt #:   363  of  1401
     total cpu time spent up to now is      175.1 secs

     Computing kpt #:   364  of  1401
     total cpu time spent up to now is      175.7 secs

     Computing kpt #:   365  of  1401
     total cpu time spent up to now is      176.1 secs

     Computing kpt #:   366  of  1401
     total cpu time spent up to now is      176.6 secs

     Computing kpt #:   367  of  1401
     total cpu time spent up to now is      177.0 secs

     Computing kpt #:   368  of  1401
     total cpu time spent up to now is      177.4 secs

     Computing kpt #:   369  of  1401
     total cpu time spent up to now is      177.9 secs

     Computing kpt #:   370  of  1401
     total cpu time spent up to now is      178.3 secs

     Computing kpt #:   371  of  1401
     total cpu time spent up to now is      178.9 secs

     Computing kpt #:   372  of  1401
     total cpu time spent up to now is      179.5 secs

     Computing kpt #:   373  of  1401
     total cpu time spent up to now is      180.1 secs

     Computing kpt #:   374  of  1401
     total cpu time spent up to now is      180.6 secs

     Computing kpt #:   375  of  1401
     total cpu time spent up to now is      181.1 secs

     Computing kpt #:   376  of  1401
     total cpu time spent up to now is      181.5 secs

     Computing kpt #:   377  of  1401
     total cpu time spent up to now is      181.9 secs

     Computing kpt #:   378  of  1401
     total cpu time spent up to now is      182.4 secs

     Computing kpt #:   379  of  1401
     total cpu time spent up to now is      182.9 secs

     Computing kpt #:   380  of  1401
     total cpu time spent up to now is      183.3 secs

     Computing kpt #:   381  of  1401
     total cpu time spent up to now is      183.8 secs

     Computing kpt #:   382  of  1401
     total cpu time spent up to now is      184.3 secs

     Computing kpt #:   383  of  1401
     total cpu time spent up to now is      184.8 secs

     Computing kpt #:   384  of  1401
     total cpu time spent up to now is      185.3 secs

     Computing kpt #:   385  of  1401
     total cpu time spent up to now is      185.8 secs

     Computing kpt #:   386  of  1401
     total cpu time spent up to now is      186.3 secs

     Computing kpt #:   387  of  1401
     total cpu time spent up to now is      186.7 secs

     Computing kpt #:   388  of  1401
     total cpu time spent up to now is      187.2 secs

     Computing kpt #:   389  of  1401
     total cpu time spent up to now is      187.8 secs

     Computing kpt #:   390  of  1401
     total cpu time spent up to now is      188.2 secs

     Computing kpt #:   391  of  1401
     total cpu time spent up to now is      188.8 secs

     Computing kpt #:   392  of  1401
     total cpu time spent up to now is      189.3 secs

     Computing kpt #:   393  of  1401
     total cpu time spent up to now is      189.8 secs

     Computing kpt #:   394  of  1401
     total cpu time spent up to now is      190.2 secs

     Computing kpt #:   395  of  1401
     total cpu time spent up to now is      190.8 secs

     Computing kpt #:   396  of  1401
     total cpu time spent up to now is      191.3 secs

     Computing kpt #:   397  of  1401
     total cpu time spent up to now is      191.8 secs

     Computing kpt #:   398  of  1401
     total cpu time spent up to now is      192.3 secs

     Computing kpt #:   399  of  1401
     total cpu time spent up to now is      192.8 secs

     Computing kpt #:   400  of  1401
     total cpu time spent up to now is      193.3 secs

     Computing kpt #:   401  of  1401
     total cpu time spent up to now is      193.8 secs

     Computing kpt #:   402  of  1401
     total cpu time spent up to now is      194.4 secs

     Computing kpt #:   403  of  1401
     total cpu time spent up to now is      194.8 secs

     Computing kpt #:   404  of  1401
     total cpu time spent up to now is      195.3 secs

     Computing kpt #:   405  of  1401
     total cpu time spent up to now is      195.8 secs

     Computing kpt #:   406  of  1401
     total cpu time spent up to now is      196.3 secs

     Computing kpt #:   407  of  1401
     total cpu time spent up to now is      196.8 secs

     Computing kpt #:   408  of  1401
     total cpu time spent up to now is      197.3 secs

     Computing kpt #:   409  of  1401
     total cpu time spent up to now is      197.9 secs

     Computing kpt #:   410  of  1401
     total cpu time spent up to now is      198.4 secs

     Computing kpt #:   411  of  1401
     total cpu time spent up to now is      199.0 secs

     Computing kpt #:   412  of  1401
     total cpu time spent up to now is      199.5 secs

     Computing kpt #:   413  of  1401
     total cpu time spent up to now is      200.0 secs

     Computing kpt #:   414  of  1401
     total cpu time spent up to now is      200.4 secs

     Computing kpt #:   415  of  1401
     total cpu time spent up to now is      200.9 secs

     Computing kpt #:   416  of  1401
     total cpu time spent up to now is      201.5 secs

     Computing kpt #:   417  of  1401
     total cpu time spent up to now is      202.0 secs

     Computing kpt #:   418  of  1401
     total cpu time spent up to now is      202.5 secs

     Computing kpt #:   419  of  1401
     total cpu time spent up to now is      203.0 secs

     Computing kpt #:   420  of  1401
     total cpu time spent up to now is      203.5 secs

     Computing kpt #:   421  of  1401
     total cpu time spent up to now is      204.1 secs

     Computing kpt #:   422  of  1401
     total cpu time spent up to now is      204.7 secs

     Computing kpt #:   423  of  1401
     total cpu time spent up to now is      205.2 secs

     Computing kpt #:   424  of  1401
     total cpu time spent up to now is      205.7 secs

     Computing kpt #:   425  of  1401
     total cpu time spent up to now is      206.3 secs

     Computing kpt #:   426  of  1401
     total cpu time spent up to now is      206.7 secs

     Computing kpt #:   427  of  1401
     total cpu time spent up to now is      207.2 secs

     Computing kpt #:   428  of  1401
     total cpu time spent up to now is      207.8 secs

     Computing kpt #:   429  of  1401
     total cpu time spent up to now is      208.2 secs

     Computing kpt #:   430  of  1401
     total cpu time spent up to now is      208.7 secs

     Computing kpt #:   431  of  1401
     total cpu time spent up to now is      209.2 secs

     Computing kpt #:   432  of  1401
     total cpu time spent up to now is      209.7 secs

     Computing kpt #:   433  of  1401
     total cpu time spent up to now is      210.9 secs

     Computing kpt #:   434  of  1401
     total cpu time spent up to now is      213.1 secs

     Computing kpt #:   435  of  1401
     total cpu time spent up to now is      213.9 secs

     Computing kpt #:   436  of  1401
     total cpu time spent up to now is      214.5 secs

     Computing kpt #:   437  of  1401
     total cpu time spent up to now is      215.1 secs

     Computing kpt #:   438  of  1401
     total cpu time spent up to now is      215.6 secs

     Computing kpt #:   439  of  1401
     total cpu time spent up to now is      216.1 secs

     Computing kpt #:   440  of  1401
     total cpu time spent up to now is      216.6 secs

     Computing kpt #:   441  of  1401
     total cpu time spent up to now is      217.2 secs

     Computing kpt #:   442  of  1401
     total cpu time spent up to now is      217.8 secs

     Computing kpt #:   443  of  1401
     total cpu time spent up to now is      218.2 secs

     Computing kpt #:   444  of  1401
     total cpu time spent up to now is      218.8 secs

     Computing kpt #:   445  of  1401
     total cpu time spent up to now is      219.4 secs

     Computing kpt #:   446  of  1401
     total cpu time spent up to now is      220.0 secs

     Computing kpt #:   447  of  1401
     total cpu time spent up to now is      220.6 secs

     Computing kpt #:   448  of  1401
     total cpu time spent up to now is      221.1 secs

     Computing kpt #:   449  of  1401
     total cpu time spent up to now is      221.6 secs

     Computing kpt #:   450  of  1401
     total cpu time spent up to now is      222.1 secs

     Computing kpt #:   451  of  1401
     total cpu time spent up to now is      222.6 secs

     Computing kpt #:   452  of  1401
     total cpu time spent up to now is      223.1 secs

     Computing kpt #:   453  of  1401
     total cpu time spent up to now is      223.6 secs

     Computing kpt #:   454  of  1401
     total cpu time spent up to now is      224.1 secs

     Computing kpt #:   455  of  1401
     total cpu time spent up to now is      224.7 secs

     Computing kpt #:   456  of  1401
     total cpu time spent up to now is      225.2 secs

     Computing kpt #:   457  of  1401
     total cpu time spent up to now is      225.6 secs

     Computing kpt #:   458  of  1401
     total cpu time spent up to now is      226.2 secs

     Computing kpt #:   459  of  1401
     total cpu time spent up to now is      226.6 secs

     Computing kpt #:   460  of  1401
     total cpu time spent up to now is      227.1 secs

     Computing kpt #:   461  of  1401
     total cpu time spent up to now is      227.6 secs

     Computing kpt #:   462  of  1401
     total cpu time spent up to now is      228.3 secs

     Computing kpt #:   463  of  1401
     total cpu time spent up to now is      228.9 secs

     Computing kpt #:   464  of  1401
     total cpu time spent up to now is      229.4 secs

     Computing kpt #:   465  of  1401
     total cpu time spent up to now is      230.0 secs

     Computing kpt #:   466  of  1401
     total cpu time spent up to now is      230.5 secs

     Computing kpt #:   467  of  1401
     total cpu time spent up to now is      231.0 secs

     Computing kpt #:   468  of  1401
     total cpu time spent up to now is      231.5 secs

     Computing kpt #:   469  of  1401
     total cpu time spent up to now is      232.0 secs

     Computing kpt #:   470  of  1401
     total cpu time spent up to now is      232.5 secs

     Computing kpt #:   471  of  1401
     total cpu time spent up to now is      233.0 secs

     Computing kpt #:   472  of  1401
     total cpu time spent up to now is      233.4 secs

     Computing kpt #:   473  of  1401
     total cpu time spent up to now is      233.9 secs

     Computing kpt #:   474  of  1401
     total cpu time spent up to now is      234.5 secs

     Computing kpt #:   475  of  1401
     total cpu time spent up to now is      235.0 secs

     Computing kpt #:   476  of  1401
     total cpu time spent up to now is      235.5 secs

     Computing kpt #:   477  of  1401
     total cpu time spent up to now is      236.1 secs

     Computing kpt #:   478  of  1401
     total cpu time spent up to now is      236.6 secs

     Computing kpt #:   479  of  1401
     total cpu time spent up to now is      237.1 secs

     Computing kpt #:   480  of  1401
     total cpu time spent up to now is      237.6 secs

     Computing kpt #:   481  of  1401
     total cpu time spent up to now is      238.1 secs

     Computing kpt #:   482  of  1401
     total cpu time spent up to now is      238.5 secs

     Computing kpt #:   483  of  1401
     total cpu time spent up to now is      239.1 secs

     Computing kpt #:   484  of  1401
     total cpu time spent up to now is      239.6 secs

     Computing kpt #:   485  of  1401
     total cpu time spent up to now is      240.2 secs

     Computing kpt #:   486  of  1401
     total cpu time spent up to now is      240.7 secs

     Computing kpt #:   487  of  1401
     total cpu time spent up to now is      241.2 secs

     Computing kpt #:   488  of  1401
     total cpu time spent up to now is      241.7 secs

     Computing kpt #:   489  of  1401
     total cpu time spent up to now is      242.2 secs

     Computing kpt #:   490  of  1401
     total cpu time spent up to now is      242.7 secs

     Computing kpt #:   491  of  1401
     total cpu time spent up to now is      243.2 secs

     Computing kpt #:   492  of  1401
     total cpu time spent up to now is      243.6 secs

     Computing kpt #:   493  of  1401
     total cpu time spent up to now is      244.1 secs

     Computing kpt #:   494  of  1401
     total cpu time spent up to now is      244.7 secs

     Computing kpt #:   495  of  1401
     total cpu time spent up to now is      245.2 secs

     Computing kpt #:   496  of  1401
     total cpu time spent up to now is      245.7 secs

     Computing kpt #:   497  of  1401
     total cpu time spent up to now is      246.2 secs

     Computing kpt #:   498  of  1401
     total cpu time spent up to now is      246.8 secs

     Computing kpt #:   499  of  1401
     total cpu time spent up to now is      247.2 secs

     Computing kpt #:   500  of  1401
     total cpu time spent up to now is      247.9 secs

     Computing kpt #:   501  of  1401
     total cpu time spent up to now is      248.5 secs

     Computing kpt #:   502  of  1401
     total cpu time spent up to now is      249.0 secs

     Computing kpt #:   503  of  1401
     total cpu time spent up to now is      249.5 secs

     Computing kpt #:   504  of  1401
     total cpu time spent up to now is      250.0 secs

     Computing kpt #:   505  of  1401
     total cpu time spent up to now is      250.5 secs

     Computing kpt #:   506  of  1401
     total cpu time spent up to now is      250.9 secs

     Computing kpt #:   507  of  1401
     total cpu time spent up to now is      251.4 secs

     Computing kpt #:   508  of  1401
     total cpu time spent up to now is      251.8 secs

     Computing kpt #:   509  of  1401
     total cpu time spent up to now is      252.2 secs

     Computing kpt #:   510  of  1401
     total cpu time spent up to now is      252.9 secs

     Computing kpt #:   511  of  1401
     total cpu time spent up to now is      253.4 secs

     Computing kpt #:   512  of  1401
     total cpu time spent up to now is      254.0 secs

     Computing kpt #:   513  of  1401
     total cpu time spent up to now is      254.6 secs

     Computing kpt #:   514  of  1401
     total cpu time spent up to now is      255.2 secs

     Computing kpt #:   515  of  1401
     total cpu time spent up to now is      255.8 secs

     Computing kpt #:   516  of  1401
     total cpu time spent up to now is      256.3 secs

     Computing kpt #:   517  of  1401
     total cpu time spent up to now is      256.8 secs

     Computing kpt #:   518  of  1401
     total cpu time spent up to now is      257.3 secs

     Computing kpt #:   519  of  1401
     total cpu time spent up to now is      257.8 secs

     Computing kpt #:   520  of  1401
     total cpu time spent up to now is      258.3 secs

     Computing kpt #:   521  of  1401
     total cpu time spent up to now is      258.9 secs

     Computing kpt #:   522  of  1401
     total cpu time spent up to now is      259.4 secs

     Computing kpt #:   523  of  1401
     total cpu time spent up to now is      259.8 secs

     Computing kpt #:   524  of  1401
     total cpu time spent up to now is      260.3 secs

     Computing kpt #:   525  of  1401
     total cpu time spent up to now is      260.7 secs

     Computing kpt #:   526  of  1401
     total cpu time spent up to now is      261.2 secs

     Computing kpt #:   527  of  1401
     total cpu time spent up to now is      261.7 secs

     Computing kpt #:   528  of  1401
     total cpu time spent up to now is      262.2 secs

     Computing kpt #:   529  of  1401
     total cpu time spent up to now is      262.6 secs

     Computing kpt #:   530  of  1401
     total cpu time spent up to now is      263.1 secs

     Computing kpt #:   531  of  1401
     total cpu time spent up to now is      263.6 secs

     Computing kpt #:   532  of  1401
     total cpu time spent up to now is      264.2 secs

     Computing kpt #:   533  of  1401
     total cpu time spent up to now is      264.7 secs

     Computing kpt #:   534  of  1401
     total cpu time spent up to now is      265.2 secs

     Computing kpt #:   535  of  1401
     total cpu time spent up to now is      265.7 secs

     Computing kpt #:   536  of  1401
     total cpu time spent up to now is      266.1 secs

     Computing kpt #:   537  of  1401
     total cpu time spent up to now is      266.6 secs

     Computing kpt #:   538  of  1401
     total cpu time spent up to now is      267.1 secs

     Computing kpt #:   539  of  1401
     total cpu time spent up to now is      267.6 secs

     Computing kpt #:   540  of  1401
     total cpu time spent up to now is      268.0 secs

     Computing kpt #:   541  of  1401
     total cpu time spent up to now is      268.5 secs

     Computing kpt #:   542  of  1401
     total cpu time spent up to now is      269.0 secs

     Computing kpt #:   543  of  1401
     total cpu time spent up to now is      269.5 secs

     Computing kpt #:   544  of  1401
     total cpu time spent up to now is      270.2 secs

     Computing kpt #:   545  of  1401
     total cpu time spent up to now is      270.8 secs

     Computing kpt #:   546  of  1401
     total cpu time spent up to now is      271.4 secs

     Computing kpt #:   547  of  1401
     total cpu time spent up to now is      271.8 secs

     Computing kpt #:   548  of  1401
     total cpu time spent up to now is      272.3 secs

     Computing kpt #:   549  of  1401
     total cpu time spent up to now is      272.8 secs

     Computing kpt #:   550  of  1401
     total cpu time spent up to now is      273.3 secs

     Computing kpt #:   551  of  1401
     total cpu time spent up to now is      273.8 secs

     Computing kpt #:   552  of  1401
     total cpu time spent up to now is      274.3 secs

     Computing kpt #:   553  of  1401
     total cpu time spent up to now is      274.7 secs

     Computing kpt #:   554  of  1401
     total cpu time spent up to now is      275.2 secs

     Computing kpt #:   555  of  1401
     total cpu time spent up to now is      275.6 secs

     Computing kpt #:   556  of  1401
     total cpu time spent up to now is      276.0 secs

     Computing kpt #:   557  of  1401
     total cpu time spent up to now is      276.5 secs

     Computing kpt #:   558  of  1401
     total cpu time spent up to now is      276.9 secs

     Computing kpt #:   559  of  1401
     total cpu time spent up to now is      277.3 secs

     Computing kpt #:   560  of  1401
     total cpu time spent up to now is      277.7 secs

     Computing kpt #:   561  of  1401
     total cpu time spent up to now is      278.2 secs

     Computing kpt #:   562  of  1401
     total cpu time spent up to now is      278.7 secs

     Computing kpt #:   563  of  1401
     total cpu time spent up to now is      279.3 secs

     Computing kpt #:   564  of  1401
     total cpu time spent up to now is      279.7 secs

     Computing kpt #:   565  of  1401
     total cpu time spent up to now is      280.3 secs

     Computing kpt #:   566  of  1401
     total cpu time spent up to now is      280.7 secs

     Computing kpt #:   567  of  1401
     total cpu time spent up to now is      281.2 secs

     Computing kpt #:   568  of  1401
     total cpu time spent up to now is      281.7 secs

     Computing kpt #:   569  of  1401
     total cpu time spent up to now is      282.2 secs

     Computing kpt #:   570  of  1401
     total cpu time spent up to now is      282.6 secs

     Computing kpt #:   571  of  1401
     total cpu time spent up to now is      283.1 secs

     Computing kpt #:   572  of  1401
     total cpu time spent up to now is      283.6 secs

     Computing kpt #:   573  of  1401
     total cpu time spent up to now is      284.0 secs

     Computing kpt #:   574  of  1401
     total cpu time spent up to now is      284.5 secs

     Computing kpt #:   575  of  1401
     total cpu time spent up to now is      285.0 secs

     Computing kpt #:   576  of  1401
     total cpu time spent up to now is      285.5 secs

     Computing kpt #:   577  of  1401
     total cpu time spent up to now is      285.9 secs

     Computing kpt #:   578  of  1401
     total cpu time spent up to now is      286.3 secs

     Computing kpt #:   579  of  1401
     total cpu time spent up to now is      286.7 secs

     Computing kpt #:   580  of  1401
     total cpu time spent up to now is      287.2 secs

     Computing kpt #:   581  of  1401
     total cpu time spent up to now is      287.8 secs

     Computing kpt #:   582  of  1401
     total cpu time spent up to now is      288.3 secs

     Computing kpt #:   583  of  1401
     total cpu time spent up to now is      288.7 secs

     Computing kpt #:   584  of  1401
     total cpu time spent up to now is      289.2 secs

     Computing kpt #:   585  of  1401
     total cpu time spent up to now is      289.9 secs

     Computing kpt #:   586  of  1401
     total cpu time spent up to now is      290.3 secs

     Computing kpt #:   587  of  1401
     total cpu time spent up to now is      290.8 secs

     Computing kpt #:   588  of  1401
     total cpu time spent up to now is      291.3 secs

     Computing kpt #:   589  of  1401
     total cpu time spent up to now is      291.8 secs

     Computing kpt #:   590  of  1401
     total cpu time spent up to now is      292.2 secs

     Computing kpt #:   591  of  1401
     total cpu time spent up to now is      292.7 secs

     Computing kpt #:   592  of  1401
     total cpu time spent up to now is      293.1 secs

     Computing kpt #:   593  of  1401
     total cpu time spent up to now is      293.5 secs

     Computing kpt #:   594  of  1401
     total cpu time spent up to now is      294.0 secs

     Computing kpt #:   595  of  1401
     total cpu time spent up to now is      294.5 secs

     Computing kpt #:   596  of  1401
     total cpu time spent up to now is      295.0 secs

     Computing kpt #:   597  of  1401
     total cpu time spent up to now is      295.4 secs

     Computing kpt #:   598  of  1401
     total cpu time spent up to now is      296.0 secs

     Computing kpt #:   599  of  1401
     total cpu time spent up to now is      296.4 secs

     Computing kpt #:   600  of  1401
     total cpu time spent up to now is      296.9 secs

     Computing kpt #:   601  of  1401
     total cpu time spent up to now is      297.3 secs

     Computing kpt #:   602  of  1401
     total cpu time spent up to now is      297.7 secs

     Computing kpt #:   603  of  1401
     total cpu time spent up to now is      298.3 secs

     Computing kpt #:   604  of  1401
     total cpu time spent up to now is      298.7 secs

     Computing kpt #:   605  of  1401
     total cpu time spent up to now is      299.3 secs

     Computing kpt #:   606  of  1401
     total cpu time spent up to now is      299.7 secs

     Computing kpt #:   607  of  1401
     total cpu time spent up to now is      300.3 secs

     Computing kpt #:   608  of  1401
     total cpu time spent up to now is      300.8 secs

     Computing kpt #:   609  of  1401
     total cpu time spent up to now is      301.4 secs

     Computing kpt #:   610  of  1401
     total cpu time spent up to now is      301.9 secs

     Computing kpt #:   611  of  1401
     total cpu time spent up to now is      302.4 secs

     Computing kpt #:   612  of  1401
     total cpu time spent up to now is      302.8 secs

     Computing kpt #:   613  of  1401
     total cpu time spent up to now is      303.3 secs

     Computing kpt #:   614  of  1401
     total cpu time spent up to now is      303.7 secs

     Computing kpt #:   615  of  1401
     total cpu time spent up to now is      304.3 secs

     Computing kpt #:   616  of  1401
     total cpu time spent up to now is      304.8 secs

     Computing kpt #:   617  of  1401
     total cpu time spent up to now is      305.2 secs

     Computing kpt #:   618  of  1401
     total cpu time spent up to now is      305.7 secs

     Computing kpt #:   619  of  1401
     total cpu time spent up to now is      306.1 secs

     Computing kpt #:   620  of  1401
     total cpu time spent up to now is      306.6 secs

     Computing kpt #:   621  of  1401
     total cpu time spent up to now is      307.1 secs

     Computing kpt #:   622  of  1401
     total cpu time spent up to now is      307.7 secs

     Computing kpt #:   623  of  1401
     total cpu time spent up to now is      308.1 secs

     Computing kpt #:   624  of  1401
     total cpu time spent up to now is      308.6 secs

     Computing kpt #:   625  of  1401
     total cpu time spent up to now is      309.1 secs

     Computing kpt #:   626  of  1401
     total cpu time spent up to now is      309.5 secs

     Computing kpt #:   627  of  1401
     total cpu time spent up to now is      310.0 secs

     Computing kpt #:   628  of  1401
     total cpu time spent up to now is      310.4 secs

     Computing kpt #:   629  of  1401
     total cpu time spent up to now is      310.9 secs

     Computing kpt #:   630  of  1401
     total cpu time spent up to now is      311.3 secs

     Computing kpt #:   631  of  1401
     total cpu time spent up to now is      311.8 secs

     Computing kpt #:   632  of  1401
     total cpu time spent up to now is      312.4 secs

     Computing kpt #:   633  of  1401
     total cpu time spent up to now is      312.9 secs

     Computing kpt #:   634  of  1401
     total cpu time spent up to now is      313.4 secs

     Computing kpt #:   635  of  1401
     total cpu time spent up to now is      313.8 secs

     Computing kpt #:   636  of  1401
     total cpu time spent up to now is      314.3 secs

     Computing kpt #:   637  of  1401
     total cpu time spent up to now is      314.9 secs

     Computing kpt #:   638  of  1401
     total cpu time spent up to now is      315.3 secs

     Computing kpt #:   639  of  1401
     total cpu time spent up to now is      315.7 secs

     Computing kpt #:   640  of  1401
     total cpu time spent up to now is      316.2 secs

     Computing kpt #:   641  of  1401
     total cpu time spent up to now is      316.7 secs

     Computing kpt #:   642  of  1401
     total cpu time spent up to now is      317.1 secs

     Computing kpt #:   643  of  1401
     total cpu time spent up to now is      317.6 secs

     Computing kpt #:   644  of  1401
     total cpu time spent up to now is      318.1 secs

     Computing kpt #:   645  of  1401
     total cpu time spent up to now is      318.5 secs

     Computing kpt #:   646  of  1401
     total cpu time spent up to now is      319.0 secs

     Computing kpt #:   647  of  1401
     total cpu time spent up to now is      319.5 secs

     Computing kpt #:   648  of  1401
     total cpu time spent up to now is      320.0 secs

     Computing kpt #:   649  of  1401
     total cpu time spent up to now is      320.5 secs

     Computing kpt #:   650  of  1401
     total cpu time spent up to now is      321.0 secs

     Computing kpt #:   651  of  1401
     total cpu time spent up to now is      321.5 secs

     Computing kpt #:   652  of  1401
     total cpu time spent up to now is      322.0 secs

     Computing kpt #:   653  of  1401
     total cpu time spent up to now is      322.5 secs

     Computing kpt #:   654  of  1401
     total cpu time spent up to now is      322.9 secs

     Computing kpt #:   655  of  1401
     total cpu time spent up to now is      323.4 secs

     Computing kpt #:   656  of  1401
     total cpu time spent up to now is      323.8 secs

     Computing kpt #:   657  of  1401
     total cpu time spent up to now is      324.3 secs

     Computing kpt #:   658  of  1401
     total cpu time spent up to now is      324.8 secs

     Computing kpt #:   659  of  1401
     total cpu time spent up to now is      325.2 secs

     Computing kpt #:   660  of  1401
     total cpu time spent up to now is      325.8 secs

     Computing kpt #:   661  of  1401
     total cpu time spent up to now is      326.3 secs

     Computing kpt #:   662  of  1401
     total cpu time spent up to now is      326.7 secs

     Computing kpt #:   663  of  1401
     total cpu time spent up to now is      327.2 secs

     Computing kpt #:   664  of  1401
     total cpu time spent up to now is      327.6 secs

     Computing kpt #:   665  of  1401
     total cpu time spent up to now is      328.1 secs

     Computing kpt #:   666  of  1401
     total cpu time spent up to now is      328.6 secs

     Computing kpt #:   667  of  1401
     total cpu time spent up to now is      329.0 secs

     Computing kpt #:   668  of  1401
     total cpu time spent up to now is      329.4 secs

     Computing kpt #:   669  of  1401
     total cpu time spent up to now is      329.8 secs

     Computing kpt #:   670  of  1401
     total cpu time spent up to now is      330.4 secs

     Computing kpt #:   671  of  1401
     total cpu time spent up to now is      331.0 secs

     Computing kpt #:   672  of  1401
     total cpu time spent up to now is      331.6 secs

     Computing kpt #:   673  of  1401
     total cpu time spent up to now is      332.2 secs

     Computing kpt #:   674  of  1401
     total cpu time spent up to now is      332.6 secs

     Computing kpt #:   675  of  1401
     total cpu time spent up to now is      333.0 secs

     Computing kpt #:   676  of  1401
     total cpu time spent up to now is      333.5 secs

     Computing kpt #:   677  of  1401
     total cpu time spent up to now is      334.0 secs

     Computing kpt #:   678  of  1401
     total cpu time spent up to now is      334.3 secs

     Computing kpt #:   679  of  1401
     total cpu time spent up to now is      334.8 secs

     Computing kpt #:   680  of  1401
     total cpu time spent up to now is      335.3 secs

     Computing kpt #:   681  of  1401
     total cpu time spent up to now is      335.8 secs

     Computing kpt #:   682  of  1401
     total cpu time spent up to now is      336.2 secs

     Computing kpt #:   683  of  1401
     total cpu time spent up to now is      336.6 secs

     Computing kpt #:   684  of  1401
     total cpu time spent up to now is      337.0 secs

     Computing kpt #:   685  of  1401
     total cpu time spent up to now is      337.5 secs

     Computing kpt #:   686  of  1401
     total cpu time spent up to now is      338.0 secs

     Computing kpt #:   687  of  1401
     total cpu time spent up to now is      338.3 secs

     Computing kpt #:   688  of  1401
     total cpu time spent up to now is      338.8 secs

     Computing kpt #:   689  of  1401
     total cpu time spent up to now is      339.2 secs

     Computing kpt #:   690  of  1401
     total cpu time spent up to now is      339.7 secs

     Computing kpt #:   691  of  1401
     total cpu time spent up to now is      340.1 secs

     Computing kpt #:   692  of  1401
     total cpu time spent up to now is      340.6 secs

     Computing kpt #:   693  of  1401
     total cpu time spent up to now is      341.0 secs

     Computing kpt #:   694  of  1401
     total cpu time spent up to now is      341.5 secs

     Computing kpt #:   695  of  1401
     total cpu time spent up to now is      341.9 secs

     Computing kpt #:   696  of  1401
     total cpu time spent up to now is      342.3 secs

     Computing kpt #:   697  of  1401
     total cpu time spent up to now is      342.8 secs

     Computing kpt #:   698  of  1401
     total cpu time spent up to now is      343.3 secs

     Computing kpt #:   699  of  1401
     total cpu time spent up to now is      343.7 secs

     Computing kpt #:   700  of  1401
     total cpu time spent up to now is      344.2 secs

     Computing kpt #:   701  of  1401
     total cpu time spent up to now is      344.7 secs

     Computing kpt #:   702  of  1401
     total cpu time spent up to now is      345.2 secs

     Computing kpt #:   703  of  1401
     total cpu time spent up to now is      345.6 secs

     Computing kpt #:   704  of  1401
     total cpu time spent up to now is      346.1 secs

     Computing kpt #:   705  of  1401
     total cpu time spent up to now is      346.5 secs

     Computing kpt #:   706  of  1401
     total cpu time spent up to now is      347.0 secs

     Computing kpt #:   707  of  1401
     total cpu time spent up to now is      347.4 secs

     Computing kpt #:   708  of  1401
     total cpu time spent up to now is      347.9 secs

     Computing kpt #:   709  of  1401
     total cpu time spent up to now is      348.4 secs

     Computing kpt #:   710  of  1401
     total cpu time spent up to now is      349.0 secs

     Computing kpt #:   711  of  1401
     total cpu time spent up to now is      349.5 secs

     Computing kpt #:   712  of  1401
     total cpu time spent up to now is      349.9 secs

     Computing kpt #:   713  of  1401
     total cpu time spent up to now is      350.4 secs

     Computing kpt #:   714  of  1401
     total cpu time spent up to now is      350.8 secs

     Computing kpt #:   715  of  1401
     total cpu time spent up to now is      351.3 secs

     Computing kpt #:   716  of  1401
     total cpu time spent up to now is      351.7 secs

     Computing kpt #:   717  of  1401
     total cpu time spent up to now is      352.2 secs

     Computing kpt #:   718  of  1401
     total cpu time spent up to now is      352.7 secs

     Computing kpt #:   719  of  1401
     total cpu time spent up to now is      353.3 secs

     Computing kpt #:   720  of  1401
     total cpu time spent up to now is      353.7 secs

     Computing kpt #:   721  of  1401
     total cpu time spent up to now is      354.3 secs

     Computing kpt #:   722  of  1401
     total cpu time spent up to now is      354.8 secs

     Computing kpt #:   723  of  1401
     total cpu time spent up to now is      355.3 secs

     Computing kpt #:   724  of  1401
     total cpu time spent up to now is      355.8 secs

     Computing kpt #:   725  of  1401
     total cpu time spent up to now is      356.2 secs

     Computing kpt #:   726  of  1401
     total cpu time spent up to now is      356.7 secs

     Computing kpt #:   727  of  1401
     total cpu time spent up to now is      357.2 secs

     Computing kpt #:   728  of  1401
     total cpu time spent up to now is      357.8 secs

     Computing kpt #:   729  of  1401
     total cpu time spent up to now is      358.3 secs

     Computing kpt #:   730  of  1401
     total cpu time spent up to now is      358.8 secs

     Computing kpt #:   731  of  1401
     total cpu time spent up to now is      359.3 secs

     Computing kpt #:   732  of  1401
     total cpu time spent up to now is      360.0 secs

     Computing kpt #:   733  of  1401
     total cpu time spent up to now is      360.5 secs

     Computing kpt #:   734  of  1401
     total cpu time spent up to now is      360.9 secs

     Computing kpt #:   735  of  1401
     total cpu time spent up to now is      361.4 secs

     Computing kpt #:   736  of  1401
     total cpu time spent up to now is      362.0 secs

     Computing kpt #:   737  of  1401
     total cpu time spent up to now is      362.5 secs

     Computing kpt #:   738  of  1401
     total cpu time spent up to now is      362.9 secs

     Computing kpt #:   739  of  1401
     total cpu time spent up to now is      363.4 secs

     Computing kpt #:   740  of  1401
     total cpu time spent up to now is      363.8 secs

     Computing kpt #:   741  of  1401
     total cpu time spent up to now is      364.3 secs

     Computing kpt #:   742  of  1401
     total cpu time spent up to now is      364.8 secs

     Computing kpt #:   743  of  1401
     total cpu time spent up to now is      365.3 secs

     Computing kpt #:   744  of  1401
     total cpu time spent up to now is      365.7 secs

     Computing kpt #:   745  of  1401
     total cpu time spent up to now is      366.2 secs

     Computing kpt #:   746  of  1401
     total cpu time spent up to now is      366.7 secs

     Computing kpt #:   747  of  1401
     total cpu time spent up to now is      367.1 secs

     Computing kpt #:   748  of  1401
     total cpu time spent up to now is      367.6 secs

     Computing kpt #:   749  of  1401
     total cpu time spent up to now is      368.2 secs

     Computing kpt #:   750  of  1401
     total cpu time spent up to now is      368.7 secs

     Computing kpt #:   751  of  1401
     total cpu time spent up to now is      369.2 secs

     Computing kpt #:   752  of  1401
     total cpu time spent up to now is      369.6 secs

     Computing kpt #:   753  of  1401
     total cpu time spent up to now is      370.1 secs

     Computing kpt #:   754  of  1401
     total cpu time spent up to now is      370.7 secs

     Computing kpt #:   755  of  1401
     total cpu time spent up to now is      371.1 secs

     Computing kpt #:   756  of  1401
     total cpu time spent up to now is      371.6 secs

     Computing kpt #:   757  of  1401
     total cpu time spent up to now is      372.1 secs

     Computing kpt #:   758  of  1401
     total cpu time spent up to now is      372.6 secs

     Computing kpt #:   759  of  1401
     total cpu time spent up to now is      373.2 secs

     Computing kpt #:   760  of  1401
     total cpu time spent up to now is      373.6 secs

     Computing kpt #:   761  of  1401
     total cpu time spent up to now is      374.1 secs

     Computing kpt #:   762  of  1401
     total cpu time spent up to now is      374.6 secs

     Computing kpt #:   763  of  1401
     total cpu time spent up to now is      375.1 secs

     Computing kpt #:   764  of  1401
     total cpu time spent up to now is      375.6 secs

     Computing kpt #:   765  of  1401
     total cpu time spent up to now is      376.1 secs

     Computing kpt #:   766  of  1401
     total cpu time spent up to now is      376.6 secs

     Computing kpt #:   767  of  1401
     total cpu time spent up to now is      377.1 secs

     Computing kpt #:   768  of  1401
     total cpu time spent up to now is      377.7 secs

     Computing kpt #:   769  of  1401
     total cpu time spent up to now is      378.3 secs

     Computing kpt #:   770  of  1401
     total cpu time spent up to now is      378.8 secs

     Computing kpt #:   771  of  1401
     total cpu time spent up to now is      379.4 secs

     Computing kpt #:   772  of  1401
     total cpu time spent up to now is      379.9 secs

     Computing kpt #:   773  of  1401
     total cpu time spent up to now is      380.5 secs

     Computing kpt #:   774  of  1401
     total cpu time spent up to now is      381.1 secs

     Computing kpt #:   775  of  1401
     total cpu time spent up to now is      381.7 secs

     Computing kpt #:   776  of  1401
     total cpu time spent up to now is      382.2 secs

     Computing kpt #:   777  of  1401
     total cpu time spent up to now is      382.8 secs

     Computing kpt #:   778  of  1401
     total cpu time spent up to now is      383.4 secs

     Computing kpt #:   779  of  1401
     c_bands:  1 eigenvalues not converged
     total cpu time spent up to now is      384.0 secs

     Computing kpt #:   780  of  1401
     total cpu time spent up to now is      384.6 secs

     Computing kpt #:   781  of  1401
     total cpu time spent up to now is      385.2 secs

     Computing kpt #:   782  of  1401
     c_bands:  3 eigenvalues not converged
     total cpu time spent up to now is      386.0 secs

     Computing kpt #:   783  of  1401
     c_bands:  2 eigenvalues not converged
     total cpu time spent up to now is      386.6 secs

     Computing kpt #:   784  of  1401
     total cpu time spent up to now is      387.2 secs

     Computing kpt #:   785  of  1401
     c_bands:  1 eigenvalues not converged
     total cpu time spent up to now is      387.8 secs

     Computing kpt #:   786  of  1401
     c_bands:  2 eigenvalues not converged
     total cpu time spent up to now is      388.5 secs

     Computing kpt #:   787  of  1401
     c_bands:  1 eigenvalues not converged
     total cpu time spent up to now is      389.2 secs

     Computing kpt #:   788  of  1401
     total cpu time spent up to now is      389.8 secs

     Computing kpt #:   789  of  1401
     c_bands:  3 eigenvalues not converged
     total cpu time spent up to now is      390.6 secs

     Computing kpt #:   790  of  1401
     c_bands:  1 eigenvalues not converged
     total cpu time spent up to now is      391.3 secs

     Computing kpt #:   791  of  1401
     c_bands:  1 eigenvalues not converged
     total cpu time spent up to now is      392.1 secs

     Computing kpt #:   792  of  1401
     c_bands:  1 eigenvalues not converged
     total cpu time spent up to now is      392.9 secs

     Computing kpt #:   793  of  1401
     c_bands:  3 eigenvalues not converged
     total cpu time spent up to now is      393.6 secs

     Computing kpt #:   794  of  1401
     c_bands:  1 eigenvalues not converged
     total cpu time spent up to now is      394.2 secs

     Computing kpt #:   795  of  1401
     c_bands:  1 eigenvalues not converged
     total cpu time spent up to now is      394.9 secs

     Computing kpt #:   796  of  1401
     c_bands:  2 eigenvalues not converged
     total cpu time spent up to now is      395.5 secs

     Computing kpt #:   797  of  1401
     c_bands:  2 eigenvalues not converged
     total cpu time spent up to now is      396.2 secs

     Computing kpt #:   798  of  1401
     c_bands:  3 eigenvalues not converged
     total cpu time spent up to now is      396.9 secs

     Computing kpt #:   799  of  1401
     c_bands:  1 eigenvalues not converged
     total cpu time spent up to now is      397.6 secs

     Computing kpt #:   800  of  1401
     c_bands:  3 eigenvalues not converged
     total cpu time spent up to now is      398.4 secs

     Computing kpt #:   801  of  1401
     total cpu time spent up to now is      399.0 secs

     Computing kpt #:   802  of  1401
     c_bands:  2 eigenvalues not converged
     total cpu time spent up to now is      399.8 secs

     Computing kpt #:   803  of  1401
     c_bands:  2 eigenvalues not converged
     total cpu time spent up to now is      400.5 secs

     Computing kpt #:   804  of  1401
     c_bands:  2 eigenvalues not converged
     total cpu time spent up to now is      401.2 secs

     Computing kpt #:   805  of  1401
     c_bands:  2 eigenvalues not converged
     total cpu time spent up to now is      402.0 secs

     Computing kpt #:   806  of  1401
     c_bands:  2 eigenvalues not converged
     total cpu time spent up to now is      402.9 secs

     Computing kpt #:   807  of  1401
     c_bands:  2 eigenvalues not converged
     total cpu time spent up to now is      403.7 secs

     Computing kpt #:   808  of  1401
     c_bands:  2 eigenvalues not converged
     total cpu time spent up to now is      404.3 secs

     Computing kpt #:   809  of  1401
     c_bands:  2 eigenvalues not converged
     total cpu time spent up to now is      405.1 secs

     Computing kpt #:   810  of  1401
     c_bands:  2 eigenvalues not converged
     total cpu time spent up to now is      405.7 secs

     Computing kpt #:   811  of  1401
     c_bands:  2 eigenvalues not converged
     total cpu time spent up to now is      406.3 secs

     Computing kpt #:   812  of  1401
     c_bands:  2 eigenvalues not converged
     total cpu time spent up to now is      407.0 secs

     Computing kpt #:   813  of  1401
     c_bands:  2 eigenvalues not converged
     total cpu time spent up to now is      407.5 secs

     Computing kpt #:   814  of  1401
     c_bands:  1 eigenvalues not converged
     total cpu time spent up to now is      408.1 secs

     Computing kpt #:   815  of  1401
     total cpu time spent up to now is      408.8 secs

     Computing kpt #:   816  of  1401
     c_bands:  1 eigenvalues not converged
     total cpu time spent up to now is      409.4 secs

     Computing kpt #:   817  of  1401
     c_bands:  1 eigenvalues not converged
     total cpu time spent up to now is      410.1 secs

     Computing kpt #:   818  of  1401
     c_bands:  1 eigenvalues not converged
     total cpu time spent up to now is      410.7 secs

     Computing kpt #:   819  of  1401
     total cpu time spent up to now is      411.4 secs

     Computing kpt #:   820  of  1401
     c_bands:  1 eigenvalues not converged
     total cpu time spent up to now is      412.0 secs

     Computing kpt #:   821  of  1401
     total cpu time spent up to now is      412.6 secs

     Computing kpt #:   822  of  1401
     total cpu time spent up to now is      413.1 secs

     Computing kpt #:   823  of  1401
     total cpu time spent up to now is      413.7 secs

     Computing kpt #:   824  of  1401
     total cpu time spent up to now is      414.3 secs

     Computing kpt #:   825  of  1401
     total cpu time spent up to now is      414.8 secs

     Computing kpt #:   826  of  1401
     total cpu time spent up to now is      415.4 secs

     Computing kpt #:   827  of  1401
     total cpu time spent up to now is      415.9 secs

     Computing kpt #:   828  of  1401
     total cpu time spent up to now is      416.4 secs

     Computing kpt #:   829  of  1401
     total cpu time spent up to now is      417.0 secs

     Computing kpt #:   830  of  1401
     total cpu time spent up to now is      417.4 secs

     Computing kpt #:   831  of  1401
     total cpu time spent up to now is      418.0 secs

     Computing kpt #:   832  of  1401
     total cpu time spent up to now is      418.4 secs

     Computing kpt #:   833  of  1401
     total cpu time spent up to now is      418.9 secs

     Computing kpt #:   834  of  1401
     total cpu time spent up to now is      419.5 secs

     Computing kpt #:   835  of  1401
     total cpu time spent up to now is      420.0 secs

     Computing kpt #:   836  of  1401
     total cpu time spent up to now is      420.6 secs

     Computing kpt #:   837  of  1401
     total cpu time spent up to now is      421.1 secs

     Computing kpt #:   838  of  1401
     total cpu time spent up to now is      421.6 secs

     Computing kpt #:   839  of  1401
     total cpu time spent up to now is      422.1 secs

     Computing kpt #:   840  of  1401
     total cpu time spent up to now is      422.7 secs

     Computing kpt #:   841  of  1401
     total cpu time spent up to now is      423.3 secs

     Computing kpt #:   842  of  1401
     total cpu time spent up to now is      423.7 secs

     Computing kpt #:   843  of  1401
     total cpu time spent up to now is      424.3 secs

     Computing kpt #:   844  of  1401
     total cpu time spent up to now is      424.7 secs

     Computing kpt #:   845  of  1401
     total cpu time spent up to now is      425.2 secs

     Computing kpt #:   846  of  1401
