
     Program PWSCF v.7.5 starts on 22Sep2026 at 19:18:48 

     This program is part of the open-source Quantum ESPRESSO suite
     for quantum simulation of materials; please cite
         "P. Giannozzi et al., J. Phys.:Condens. Matter 21 395502 (2009);
         "P. Giannozzi et al., J. Phys.:Condens. Matter 29 465901 (2017);
         "P. Giannozzi et al., J. Chem. Phys. 152 154105 (2020);
          URL http://www.quantum-espresso.org", 
     in publications or presentations arising from this work. More details at
     http://www.quantum-espresso.org/quote

     Parallel version (MPI & OpenMP), running on       6 processor cores
     Number of MPI processes:                 6
     Threads/MPI process:                     1

     MPI processes distributed on     1 nodes
     1405 MiB available memory on the printing compute node when the environment starts

     Reading input from pw.in

     Current dimensions of program PWSCF are:
     Max number of different atomic species (ntypx) = 10
     Max number of k-points (npk) =  40000
     Max angular momentum in pseudopotentials (lmaxx) =  4
     file Hg.pbe-spn-rrkjus_psl.1.0.0.UPF: wavefunction(s)  5P renormalized
     file Te.pbe-n-rrkjus_psl.1.0.0.UPF: wavefunction(s)  5S renormalized
     Message from routine setup:
     using ibrav=0 with symmetry is DISCOURAGED, use correct ibrav instead

     R & G space division:  proc/nbgrp/npool/nimage =       6
     Subspace diagonalization in iterative solution of the eigenvalue problem:
     a serial algorithm will be used


     Parallelization info
     --------------------
     sticks:   dense  smooth     PW     G-vecs:    dense   smooth      PW
     Min         408     273     79                13390     7315    1142
     Max         410     274     80                13393     7319    1145
     Sum        2455    1639    475                80347    43895    6855

     Using Slab Decomposition



     bravais-lattice index     =            0
     lattice parameter (alat)  =       8.6227  a.u.
     unit-cell volume          =     453.3375 (a.u.)^3
     number of atoms/cell      =            2
     number of atomic types    =            2
     number of electrons       =        26.00
     number of Kohn-Sham states=           13
     kinetic-energy cutoff     =      80.0000  Ry
     charge density cutoff     =     480.0000  Ry
     scf convergence threshold =      1.0E-10
     mixing beta               =       0.3000
     number of iterations used =            8  plain     mixing
     Exchange-correlation= PBE
                           (   1   4   3   4   0   0   0)

     celldm(1)=   8.622745  celldm(2)=   0.000000  celldm(3)=   0.000000
     celldm(4)=   0.000000  celldm(5)=   0.000000  celldm(6)=   0.000000

     crystal axes: (cart. coord. in units of alat)
               a(1) = (   0.000000   0.707107   0.707107 )  
               a(2) = (   0.707107   0.000000   0.707107 )  
               a(3) = (   0.707107   0.707107   0.000000 )  

     reciprocal axes: (cart. coord. in units 2 pi/alat)
               b(1) = ( -0.707107  0.707107  0.707107 )  
               b(2) = (  0.707107 -0.707107  0.707107 )  
               b(3) = (  0.707107  0.707107 -0.707107 )  


     PseudoPot. # 1 for Hg read from file:
     /home/User/opencode_workspace/DFT/pseudopotentials/Hg.pbe-spn-rrkjus_psl.1.0.0.UPF
     MD5 check sum: f568566075d917e14d67c96ef6763253
     Pseudo is Ultrasoft + core correction, Zval = 20.0
     Generated using &quot;atomic&quot; code by A. Dal Corso  v.6.3
     Using radial grid of 1279 points,  6 beta functions with: 
                l(1) =   0
                l(2) =   0
                l(3) =   1
                l(4) =   1
                l(5) =   2
                l(6) =   2
     Q(r) pseudized with 0 coefficients 


     PseudoPot. # 2 for Te read from file:
     /home/User/opencode_workspace/DFT/pseudopotentials/Te.pbe-n-rrkjus_psl.1.0.0.UPF
     MD5 check sum: 203a1e86ef55f0cd9de2762a27c58f54
     Pseudo is Ultrasoft + core correction, Zval =  6.0
     Generated using &quot;atomic&quot; code by A. Dal Corso  v.6.3
     Using radial grid of 1245 points,  6 beta functions with: 
                l(1) =   0
                l(2) =   0
                l(3) =   1
                l(4) =   1
                l(5) =   2
                l(6) =   2
     Q(r) pseudized with 0 coefficients 


     atomic species   valence    mass     pseudopotential
     Hg               20.00   200.59200     Hg( 1.00)
     Te                6.00   127.60000     Te( 1.00)

     24 Sym. Ops. (no inversion) found


                                    s                        frac. trans.

      isym =  1     identity                                     

 cryst.   s( 1) = (     1          0          0      )
                  (     0          1          0      )
                  (     0          0          1      )

 cart.    s( 1) = (  1.0000000  0.0000000  0.0000000 )
                  (  0.0000000  1.0000000  0.0000000 )
                  (  0.0000000  0.0000000  1.0000000 )


      isym =  2     180 deg rotation - cart. axis [0,0,1]        

 cryst.   s( 2) = (     0          1         -1      )
                  (     1          0         -1      )
                  (     0          0         -1      )

 cart.    s( 2) = ( -1.0000000  0.0000000  0.0000000 )
                  (  0.0000000 -1.0000000  0.0000000 )
                  (  0.0000000  0.0000000  1.0000000 )


      isym =  3     180 deg rotation - cart. axis [0,1,0]        

 cryst.   s( 3) = (     0         -1          1      )
                  (     0         -1          0      )
                  (     1         -1          0      )

 cart.    s( 3) = ( -1.0000000  0.0000000  0.0000000 )
                  (  0.0000000  1.0000000  0.0000000 )
                  (  0.0000000  0.0000000 -1.0000000 )


      isym =  4     180 deg rotation - cart. axis [1,0,0]        

 cryst.   s( 4) = (    -1          0          0      )
                  (    -1          0          1      )
                  (    -1          1          0      )

 cart.    s( 4) = (  1.0000000  0.0000000  0.0000000 )
                  (  0.0000000 -1.0000000  0.0000000 )
                  (  0.0000000  0.0000000 -1.0000000 )


      isym =  5     120 deg rotation - cart. axis [-1,-1,-1]     

 cryst.   s( 5) = (     0          0          1      )
                  (     1          0          0      )
                  (     0          1          0      )

 cart.    s( 5) = (  0.0000000  1.0000000  0.0000000 )
                  (  0.0000000  0.0000000  1.0000000 )
                  (  1.0000000  0.0000000  0.0000000 )


      isym =  6     120 deg rotation - cart. axis [-1,1,1]       

 cryst.   s( 6) = (     1         -1          0      )
                  (     0         -1          1      )
                  (     0         -1          0      )

 cart.    s( 6) = (  0.0000000 -1.0000000  0.0000000 )
                  (  0.0000000  0.0000000  1.0000000 )
                  ( -1.0000000  0.0000000  0.0000000 )


      isym =  7     120 deg rotation - cart. axis [1,1,-1]       

 cryst.   s( 7) = (    -1          1          0      )
                  (    -1          0          0      )
                  (    -1          0          1      )

 cart.    s( 7) = (  0.0000000  1.0000000  0.0000000 )
                  (  0.0000000  0.0000000 -1.0000000 )
                  ( -1.0000000  0.0000000  0.0000000 )


      isym =  8     120 deg rotation - cart. axis [1,-1,1]       

 cryst.   s( 8) = (     0          0         -1      )
                  (     0          1         -1      )
                  (     1          0         -1      )

 cart.    s( 8) = (  0.0000000 -1.0000000  0.0000000 )
                  (  0.0000000  0.0000000 -1.0000000 )
                  (  1.0000000  0.0000000  0.0000000 )


      isym =  9     120 deg rotation - cart. axis [1,1,1]        

 cryst.   s( 9) = (     0          1          0      )
                  (     0          0          1      )
                  (     1          0          0      )

 cart.    s( 9) = (  0.0000000  0.0000000  1.0000000 )
                  (  1.0000000  0.0000000  0.0000000 )
                  (  0.0000000  1.0000000  0.0000000 )


      isym = 10     120 deg rotation - cart. axis [-1,1,-1]      

 cryst.   s(10) = (    -1          0          1      )
                  (    -1          1          0      )
                  (    -1          0          0      )

 cart.    s(10) = (  0.0000000  0.0000000  1.0000000 )
                  ( -1.0000000  0.0000000  0.0000000 )
                  (  0.0000000 -1.0000000  0.0000000 )


      isym = 11     120 deg rotation - cart. axis [1,-1,-1]      

 cryst.   s(11) = (     1          0         -1      )
                  (     0          0         -1      )
                  (     0          1         -1      )

 cart.    s(11) = (  0.0000000  0.0000000 -1.0000000 )
                  ( -1.0000000  0.0000000  0.0000000 )
                  (  0.0000000  1.0000000  0.0000000 )


      isym = 12     120 deg rotation - cart. axis [-1,-1,1]      

 cryst.   s(12) = (     0         -1          0      )
                  (     1         -1          0      )
                  (     0         -1          1      )

 cart.    s(12) = (  0.0000000  0.0000000 -1.0000000 )
                  (  1.0000000  0.0000000  0.0000000 )
                  (  0.0000000 -1.0000000  0.0000000 )


      isym = 13     inv. 180 deg rotation - cart. axis [1,1,0]   

 cryst.   s(13) = (     1          0         -1      )
                  (     0          1         -1      )
                  (     0          0         -1      )

 cart.    s(13) = (  0.0000000 -1.0000000  0.0000000 )
                  ( -1.0000000  0.0000000  0.0000000 )
                  (  0.0000000  0.0000000  1.0000000 )


      isym = 14     inv. 180 deg rotation - cart. axis [1,-1,0]  

 cryst.   s(14) = (     0          1          0      )
                  (     1          0          0      )
                  (     0          0          1      )

 cart.    s(14) = (  0.0000000  1.0000000  0.0000000 )
                  (  1.0000000  0.0000000  0.0000000 )
                  (  0.0000000  0.0000000  1.0000000 )


      isym = 15     inv.  90 deg rotation - cart. axis [0,0,-1]  

 cryst.   s(15) = (     0         -1          0      )
                  (     0         -1          1      )
                  (     1         -1          0      )

 cart.    s(15) = (  0.0000000 -1.0000000  0.0000000 )
                  (  1.0000000  0.0000000  0.0000000 )
                  (  0.0000000  0.0000000 -1.0000000 )


      isym = 16     inv.  90 deg rotation - cart. axis [0,0,1]   

 cryst.   s(16) = (    -1          0          1      )
                  (    -1          0          0      )
                  (    -1          1          0      )

 cart.    s(16) = (  0.0000000  1.0000000  0.0000000 )
                  ( -1.0000000  0.0000000  0.0000000 )
                  (  0.0000000  0.0000000 -1.0000000 )


      isym = 17     inv. 180 deg rotation - cart. axis [1,0,1]   

 cryst.   s(17) = (     1         -1          0      )
                  (     0         -1          0      )
                  (     0         -1          1      )

 cart.    s(17) = (  0.0000000  0.0000000 -1.0000000 )
                  (  0.0000000  1.0000000  0.0000000 )
                  ( -1.0000000  0.0000000  0.0000000 )


      isym = 18     inv. 180 deg rotation - cart. axis [-1,0,1]  

 cryst.   s(18) = (     0          0          1      )
                  (     0          1          0      )
                  (     1          0          0      )

 cart.    s(18) = (  0.0000000  0.0000000  1.0000000 )
                  (  0.0000000  1.0000000  0.0000000 )
                  (  1.0000000  0.0000000  0.0000000 )


      isym = 19     inv.  90 deg rotation - cart. axis [0,1,0]   

 cryst.   s(19) = (     0          0         -1      )
                  (     1          0         -1      )
                  (     0          1         -1      )

 cart.    s(19) = (  0.0000000  0.0000000 -1.0000000 )
                  (  0.0000000 -1.0000000  0.0000000 )
                  (  1.0000000  0.0000000  0.0000000 )


      isym = 20     inv.  90 deg rotation - cart. axis [0,-1,0]  

 cryst.   s(20) = (    -1          1          0      )
                  (    -1          0          1      )
                  (    -1          0          0      )

 cart.    s(20) = (  0.0000000  0.0000000  1.0000000 )
                  (  0.0000000 -1.0000000  0.0000000 )
                  ( -1.0000000  0.0000000  0.0000000 )


      isym = 21     inv. 180 deg rotation - cart. axis [0,1,1]   

 cryst.   s(21) = (    -1          0          0      )
                  (    -1          1          0      )
                  (    -1          0          1      )

 cart.    s(21) = (  1.0000000  0.0000000  0.0000000 )
                  (  0.0000000  0.0000000 -1.0000000 )
                  (  0.0000000 -1.0000000  0.0000000 )


      isym = 22     inv. 180 deg rotation - cart. axis [0,1,-1]  

 cryst.   s(22) = (     1          0          0      )
                  (     0          0          1      )
                  (     0          1          0      )

 cart.    s(22) = (  1.0000000  0.0000000  0.0000000 )
                  (  0.0000000  0.0000000  1.0000000 )
                  (  0.0000000  1.0000000  0.0000000 )


      isym = 23     inv.  90 deg rotation - cart. axis [-1,0,0]  

 cryst.   s(23) = (     0          1         -1      )
                  (     0          0         -1      )
                  (     1          0         -1      )

 cart.    s(23) = ( -1.0000000  0.0000000  0.0000000 )
                  (  0.0000000  0.0000000 -1.0000000 )
                  (  0.0000000  1.0000000  0.0000000 )


      isym = 24     inv.  90 deg rotation - cart. axis [1,0,0]   

 cryst.   s(24) = (     0         -1          1      )
                  (     1         -1          0      )
                  (     0         -1          0      )

 cart.    s(24) = ( -1.0000000  0.0000000  0.0000000 )
                  (  0.0000000  0.0000000  1.0000000 )
                  (  0.0000000 -1.0000000  0.0000000 )


   Cartesian axes

     site n.     atom                  positions (alat units)
         1        Hg     tau(   1) = (   0.0000000   0.0000000   0.0000000  )
         2        Te     tau(   2) = (   0.3535534   0.3535534   0.3535534  )

   Crystallographic axes

     site n.     atom                  positions (cryst. coord.)
         1        Hg     tau(   1) = (  0.0000000  0.0000000  0.0000000  )
         2        Te     tau(   2) = (  0.2500000  0.2500000  0.2500000  )

     number of k points=    72
                       cart. coord. in units 2pi/alat
        k(    1) = (   0.0000000   0.0000000   0.0000000), wk =   0.0011574
        k(    2) = (   0.0589256   0.0589256  -0.0589256), wk =   0.0092593
        k(    3) = (   0.1178511   0.1178511  -0.1178511), wk =   0.0092593
        k(    4) = (   0.1767767   0.1767767  -0.1767767), wk =   0.0092593
        k(    5) = (   0.2357023   0.2357023  -0.2357023), wk =   0.0092593
        k(    6) = (   0.2946278   0.2946278  -0.2946278), wk =   0.0092593
        k(    7) = (  -0.3535534  -0.3535534   0.3535534), wk =   0.0046296
        k(    8) = (   0.1178511   0.0000000   0.0000000), wk =   0.0069444
        k(    9) = (   0.1767767   0.0589256  -0.0589256), wk =   0.0277778
        k(   10) = (   0.2357023   0.1178511  -0.1178511), wk =   0.0277778
        k(   11) = (   0.2946278   0.1767767  -0.1767767), wk =   0.0277778
        k(   12) = (   0.3535534   0.2357023  -0.2357023), wk =   0.0277778
        k(   13) = (  -0.2946278  -0.4124790   0.4124790), wk =   0.0277778
        k(   14) = (  -0.2357023  -0.3535534   0.3535534), wk =   0.0277778
        k(   15) = (  -0.1767767  -0.2946278   0.2946278), wk =   0.0277778
        k(   16) = (  -0.1178511  -0.2357023   0.2357023), wk =   0.0277778
        k(   17) = (  -0.0589256  -0.1767767   0.1767767), wk =   0.0277778
        k(   18) = (  -0.0000000  -0.1178511   0.1178511), wk =   0.0138889
        k(   19) = (   0.2357023   0.0000000   0.0000000), wk =   0.0069444
        k(   20) = (   0.2946278   0.0589256  -0.0589256), wk =   0.0277778
        k(   21) = (   0.3535534   0.1178511  -0.1178511), wk =   0.0277778
        k(   22) = (   0.4124790   0.1767767  -0.1767767), wk =   0.0277778
        k(   23) = (  -0.2357023  -0.4714045   0.4714045), wk =   0.0277778
        k(   24) = (  -0.1767767  -0.4124790   0.4124790), wk =   0.0277778
        k(   25) = (  -0.1178511  -0.3535534   0.3535534), wk =   0.0277778
        k(   26) = (  -0.0589256  -0.2946278   0.2946278), wk =   0.0277778
        k(   27) = (   0.0000000  -0.2357023   0.2357023), wk =   0.0138889
        k(   28) = (   0.3535534   0.0000000   0.0000000), wk =   0.0069444
        k(   29) = (   0.4124790   0.0589256  -0.0589256), wk =   0.0277778
        k(   30) = (   0.4714045   0.1178511  -0.1178511), wk =   0.0277778
        k(   31) = (  -0.1767767  -0.5303301   0.5303301), wk =   0.0277778
        k(   32) = (  -0.1178511  -0.4714045   0.4714045), wk =   0.0277778
        k(   33) = (  -0.0589256  -0.4124790   0.4124790), wk =   0.0277778
        k(   34) = (   0.0000000  -0.3535534   0.3535534), wk =   0.0138889
        k(   35) = (   0.4714045   0.0000000   0.0000000), wk =   0.0069444
        k(   36) = (   0.5303301   0.0589256  -0.0589256), wk =   0.0277778
        k(   37) = (  -0.1178511  -0.5892557   0.5892557), wk =   0.0277778
        k(   38) = (  -0.0589256  -0.5303301   0.5303301), wk =   0.0277778
        k(   39) = (  -0.0000000  -0.4714045   0.4714045), wk =   0.0138889
        k(   40) = (   0.5892557   0.0000000   0.0000000), wk =   0.0069444
        k(   41) = (  -0.0589256  -0.6481812   0.6481812), wk =   0.0277778
        k(   42) = (   0.0000000  -0.5892557   0.5892557), wk =   0.0138889
        k(   43) = (  -0.7071068   0.0000000   0.0000000), wk =   0.0034722
        k(   44) = (   0.2357023   0.1178511  -0.0000000), wk =   0.0277778
        k(   45) = (   0.2946278   0.1767767  -0.0589256), wk =   0.0555556
        k(   46) = (   0.3535534   0.2357023  -0.1178511), wk =   0.0555556
        k(   47) = (  -0.2946278  -0.4124790   0.5303301), wk =   0.0555556
        k(   48) = (  -0.2357023  -0.3535534   0.4714045), wk =   0.0277778
        k(   49) = (   0.3535534   0.1178511   0.0000000), wk =   0.0277778
        k(   50) = (   0.4124790   0.1767767  -0.0589256), wk =   0.0555556
        k(   51) = (  -0.2357023  -0.4714045   0.5892557), wk =   0.0555556
        k(   52) = (  -0.1767767  -0.4124790   0.5303301), wk =   0.0555556
        k(   53) = (  -0.1178511  -0.3535534   0.4714045), wk =   0.0555556
        k(   54) = (  -0.0589256  -0.2946278   0.4124790), wk =   0.0555556
        k(   55) = (   0.0000000  -0.2357023   0.3535534), wk =   0.0277778
        k(   56) = (   0.4714045   0.1178511   0.0000000), wk =   0.0277778
        k(   57) = (  -0.1767767  -0.5303301   0.6481812), wk =   0.0555556
        k(   58) = (  -0.1178511  -0.4714045   0.5892557), wk =   0.0555556
        k(   59) = (  -0.0589256  -0.4124790   0.5303301), wk =   0.0555556
        k(   60) = (  -0.0000000  -0.3535534   0.4714045), wk =   0.0277778
        k(   61) = (  -0.1178511  -0.5892557   0.7071068), wk =   0.0277778
        k(   62) = (  -0.0589256  -0.5303301   0.6481812), wk =   0.0555556
        k(   63) = (  -0.0000000  -0.4714045   0.5892557), wk =   0.0277778
        k(   64) = (  -0.7071068   0.1178511   0.0000000), wk =   0.0138889
        k(   65) = (  -0.2357023  -0.4714045   0.7071068), wk =   0.0277778
        k(   66) = (  -0.1767767  -0.4124790   0.6481812), wk =   0.0555556
        k(   67) = (  -0.1178511  -0.3535534   0.5892557), wk =   0.0277778
        k(   68) = (  -0.1178511  -0.4714045   0.7071068), wk =   0.0277778
        k(   69) = (  -0.0589256  -0.4124790   0.6481812), wk =   0.0555556
        k(   70) = (   0.0000000  -0.3535534   0.5892557), wk =   0.0277778
        k(   71) = (  -0.7071068   0.2357023   0.0000000), wk =   0.0138889
        k(   72) = (  -0.7071068   0.3535534   0.0000000), wk =   0.0069444

                       cryst. coord.
        k(    1) = (   0.0000000   0.0000000   0.0000000), wk =   0.0011574
        k(    2) = (   0.0000000   0.0000000   0.0833333), wk =   0.0092593
        k(    3) = (   0.0000000   0.0000000   0.1666667), wk =   0.0092593
        k(    4) = (   0.0000000   0.0000000   0.2500000), wk =   0.0092593
        k(    5) = (   0.0000000   0.0000000   0.3333333), wk =   0.0092593
        k(    6) = (   0.0000000   0.0000000   0.4166667), wk =   0.0092593
        k(    7) = (   0.0000000   0.0000000  -0.5000000), wk =   0.0046296
        k(    8) = (   0.0000000   0.0833333   0.0833333), wk =   0.0069444
        k(    9) = (   0.0000000   0.0833333   0.1666667), wk =   0.0277778
        k(   10) = (   0.0000000   0.0833333   0.2500000), wk =   0.0277778
        k(   11) = (   0.0000000   0.0833333   0.3333333), wk =   0.0277778
        k(   12) = (   0.0000000   0.0833333   0.4166667), wk =   0.0277778
        k(   13) = (   0.0000000   0.0833333  -0.5000000), wk =   0.0277778
        k(   14) = (   0.0000000   0.0833333  -0.4166667), wk =   0.0277778
        k(   15) = (   0.0000000   0.0833333  -0.3333333), wk =   0.0277778
        k(   16) = (   0.0000000   0.0833333  -0.2500000), wk =   0.0277778
        k(   17) = (   0.0000000   0.0833333  -0.1666667), wk =   0.0277778
        k(   18) = (   0.0000000   0.0833333  -0.0833333), wk =   0.0138889
        k(   19) = (   0.0000000   0.1666667   0.1666667), wk =   0.0069444
        k(   20) = (   0.0000000   0.1666667   0.2500000), wk =   0.0277778
        k(   21) = (   0.0000000   0.1666667   0.3333333), wk =   0.0277778
        k(   22) = (   0.0000000   0.1666667   0.4166667), wk =   0.0277778
        k(   23) = (   0.0000000   0.1666667  -0.5000000), wk =   0.0277778
        k(   24) = (   0.0000000   0.1666667  -0.4166667), wk =   0.0277778
        k(   25) = (   0.0000000   0.1666667  -0.3333333), wk =   0.0277778
        k(   26) = (   0.0000000   0.1666667  -0.2500000), wk =   0.0277778
        k(   27) = (   0.0000000   0.1666667  -0.1666667), wk =   0.0138889
        k(   28) = (   0.0000000   0.2500000   0.2500000), wk =   0.0069444
        k(   29) = (   0.0000000   0.2500000   0.3333333), wk =   0.0277778
        k(   30) = (   0.0000000   0.2500000   0.4166667), wk =   0.0277778
        k(   31) = (   0.0000000   0.2500000  -0.5000000), wk =   0.0277778
        k(   32) = (   0.0000000   0.2500000  -0.4166667), wk =   0.0277778
        k(   33) = (   0.0000000   0.2500000  -0.3333333), wk =   0.0277778
        k(   34) = (   0.0000000   0.2500000  -0.2500000), wk =   0.0138889
        k(   35) = (   0.0000000   0.3333333   0.3333333), wk =   0.0069444
        k(   36) = (   0.0000000   0.3333333   0.4166667), wk =   0.0277778
        k(   37) = (   0.0000000   0.3333333  -0.5000000), wk =   0.0277778
        k(   38) = (   0.0000000   0.3333333  -0.4166667), wk =   0.0277778
        k(   39) = (   0.0000000   0.3333333  -0.3333333), wk =   0.0138889
        k(   40) = (   0.0000000   0.4166667   0.4166667), wk =   0.0069444
        k(   41) = (   0.0000000   0.4166667  -0.5000000), wk =   0.0277778
        k(   42) = (   0.0000000   0.4166667  -0.4166667), wk =   0.0138889
        k(   43) = (   0.0000000  -0.5000000  -0.5000000), wk =   0.0034722
        k(   44) = (   0.0833333   0.1666667   0.2500000), wk =   0.0277778
        k(   45) = (   0.0833333   0.1666667   0.3333333), wk =   0.0555556
        k(   46) = (   0.0833333   0.1666667   0.4166667), wk =   0.0555556
        k(   47) = (   0.0833333   0.1666667  -0.5000000), wk =   0.0555556
        k(   48) = (   0.0833333   0.1666667  -0.4166667), wk =   0.0277778
        k(   49) = (   0.0833333   0.2500000   0.3333333), wk =   0.0277778
        k(   50) = (   0.0833333   0.2500000   0.4166667), wk =   0.0555556
        k(   51) = (   0.0833333   0.2500000  -0.5000000), wk =   0.0555556
        k(   52) = (   0.0833333   0.2500000  -0.4166667), wk =   0.0555556
        k(   53) = (   0.0833333   0.2500000  -0.3333333), wk =   0.0555556
        k(   54) = (   0.0833333   0.2500000  -0.2500000), wk =   0.0555556
        k(   55) = (   0.0833333   0.2500000  -0.1666667), wk =   0.0277778
        k(   56) = (   0.0833333   0.3333333   0.4166667), wk =   0.0277778
        k(   57) = (   0.0833333   0.3333333  -0.5000000), wk =   0.0555556
        k(   58) = (   0.0833333   0.3333333  -0.4166667), wk =   0.0555556
        k(   59) = (   0.0833333   0.3333333  -0.3333333), wk =   0.0555556
        k(   60) = (   0.0833333   0.3333333  -0.2500000), wk =   0.0277778
        k(   61) = (   0.0833333   0.4166667  -0.5000000), wk =   0.0277778
        k(   62) = (   0.0833333   0.4166667  -0.4166667), wk =   0.0555556
        k(   63) = (   0.0833333   0.4166667  -0.3333333), wk =   0.0277778
        k(   64) = (   0.0833333  -0.5000000  -0.4166667), wk =   0.0138889
        k(   65) = (   0.1666667   0.3333333  -0.5000000), wk =   0.0277778
        k(   66) = (   0.1666667   0.3333333  -0.4166667), wk =   0.0555556
        k(   67) = (   0.1666667   0.3333333  -0.3333333), wk =   0.0277778
        k(   68) = (   0.1666667   0.4166667  -0.4166667), wk =   0.0277778
        k(   69) = (   0.1666667   0.4166667  -0.3333333), wk =   0.0555556
        k(   70) = (   0.1666667   0.4166667  -0.2500000), wk =   0.0277778
        k(   71) = (   0.1666667  -0.5000000  -0.3333333), wk =   0.0138889
        k(   72) = (   0.2500000  -0.5000000  -0.2500000), wk =   0.0069444

     Dense  grid:    80347 G-vectors     FFT dimensions: (  64,  64,  64)

     Smooth grid:    43895 G-vectors     FFT dimensions: (  50,  50,  50)

     Dynamical RAM for                 wfc:       0.18 MB

     Dynamical RAM for     wfc (w. buffer):      13.22 MB

     Dynamical RAM for           str. fact:       0.41 MB

     Dynamical RAM for           local pot:       0.00 MB

     Dynamical RAM for          nlocal pot:       0.50 MB

     Dynamical RAM for                qrad:       3.52 MB

     Dynamical RAM for          rho,v,vnew:       1.64 MB

     Dynamical RAM for               rhoin:       0.55 MB

     Dynamical RAM for            rho*nmix:       3.27 MB

     Dynamical RAM for           G-vectors:       0.82 MB

     Dynamical RAM for          h,s,v(r/c):       0.03 MB

     Dynamical RAM for          <psi|beta>:       0.01 MB

     Dynamical RAM for                 psi:       0.36 MB

     Dynamical RAM for                hpsi:       0.36 MB

     Dynamical RAM for                spsi:       0.36 MB

     Dynamical RAM for      wfcinit/wfcrot:       0.37 MB

     Dynamical RAM for           addusdens:      38.22 MB

     Estimated static dynamical RAM per process >      22.99 MB

     Estimated max dynamical RAM per process >      64.48 MB

     Estimated total dynamical RAM >     386.87 MB

     Initial potential from superposition of free atoms

     starting charge      25.9997, renormalised to      26.0000
     Starting wfcs are   14 randomized atomic wfcs

     total cpu time spent up to now is        2.1 secs

     per-process dynamical memory:    34.6 Mb

     Self-consistent Calculation

     iteration #  1     ecut=    80.00 Ry     beta= 0.30
     Davidson diagonalization with overlap

---- Real-time Memory Report at c_bands before calling an iterative solver
            99 MiB given to the printing process from OS
            33 MiB allocation reported by mallinfo(arena+hblkhd)
          1347 MiB available memory on the node where the printing process lives
------------------
     ethr =  1.00E-02,  avg # of iterations =  2.0

     Threshold (ethr) on eigenvalues was too large:
     Diagonalizing with lowered threshold

     Davidson diagonalization with overlap

---- Real-time Memory Report at c_bands before calling an iterative solver
           114 MiB given to the printing process from OS
            36 MiB allocation reported by mallinfo(arena+hblkhd)
          1128 MiB available memory on the node where the printing process lives
------------------
     ethr =  2.03E-04,  avg # of iterations =  4.1

     total cpu time spent up to now is        9.4 secs

     total energy              =    -346.19764142 Ry
     estimated scf accuracy    <       0.05244867 Ry

     iteration #  2     ecut=    80.00 Ry     beta= 0.30
     Davidson diagonalization with overlap

---- Real-time Memory Report at c_bands before calling an iterative solver
           115 MiB given to the printing process from OS
            38 MiB allocation reported by mallinfo(arena+hblkhd)
          1296 MiB available memory on the node where the printing process lives
------------------
     ethr =  2.02E-04,  avg # of iterations =  2.2

     total cpu time spent up to now is       12.1 secs

     total energy              =    -346.20282857 Ry
     estimated scf accuracy    <       0.00618660 Ry

     iteration #  3     ecut=    80.00 Ry     beta= 0.30
     Davidson diagonalization with overlap

---- Real-time Memory Report at c_bands before calling an iterative solver
           116 MiB given to the printing process from OS
            38 MiB allocation reported by mallinfo(arena+hblkhd)
          1252 MiB available memory on the node where the printing process lives
------------------
     ethr =  2.38E-05,  avg # of iterations =  2.7

     total cpu time spent up to now is       15.0 secs

     total energy              =    -346.20379569 Ry
     estimated scf accuracy    <       0.00137063 Ry

     iteration #  4     ecut=    80.00 Ry     beta= 0.30
     Davidson diagonalization with overlap

---- Real-time Memory Report at c_bands before calling an iterative solver
           116 MiB given to the printing process from OS
            38 MiB allocation reported by mallinfo(arena+hblkhd)
          1273 MiB available memory on the node where the printing process lives
------------------
     ethr =  5.27E-06,  avg # of iterations =  2.0

     total cpu time spent up to now is       16.9 secs

     total energy              =    -346.20390946 Ry
     estimated scf accuracy    <       0.00008737 Ry

     iteration #  5     ecut=    80.00 Ry     beta= 0.30
     Davidson diagonalization with overlap

---- Real-time Memory Report at c_bands before calling an iterative solver
           116 MiB given to the printing process from OS
            38 MiB allocation reported by mallinfo(arena+hblkhd)
          1267 MiB available memory on the node where the printing process lives
------------------
     ethr =  3.36E-07,  avg # of iterations =  3.5

     total cpu time spent up to now is       19.3 secs

     total energy              =    -346.20392502 Ry
     estimated scf accuracy    <       0.00001150 Ry

     iteration #  6     ecut=    80.00 Ry     beta= 0.30
     Davidson diagonalization with overlap

---- Real-time Memory Report at c_bands before calling an iterative solver
           116 MiB given to the printing process from OS
            39 MiB allocation reported by mallinfo(arena+hblkhd)
          1330 MiB available memory on the node where the printing process lives
------------------
     ethr =  4.42E-08,  avg # of iterations =  3.9

     total cpu time spent up to now is       22.2 secs

     total energy              =    -346.20392816 Ry
     estimated scf accuracy    <       0.00000201 Ry

     iteration #  7     ecut=    80.00 Ry     beta= 0.30
     Davidson diagonalization with overlap

---- Real-time Memory Report at c_bands before calling an iterative solver
           117 MiB given to the printing process from OS
            39 MiB allocation reported by mallinfo(arena+hblkhd)
          1259 MiB available memory on the node where the printing process lives
------------------
     ethr =  7.73E-09,  avg # of iterations =  2.2

     total cpu time spent up to now is       24.9 secs

     total energy              =    -346.20392849 Ry
     estimated scf accuracy    <       0.00000129 Ry

     iteration #  8     ecut=    80.00 Ry     beta= 0.30
     Davidson diagonalization with overlap

---- Real-time Memory Report at c_bands before calling an iterative solver
           117 MiB given to the printing process from OS
            39 MiB allocation reported by mallinfo(arena+hblkhd)
          1267 MiB available memory on the node where the printing process lives
------------------
     ethr =  4.97E-09,  avg # of iterations =  2.1

     total cpu time spent up to now is       27.4 secs

     total energy              =    -346.20392876 Ry
     estimated scf accuracy    <       0.00000002 Ry

     iteration #  9     ecut=    80.00 Ry     beta= 0.30
     Davidson diagonalization with overlap

---- Real-time Memory Report at c_bands before calling an iterative solver
           117 MiB given to the printing process from OS
            39 MiB allocation reported by mallinfo(arena+hblkhd)
          1247 MiB available memory on the node where the printing process lives
------------------
     ethr =  7.39E-11,  avg # of iterations =  5.5

     total cpu time spent up to now is       31.1 secs

     total energy              =    -346.20392878 Ry
     estimated scf accuracy    <       0.00000002 Ry

     iteration # 10     ecut=    80.00 Ry     beta= 0.30
     Davidson diagonalization with overlap

---- Real-time Memory Report at c_bands before calling an iterative solver
           117 MiB given to the printing process from OS
            40 MiB allocation reported by mallinfo(arena+hblkhd)
          1257 MiB available memory on the node where the printing process lives
------------------
     ethr =  7.39E-11,  avg # of iterations =  4.0

     total cpu time spent up to now is       33.6 secs

     total energy              =    -346.20392878 Ry
     estimated scf accuracy    <          4.4E-09 Ry

     iteration # 11     ecut=    80.00 Ry     beta= 0.30
     Davidson diagonalization with overlap

---- Real-time Memory Report at c_bands before calling an iterative solver
           117 MiB given to the printing process from OS
            40 MiB allocation reported by mallinfo(arena+hblkhd)
          1278 MiB available memory on the node where the printing process lives
------------------
     ethr =  1.71E-11,  avg # of iterations =  4.0

     total cpu time spent up to now is       36.1 secs

     total energy              =    -346.20392879 Ry
     estimated scf accuracy    <          2.1E-09 Ry

     iteration # 12     ecut=    80.00 Ry     beta= 0.30
     Davidson diagonalization with overlap

---- Real-time Memory Report at c_bands before calling an iterative solver
           117 MiB given to the printing process from OS
            40 MiB allocation reported by mallinfo(arena+hblkhd)
          1290 MiB available memory on the node where the printing process lives
------------------
     ethr =  7.94E-12,  avg # of iterations =  2.0

     total cpu time spent up to now is       38.0 secs

     total energy              =    -346.20392879 Ry
     estimated scf accuracy    <          3.5E-10 Ry

     iteration # 13     ecut=    80.00 Ry     beta= 0.30
     Davidson diagonalization with overlap

---- Real-time Memory Report at c_bands before calling an iterative solver
           117 MiB given to the printing process from OS
            40 MiB allocation reported by mallinfo(arena+hblkhd)
          1246 MiB available memory on the node where the printing process lives
------------------
     ethr =  1.35E-12,  avg # of iterations =  2.9

     total cpu time spent up to now is       40.0 secs

     End of self-consistent calculation

          k = 0.0000 0.0000 0.0000 (  5577 PWs)   bands (ev):

  -107.6601 -55.9878 -55.9878 -55.9878  -4.5639   0.0905   0.0905   0.0905
     0.6271   0.6271   6.7453   7.4603   7.4603

     occupation numbers 
     1.0000   1.0000   1.0000   1.0000   1.0000   1.0000   1.0000   1.0000
     1.0000   1.0000   1.0000   1.0000   1.0000

          k = 0.0589 0.0589-0.0589 (  5513 PWs)   bands (ev):

  -107.6601 -55.9877 -55.9877 -55.9877  -4.5285   0.1005   0.1005   0.1023
     0.6260   0.6260   6.0981   7.3774   7.3774

     occupation numbers 
     1.0000   1.0000   1.0000   1.0000   1.0000   1.0000   1.0000   1.0000
     1.0000   1.0000   1.0000   1.0000   1.0000

          k = 0.1179 0.1179-0.1179 (  5486 PWs)   bands (ev):

  -107.6600 -55.9877 -55.9877 -55.9877  -4.4292   0.1271   0.1271   0.1469
     0.6246   0.6246   5.1041   7.1679   7.1679

     occupation numbers 
     1.0000   1.0000   1.0000   1.0000   1.0000   1.0000   1.0000   1.0000
     1.0000   1.0000   1.0000   1.0000   1.0000

          k = 0.1768 0.1768-0.1768 (  5477 PWs)   bands (ev):

  -107.6600 -55.9877 -55.9877 -55.9877  -4.2879   0.1609   0.1609   0.2490
     0.6268   0.6268   4.0796   6.9117   6.9117

     occupation numbers 
     1.0000   1.0000   1.0000   1.0000   1.0000   1.0000   1.0000   1.0000
     1.0000   1.0000   1.0000   1.0000   1.0000

          k = 0.2357 0.2357-0.2357 (  5480 PWs)   bands (ev):

  -107.6600 -55.9878 -55.9877 -55.9877  -4.1396   0.1907   0.1907   0.4394
     0.6350   0.6350   3.1232   6.6796   6.6796

     occupation numbers 
     1.0000   1.0000   1.0000   1.0000   1.0000   1.0000   1.0000   1.0000
     1.0000   1.0000   1.0000   1.0000   1.0000

          k = 0.2946 0.2946-0.2946 (  5480 PWs)   bands (ev):

  -107.6600 -55.9879 -55.9877 -55.9877  -4.0263   0.2092   0.2092   0.6456
     0.6456   0.7258   2.3300   6.5208   6.5208

     occupation numbers 
     1.0000   1.0000   1.0000   1.0000   1.0000   1.0000   1.0000   1.0000
     1.0000   1.0000   1.0000   1.0000   1.0000

          k =-0.3536-0.3536 0.3536 (  5480 PWs)   bands (ev):

  -107.6600 -55.9879 -55.9877 -55.9877  -3.9838   0.2153   0.2153   0.6505
     0.6505   0.9382   1.9403   6.4646   6.4646

     occupation numbers 
     1.0000   1.0000   1.0000   1.0000   1.0000   1.0000   1.0000   1.0000
     1.0000   1.0000   1.0000   1.0000   1.0000

          k = 0.1179 0.0000 0.0000 (  5493 PWs)   bands (ev):

  -107.6600 -55.9877 -55.9877 -55.9876  -4.5166   0.0944   0.1098   0.1098
     0.6197   0.6316   6.0160   7.2361   7.2361

     occupation numbers 
     1.0000   1.0000   1.0000   1.0000   1.0000   1.0000   1.0000   1.0000
     1.0000   1.0000   1.0000   1.0000   1.0000

          k = 0.1768 0.0589-0.0589 (  5484 PWs)   bands (ev):

  -107.6600 -55.9877 -55.9877 -55.9877  -4.4385   0.1111   0.1365   0.1420
     0.6132   0.6353   5.2915   6.9907   7.0356

     occupation numbers 
     1.0000   1.0000   1.0000   1.0000   1.0000   1.0000   1.0000   1.0000
     1.0000   1.0000   1.0000   1.0000   1.0000

          k = 0.2357 0.1179-0.1179 (  5473 PWs)   bands (ev):

  -107.6600 -55.9877 -55.9877 -55.9877  -4.3108   0.1456   0.1715   0.2167
     0.6118   0.6396   4.3547   6.7253   6.7713

     occupation numbers 
     1.0000   1.0000   1.0000   1.0000   1.0000   1.0000   1.0000   1.0000
     1.0000   1.0000   1.0000   1.0000   1.0000

          k = 0.2946 0.1768-0.1768 (  5476 PWs)   bands (ev):

  -107.6600 -55.9878 -55.9877 -55.9877  -4.1639   0.1805   0.2033   0.3673
     0.6231   0.6462   3.4116   6.4810   6.5062

     occupation numbers 
     1.0000   1.0000   1.0000   1.0000   1.0000   1.0000   1.0000   1.0000
     1.0000   1.0000   1.0000   1.0000   1.0000

          k = 0.3536 0.2357-0.2357 (  5488 PWs)   bands (ev):

  -107.6600 -55.9879 -55.9877 -55.9877  -4.0379   0.2058   0.2234   0.5739
     0.6525   0.6865   2.5779   6.2322   6.3767

     occupation numbers 
     1.0000   1.0000   1.0000   1.0000   1.0000   1.0000   1.0000   1.0000
     1.0000   1.0000   1.0000   1.0000   1.0000

          k =-0.2946-0.4125 0.4125 (  5486 PWs)   bands (ev):

  -107.6600 -55.9879 -55.9877 -55.9877  -3.9711   0.2190   0.2299   0.6312
     0.6518   0.9205   2.0215   6.0691   6.3601

     occupation numbers 
     1.0000   1.0000   1.0000   1.0000   1.0000   1.0000   1.0000   1.0000
     1.0000   1.0000   1.0000   1.0000   1.0000

          k =-0.2357-0.3536 0.3536 (  5492 PWs)   bands (ev):

  -107.6600 -55.9879 -55.9877 -55.9877  -3.9853   0.2209   0.2235   0.6375
     0.6411   0.8452   2.1566   6.0182   6.4596

     occupation numbers 
     1.0000   1.0000   1.0000   1.0000   1.0000   1.0000   1.0000   1.0000
     1.0000   1.0000   1.0000   1.0000   1.0000

          k =-0.1768-0.2946 0.2946 (  5471 PWs)   bands (ev):

  -107.6600 -55.9878 -55.9877 -55.9877  -4.0758   0.2045   0.2109   0.5219
     0.6256   0.6645   2.8380   6.0915   6.6575

     occupation numbers 
     1.0000   1.0000   1.0000   1.0000   1.0000   1.0000   1.0000   1.0000
     1.0000   1.0000   1.0000   1.0000   1.0000

          k =-0.1179-0.2357 0.2357 (  5465 PWs)   bands (ev):

  -107.6600 -55.9878 -55.9877 -55.9876  -4.2135   0.1743   0.1878   0.3102
     0.6149   0.6451   3.7170   6.2880   6.9153

     occupation numbers 
     1.0000   1.0000   1.0000   1.0000   1.0000   1.0000   1.0000   1.0000
     1.0000   1.0000   1.0000   1.0000   1.0000

          k =-0.0589-0.1768 0.1768 (  5483 PWs)   bands (ev):

  -107.6600 -55.9877 -55.9877 -55.9877  -4.3580   0.1396   0.1536   0.1851
     0.6134   0.6360   4.6593   6.5973   7.1733

     occupation numbers 
     1.0000   1.0000   1.0000   1.0000   1.0000   1.0000   1.0000   1.0000
     1.0000   1.0000   1.0000   1.0000   1.0000

          k =-0.0000-0.1179 0.1179 (  5487 PWs)   bands (ev):

  -107.6600 -55.9877 -55.9877 -55.9877  -4.4716   0.1118   0.1173   0.1281
     0.6188   0.6308   5.5272   6.9991   7.3520

     occupation numbers 
     1.0000   1.0000   1.0000   1.0000   1.0000   1.0000   1.0000   1.0000
     1.0000   1.0000   1.0000   1.0000   1.0000

          k = 0.2357 0.0000 0.0000 (  5481 PWs)   bands (ev):

  -107.6600 -55.9877 -55.9877 -55.9877  -4.3837   0.1133   0.1649   0.1649
     0.6031   0.6439   5.0371   6.7168   6.7168

     occupation numbers 
     1.0000   1.0000   1.0000   1.0000   1.0000   1.0000   1.0000   1.0000
     1.0000   1.0000   1.0000   1.0000   1.0000

          k = 0.2946 0.0589-0.0589 (  5471 PWs)   bands (ev):

  -107.6600 -55.9877 -55.9877 -55.9877  -4.2768   0.1423   0.2032   0.2165
     0.6005   0.6510   4.3919   6.4083   6.4347

     occupation numbers 
     1.0000   1.0000   1.0000   1.0000   1.0000   1.0000   1.0000   1.0000
     1.0000   1.0000   1.0000   1.0000   1.0000

          k = 0.3536 0.1179-0.1179 (  5479 PWs)   bands (ev):

  -107.6600 -55.9878 -55.9877 -55.9877  -4.1427   0.1835   0.2390   0.3202
     0.6196   0.6575   3.5940   6.0494   6.2114

     occupation numbers 
     1.0000   1.0000   1.0000   1.0000   1.0000   1.0000   1.0000   1.0000
     1.0000   1.0000   1.0000   1.0000   1.0000

          k = 0.4125 0.1768-0.1768 (  5483 PWs)   bands (ev):

  -107.6600 -55.9879 -55.9877 -55.9877  -4.0167   0.2147   0.2626   0.4737
     0.6610   0.6994   2.8119   5.7058   6.0902

     occupation numbers 
     1.0000   1.0000   1.0000   1.0000   1.0000   1.0000   1.0000   1.0000
     1.0000   1.0000   1.0000   1.0000   1.0000

          k =-0.2357-0.4714 0.4714 (  5480 PWs)   bands (ev):

  -107.6600 -55.9879 -55.9877 -55.9877  -3.9357   0.2321   0.2704   0.5739
     0.6560   0.9024   2.1999   5.4413   6.0932

     occupation numbers 
     1.0000   1.0000   1.0000   1.0000   1.0000   1.0000   1.0000   1.0000
     1.0000   1.0000   1.0000   1.0000   1.0000

          k =-0.1768-0.4125 0.4125 (  5477 PWs)   bands (ev):

  -107.6600 -55.9879 -55.9877 -55.9877  -3.9252   0.2387   0.2630   0.6113
     0.6404   0.9547   2.0892   5.2975   6.2206

     occupation numbers 
     1.0000   1.0000   1.0000   1.0000   1.0000   1.0000   1.0000   1.0000
     1.0000   1.0000   1.0000   1.0000   1.0000

          k =-0.1179-0.3536 0.3536 (  5473 PWs)   bands (ev):

  -107.6600 -55.9879 -55.9877 -55.9877  -3.9883   0.2360   0.2413   0.5812
     0.6209   0.7432   2.5889   5.3081   6.4496

     occupation numbers 
     1.0000   1.0000   1.0000   1.0000   1.0000   1.0000   1.0000   1.0000
     1.0000   1.0000   1.0000   1.0000   1.0000

          k =-0.0589-0.2946 0.2946 (  5467 PWs)   bands (ev):

  -107.6600 -55.9878 -55.9877 -55.9877  -4.1051   0.2076   0.2214   0.4065
     0.6078   0.6697   3.3109   5.5096   6.7342

     occupation numbers 
     1.0000   1.0000   1.0000   1.0000   1.0000   1.0000   1.0000   1.0000
     1.0000   1.0000   1.0000   1.0000   1.0000

          k = 0.0000-0.2357 0.2357 (  5468 PWs)   bands (ev):

  -107.6600 -55.9878 -55.9877 -55.9877  -4.2405   0.1698   0.1918   0.2615
     0.6061   0.6497   4.0444   5.9445   7.0048

     occupation numbers 
     1.0000   1.0000   1.0000   1.0000   1.0000   1.0000   1.0000   1.0000
     1.0000   1.0000   1.0000   1.0000   1.0000

          k = 0.3536 0.0000 0.0000 (  5457 PWs)   bands (ev):

  -107.6600 -55.9877 -55.9877 -55.9877  -4.1934   0.1602   0.2465   0.2465
     0.5998   0.6607   4.0727   6.1331   6.1331

     occupation numbers 
     1.0000   1.0000   1.0000   1.0000   1.0000   1.0000   1.0000   1.0000
     1.0000   1.0000   1.0000   1.0000   1.0000

          k = 0.4125 0.0589-0.0589 (  5475 PWs)   bands (ev):

  -107.6600 -55.9878 -55.9877 -55.9877  -4.0804   0.1995   0.2883   0.3088
     0.6285   0.6683   3.5137   5.7957   5.8925

     occupation numbers 
     1.0000   1.0000   1.0000   1.0000   1.0000   1.0000   1.0000   1.0000
     1.0000   1.0000   1.0000   1.0000   1.0000

          k = 0.4714 0.1179-0.1179 (  5486 PWs)   bands (ev):

  -107.6600 -55.9879 -55.9877 -55.9877  -3.9672   0.2359   0.3169   0.4049
     0.6710   0.7256   2.8860   5.3817   5.7604

     occupation numbers 
     1.0000   1.0000   1.0000   1.0000   1.0000   1.0000   1.0000   1.0000
     1.0000   1.0000   1.0000   1.0000   1.0000

          k =-0.1768-0.5303 0.5303 (  5479 PWs)   bands (ev):

  -107.6600 -55.9879 -55.9877 -55.9877  -3.8858   0.2545   0.3269   0.5001
     0.6638   0.9178   2.3294   5.0067   5.7614

     occupation numbers 
     1.0000   1.0000   1.0000   1.0000   1.0000   1.0000   1.0000   1.0000
     1.0000   1.0000   1.0000   1.0000   1.0000

          k =-0.1179-0.4714 0.4714 (  5462 PWs)   bands (ev):

  -107.6600 -55.9879 -55.9877 -55.9877  -3.8608   0.2604   0.3178   0.5674
     0.6457   1.0481   2.0772   4.7612   5.8963

     occupation numbers 
     1.0000   1.0000   1.0000   1.0000   1.0000   1.0000   1.0000   1.0000
     1.0000   1.0000   1.0000   1.0000   1.0000

          k =-0.0589-0.4125 0.4125 (  5465 PWs)   bands (ev):

  -107.6600 -55.9879 -55.9878 -55.9877  -3.8995   0.2584   0.2911   0.5943
     0.6242   0.8909   2.3512   4.7171   6.1405

     occupation numbers 
     1.0000   1.0000   1.0000   1.0000   1.0000   1.0000   1.0000   1.0000
     1.0000   1.0000   1.0000   1.0000   1.0000

          k = 0.0000-0.3536 0.3536 (  5452 PWs)   bands (ev):

  -107.6600 -55.9878 -55.9877 -55.9877  -3.9898   0.2467   0.2510   0.5362
     0.6101   0.7211   2.8420   4.9522   6.4447

     occupation numbers 
     1.0000   1.0000   1.0000   1.0000   1.0000   1.0000   1.0000   1.0000
     1.0000   1.0000   1.0000   1.0000   1.0000

          k = 0.4714 0.0000 0.0000 (  5490 PWs)   bands (ev):

  -107.6600 -55.9879 -55.9877 -55.9877  -3.9923   0.2243   0.3368   0.3368
     0.6695   0.6776   3.1671   5.6284   5.6284

     occupation numbers 
     1.0000   1.0000   1.0000   1.0000   1.0000   1.0000   1.0000   1.0000
     1.0000   1.0000   1.0000   1.0000   1.0000

          k = 0.5303 0.0589-0.0589 (  5493 PWs)   bands (ev):

  -107.6600 -55.9879 -55.9877 -55.9877  -3.9016   0.2532   0.3710   0.3873
     0.6819   0.7791   2.7103   5.3234   5.4730

     occupation numbers 
     1.0000   1.0000   1.0000   1.0000   1.0000   1.0000   1.0000   1.0000
     1.0000   1.0000   1.0000   1.0000   1.0000

          k =-0.1179-0.5893 0.5893 (  5470 PWs)   bands (ev):

  -107.6600 -55.9879 -55.9877 -55.9877  -3.8339   0.2740   0.3835   0.4467
     0.6757   0.9691   2.2774   4.9173   5.4562

     occupation numbers 
     1.0000   1.0000   1.0000   1.0000   1.0000   1.0000   1.0000   1.0000
     1.0000   1.0000   1.0000   1.0000   1.0000

          k =-0.0589-0.5303 0.5303 (  5471 PWs)   bands (ev):

  -107.6600 -55.9879 -55.9878 -55.9877  -3.8090   0.2793   0.3725   0.5120
     0.6582   1.1365   2.0164   4.5819   5.5817

     occupation numbers 
     1.0000   1.0000   1.0000   1.0000   1.0000   1.0000   1.0000   1.0000
     1.0000   1.0000   1.0000   1.0000   1.0000

          k =-0.0000-0.4714 0.4714 (  5480 PWs)   bands (ev):

  -107.6600 -55.9879 -55.9878 -55.9877  -3.8334   0.2731   0.3394   0.5675
     0.6377   1.0726   2.1035   4.4748   5.8263

     occupation numbers 
     1.0000   1.0000   1.0000   1.0000   1.0000   1.0000   1.0000   1.0000
     1.0000   1.0000   1.0000   1.0000   1.0000

          k = 0.5893 0.0000 0.0000 (  5486 PWs)   bands (ev):

  -107.6600 -55.9879 -55.9877 -55.9877  -3.8379   0.2599   0.4097   0.4097
     0.6900   0.8859   2.3942   5.2890   5.2890

     occupation numbers 
     1.0000   1.0000   1.0000   1.0000   1.0000   1.0000   1.0000   1.0000
     1.0000   1.0000   1.0000   1.0000   1.0000

          k =-0.0589-0.6482 0.6482 (  5473 PWs)   bands (ev):

  -107.6600 -55.9879 -55.9878 -55.9877  -3.7946   0.2725   0.4238   0.4348
     0.6886   1.0447   2.0992   5.0668   5.2446

     occupation numbers 
     1.0000   1.0000   1.0000   1.0000   1.0000   1.0000   1.0000   1.0000
     1.0000   1.0000   1.0000   1.0000   1.0000

          k = 0.0000-0.5893 0.5893 (  5476 PWs)   bands (ev):

  -107.6600 -55.9879 -55.9878 -55.9877  -3.7842   0.2842   0.4108   0.4643
     0.6755   1.1623   1.9610   4.7504   5.3489

     occupation numbers 
     1.0000   1.0000   1.0000   1.0000   1.0000   1.0000   1.0000   1.0000
     1.0000   1.0000   1.0000   1.0000   1.0000

          k =-0.7071 0.0000 0.0000 (  5466 PWs)   bands (ev):

  -107.6600 -55.9879 -55.9877 -55.9877  -3.7799   0.2665   0.4380   0.4380
     0.6946   1.0891   1.9995   5.1691   5.1691

     occupation numbers 
     1.0000   1.0000   1.0000   1.0000   1.0000   1.0000   1.0000   1.0000
     1.0000   1.0000   1.0000   1.0000   1.0000

          k = 0.2357 0.1179-0.0000 (  5478 PWs)   bands (ev):

  -107.6600 -55.9877 -55.9877 -55.9877  -4.3458   0.1326   0.1696   0.1856
     0.6064   0.6424   4.6977   6.4699   6.9366

     occupation numbers 
     1.0000   1.0000   1.0000   1.0000   1.0000   1.0000   1.0000   1.0000
     1.0000   1.0000   1.0000   1.0000   1.0000

          k = 0.2946 0.1768-0.0589 (  5478 PWs)   bands (ev):

  -107.6600 -55.9878 -55.9877 -55.9877  -4.2146   0.1699   0.2060   0.2779
     0.6082   0.6516   3.9112   6.0271   6.7282

     occupation numbers 
     1.0000   1.0000   1.0000   1.0000   1.0000   1.0000   1.0000   1.0000
     1.0000   1.0000   1.0000   1.0000   1.0000

          k = 0.3536 0.2357-0.1179 (  5461 PWs)   bands (ev):

  -107.6600 -55.9878 -55.9877 -55.9877  -4.0775   0.2048   0.2331   0.4420
     0.6286   0.6694   3.0863   5.7350   6.4786

     occupation numbers 
     1.0000   1.0000   1.0000   1.0000   1.0000   1.0000   1.0000   1.0000
     1.0000   1.0000   1.0000   1.0000   1.0000

          k =-0.2946-0.4125 0.5303 (  5470 PWs)   bands (ev):

  -107.6600 -55.9879 -55.9877 -55.9877  -3.9735   0.2266   0.2486   0.5830
     0.6478   0.8017   2.3715   5.5778   6.2824

     occupation numbers 
     1.0000   1.0000   1.0000   1.0000   1.0000   1.0000   1.0000   1.0000
     1.0000   1.0000   1.0000   1.0000   1.0000

          k =-0.2357-0.3536 0.4714 (  5474 PWs)   bands (ev):

  -107.6600 -55.9879 -55.9877 -55.9877  -3.9346   0.2334   0.2538   0.6154
     0.6452   0.9716   2.0238   5.5298   6.2078

     occupation numbers 
     1.0000   1.0000   1.0000   1.0000   1.0000   1.0000   1.0000   1.0000
     1.0000   1.0000   1.0000   1.0000   1.0000

          k = 0.3536 0.1179 0.0000 (  5481 PWs)   bands (ev):

  -107.6600 -55.9878 -55.9877 -55.9877  -4.1665   0.1764   0.2428   0.2782
     0.6085   0.6600   3.8472   5.9002   6.2961

     occupation numbers 
     1.0000   1.0000   1.0000   1.0000   1.0000   1.0000   1.0000   1.0000
     1.0000   1.0000   1.0000   1.0000   1.0000

          k = 0.4125 0.1768-0.0589 (  5487 PWs)   bands (ev):

  -107.6600 -55.9878 -55.9877 -55.9877  -4.0422   0.2177   0.2733   0.3867
     0.6461   0.6769   3.1897   5.4845   6.0850

     occupation numbers 
     1.0000   1.0000   1.0000   1.0000   1.0000   1.0000   1.0000   1.0000
     1.0000   1.0000   1.0000   1.0000   1.0000

          k =-0.2357-0.4714 0.5893 (  5491 PWs)   bands (ev):

  -107.6600 -55.9879 -55.9877 -55.9877  -3.9379   0.2447   0.2919   0.5037
     0.6574   0.8077   2.5464   5.1892   5.9193

     occupation numbers 
     1.0000   1.0000   1.0000   1.0000   1.0000   1.0000   1.0000   1.0000
     1.0000   1.0000   1.0000   1.0000   1.0000

          k =-0.1768-0.4125 0.5303 (  5476 PWs)   bands (ev):

  -107.6600 -55.9879 -55.9877 -55.9877  -3.8847   0.2556   0.2968   0.5740
     0.6442   1.0028   2.1110   5.0014   5.8931

     occupation numbers 
     1.0000   1.0000   1.0000   1.0000   1.0000   1.0000   1.0000   1.0000
     1.0000   1.0000   1.0000   1.0000   1.0000

          k =-0.1179-0.3536 0.4714 (  5471 PWs)   bands (ev):

  -107.6600 -55.9879 -55.9877 -55.9877  -3.8989   0.2570   0.2852   0.5875
     0.6343   0.9381   2.2229   4.9399   6.0201

     occupation numbers 
     1.0000   1.0000   1.0000   1.0000   1.0000   1.0000   1.0000   1.0000
     1.0000   1.0000   1.0000   1.0000   1.0000

          k =-0.0589-0.2946 0.4125 (  5474 PWs)   bands (ev):

  -107.6600 -55.9878 -55.9877 -55.9877  -3.9759   0.2459   0.2612   0.5214
     0.6329   0.7397   2.7504   5.0571   6.2572

     occupation numbers 
     1.0000   1.0000   1.0000   1.0000   1.0000   1.0000   1.0000   1.0000
     1.0000   1.0000   1.0000   1.0000   1.0000

          k = 0.0000-0.2357 0.3536 (  5473 PWs)   bands (ev):

  -107.6600 -55.9878 -55.9877 -55.9877  -4.0923   0.2095   0.2388   0.3852
     0.6147   0.6718   3.3629   5.4150   6.5286

     occupation numbers 
     1.0000   1.0000   1.0000   1.0000   1.0000   1.0000   1.0000   1.0000
     1.0000   1.0000   1.0000   1.0000   1.0000

          k = 0.4714 0.1179 0.0000 (  5489 PWs)   bands (ev):

  -107.6600 -55.9879 -55.9877 -55.9877  -3.9780   0.2366   0.3211   0.3714
     0.6712   0.6992   3.0398   5.4295   5.7011

     occupation numbers 
     1.0000   1.0000   1.0000   1.0000   1.0000   1.0000   1.0000   1.0000
     1.0000   1.0000   1.0000   1.0000   1.0000

          k =-0.1768-0.5303 0.6482 (  5484 PWs)   bands (ev):

  -107.6600 -55.9879 -55.9878 -55.9877  -3.8870   0.2679   0.3403   0.4465
     0.6693   0.8493   2.5396   5.0616   5.5442

     occupation numbers 
     1.0000   1.0000   1.0000   1.0000   1.0000   1.0000   1.0000   1.0000
     1.0000   1.0000   1.0000   1.0000   1.0000

          k =-0.1179-0.4714 0.5893 (  5478 PWs)   bands (ev):

  -107.6600 -55.9879 -55.9878 -55.9877  -3.8336   0.2794   0.3476   0.5170
     0.6530   1.0514   2.1389   4.7419   5.5392

     occupation numbers 
     1.0000   1.0000   1.0000   1.0000   1.0000   1.0000   1.0000   1.0000
     1.0000   1.0000   1.0000   1.0000   1.0000

          k =-0.0589-0.4125 0.5303 (  5470 PWs)   bands (ev):

  -107.6600 -55.9879 -55.9878 -55.9877  -3.8334   0.2794   0.3331   0.5719
     0.6288   1.0847   2.0826   4.5701   5.6935

     occupation numbers 
     1.0000   1.0000   1.0000   1.0000   1.0000   1.0000   1.0000   1.0000
     1.0000   1.0000   1.0000   1.0000   1.0000

          k =-0.0000-0.3536 0.4714 (  5477 PWs)   bands (ev):

  -107.6600 -55.9879 -55.9878 -55.9877  -3.8861   0.2728   0.2971   0.5725
     0.6276   0.9002   2.3855   4.6520   5.9584

     occupation numbers 
     1.0000   1.0000   1.0000   1.0000   1.0000   1.0000   1.0000   1.0000
     1.0000   1.0000   1.0000   1.0000   1.0000

          k =-0.1179-0.5893 0.7071 (  5481 PWs)   bands (ev):

  -107.6600 -55.9879 -55.9878 -55.9877  -3.8341   0.2740   0.3878   0.4313
     0.6817   0.9297   2.3407   5.1369   5.2738

     occupation numbers 
     1.0000   1.0000   1.0000   1.0000   1.0000   1.0000   1.0000   1.0000
     1.0000   1.0000   1.0000   1.0000   1.0000

          k =-0.0589-0.5303 0.6482 (  5477 PWs)   bands (ev):

  -107.6600 -55.9879 -55.9878 -55.9877  -3.7949   0.2906   0.3907   0.4736
     0.6685   1.1167   2.0433   4.8218   5.2472

     occupation numbers 
     1.0000   1.0000   1.0000   1.0000   1.0000   1.0000   1.0000   1.0000
     1.0000   1.0000   1.0000   1.0000   1.0000

          k =-0.0000-0.4714 0.5893 (  5483 PWs)   bands (ev):

  -107.6600 -55.9879 -55.9878 -55.9877  -3.7950   0.2915   0.3736   0.5237
     0.6465   1.1910   1.9587   4.5594   5.4114

     occupation numbers 
     1.0000   1.0000   1.0000   1.0000   1.0000   1.0000   1.0000   1.0000
     1.0000   1.0000   1.0000   1.0000   1.0000

          k =-0.7071 0.1179 0.0000 (  5472 PWs)   bands (ev):

  -107.6600 -55.9879 -55.9878 -55.9877  -3.7802   0.2818   0.4171   0.4535
     0.6835   1.1331   1.9771   5.0635   5.0929

     occupation numbers 
     1.0000   1.0000   1.0000   1.0000   1.0000   1.0000   1.0000   1.0000
     1.0000   1.0000   1.0000   1.0000   1.0000

          k =-0.2357-0.4714 0.7071 (  5469 PWs)   bands (ev):

  -107.6600 -55.9879 -55.9877 -55.9877  -3.9390   0.2624   0.2919   0.4704
     0.6538   0.7737   2.7339   5.0182   5.8577

     occupation numbers 
     1.0000   1.0000   1.0000   1.0000   1.0000   1.0000   1.0000   1.0000
     1.0000   1.0000   1.0000   1.0000   1.0000

          k =-0.1768-0.4125 0.6482 (  5479 PWs)   bands (ev):

  -107.6600 -55.9879 -55.9878 -55.9877  -3.8620   0.2859   0.3114   0.5397
     0.6399   0.9629   2.2887   4.7628   5.6328

     occupation numbers 
     1.0000   1.0000   1.0000   1.0000   1.0000   1.0000   1.0000   1.0000
     1.0000   1.0000   1.0000   1.0000   1.0000

          k =-0.1179-0.3536 0.5893 (  5480 PWs)   bands (ev):

  -107.6600 -55.9879 -55.9878 -55.9877  -3.8334   0.2877   0.3247   0.5776
     0.6187   1.0969   2.0617   4.6884   5.5401

     occupation numbers 
     1.0000   1.0000   1.0000   1.0000   1.0000   1.0000   1.0000   1.0000
     1.0000   1.0000   1.0000   1.0000   1.0000

          k =-0.1179-0.4714 0.7071 (  5470 PWs)   bands (ev):

  -107.6600 -55.9879 -55.9878 -55.9877  -3.8237   0.2990   0.3489   0.4972
     0.6534   1.0306   2.2034   4.8294   5.2737

     occupation numbers 
     1.0000   1.0000   1.0000   1.0000   1.0000   1.0000   1.0000   1.0000
     1.0000   1.0000   1.0000   1.0000   1.0000

          k =-0.0589-0.4125 0.6482 (  5476 PWs)   bands (ev):

  -107.6600 -55.9879 -55.9878 -55.9877  -3.7953   0.3071   0.3576   0.5463
     0.6230   1.1884   1.9807   4.6631   5.1763

     occupation numbers 
     1.0000   1.0000   1.0000   1.0000   1.0000   1.0000   1.0000   1.0000
     1.0000   1.0000   1.0000   1.0000   1.0000

          k = 0.0000-0.3536 0.5893 (  5484 PWs)   bands (ev):

  -107.6600 -55.9879 -55.9878 -55.9877  -3.8095   0.3042   0.3411   0.5733
     0.6076   1.1379   2.0477   4.5938   5.3370

     occupation numbers 
     1.0000   1.0000   1.0000   1.0000   1.0000   1.0000   1.0000   1.0000
     1.0000   1.0000   1.0000   1.0000   1.0000

          k =-0.7071 0.2357 0.0000 (  5484 PWs)   bands (ev):

  -107.6600 -55.9879 -55.9878 -55.9877  -3.7809   0.3071   0.3809   0.5056
     0.6473   1.2177   1.9299   4.8663   4.9557

     occupation numbers 
     1.0000   1.0000   1.0000   1.0000   1.0000   1.0000   1.0000   1.0000
     1.0000   1.0000   1.0000   1.0000   1.0000

          k =-0.7071 0.3536 0.0000 (  5520 PWs)   bands (ev):

  -107.6601 -55.9879 -55.9878 -55.9878  -3.7813   0.3168   0.3649   0.5755
     0.5891   1.2590   1.9049   4.7730   4.8934

     occupation numbers 
     1.0000   1.0000   1.0000   1.0000   1.0000   1.0000   1.0000   1.0000
     1.0000   1.0000   1.0000   1.0000   1.0000

     highest occupied level (ev):     7.4603

!    total energy              =    -346.20392879 Ry
     estimated scf accuracy    <          7.7E-11 Ry

     The total energy is the sum of the following terms:
     one-electron contribution =    -226.97700536 Ry
     hartree contribution      =     116.20654433 Ry
     xc contribution           =     -55.72277965 Ry
     ewald contribution        =    -179.71068811 Ry

     convergence has been achieved in  13 iterations

     Writing all to output data dir /home/User/opencode_workspace/DFT/calculations/hgte/conv_scf_k12/out/pwscf.save/ :
     XML data file, charge density, pseudopotentials, collected wavefunctions

     init_run     :      1.59s CPU      1.83s WALL (       1 calls)
     electrons    :     32.10s CPU     37.95s WALL (       1 calls)

     Called by init_run:
     wfcinit      :      0.90s CPU      1.04s WALL (       1 calls)
     wfcinit:atom :      0.01s CPU      0.01s WALL (      72 calls)
     wfcinit:wfcr :      0.84s CPU      0.97s WALL (      72 calls)
     potinit      :      0.12s CPU      0.13s WALL (       1 calls)
     hinit0       :      0.35s CPU      0.36s WALL (       1 calls)

     Called by electrons:
     c_bands      :     24.91s CPU     27.64s WALL (      14 calls)
     sum_band     :      5.67s CPU      7.34s WALL (      14 calls)
     v_of_rho     :      0.26s CPU      0.43s WALL (      14 calls)
     v_h          :      0.01s CPU      0.02s WALL (      14 calls)
     v_xc         :      0.24s CPU      0.41s WALL (      14 calls)
     newd         :      1.33s CPU      2.67s WALL (      14 calls)
     mix_rho      :      0.03s CPU      0.03s WALL (      14 calls)

     Called by c_bands:
     init_us_2    :      0.57s CPU      0.61s WALL (    2088 calls)
     cegterg      :     23.73s CPU     26.41s WALL (    1008 calls)

     Called by sum_band:
     sum_band:wei :      0.00s CPU      0.00s WALL (      14 calls)
     sum_band:loo :      4.35s CPU      4.88s WALL (      14 calls)
     sum_band:buf :      0.02s CPU      0.02s WALL (    1008 calls)
     sum_band:ini :      0.28s CPU      0.30s WALL (    1008 calls)
     sum_band:cal :      0.34s CPU      0.37s WALL (    1008 calls)
     sum_band:bec :      0.01s CPU      0.02s WALL (    1008 calls)
     addusdens    :      1.08s CPU      2.22s WALL (      14 calls)
                                        0.00s GPU  (      14 calls)
     addusd:skk   :      0.00s CPU      0.00s WALL (      28 calls)
                                        0.00s GPU  (      28 calls)

     Called by *egterg:
     cdiaghg      :      0.74s CPU      0.79s WALL (    4027 calls)
     cegterg:over :      0.84s CPU      0.90s WALL (    3091 calls)
     cegterg:upda :      0.22s CPU      0.24s WALL (    3091 calls)
     cegterg:last :      0.40s CPU      0.42s WALL (    2161 calls)
     h_psi        :     21.17s CPU     23.79s WALL (    4171 calls)
     s_psi        :      0.31s CPU      0.34s WALL (    4171 calls)
     g_psi        :      0.13s CPU      0.14s WALL (    3091 calls)

     Called by h_psi:
     h_psi:calbec :      1.03s CPU      1.13s WALL (    4171 calls)
     vloc_psi     :     19.69s CPU     22.15s WALL (    4171 calls)
                                        0.00s GPU  (    4171 calls)
     add_vuspsi   :      0.37s CPU      0.41s WALL (    4171 calls)

     General routines
     calbec       :      1.34s CPU      1.48s WALL (    5179 calls)
     fft          :      0.32s CPU      0.38s WALL (     181 calls)
     ffts         :      0.10s CPU      0.10s WALL (      28 calls)
     fftw         :     21.86s CPU     24.60s WALL (   87130 calls)
     interpolate  :      0.11s CPU      0.11s WALL (      14 calls)

     Parallel routines

     PWSCF        :     34.04s CPU     40.25s WALL


   This run was terminated on:  19:19:29  22Sep2026            

=------------------------------------------------------------------------------=
   JOB DONE.
=------------------------------------------------------------------------------=
