
     Program PWSCF v.7.5 starts on 22Sep2026 at 20:53: 4 

     This program is part of the open-source Quantum ESPRESSO suite
     for quantum simulation of materials; please cite
         "P. Giannozzi et al., J. Phys.:Condens. Matter 21 395502 (2009);
         "P. Giannozzi et al., J. Phys.:Condens. Matter 29 465901 (2017);
         "P. Giannozzi et al., J. Chem. Phys. 152 154105 (2020);
          URL http://www.quantum-espresso.org", 
     in publications or presentations arising from this work. More details at
     http://www.quantum-espresso.org/quote

     Parallel version (MPI & OpenMP), running on       6 processor cores
     Number of MPI processes:                 6
     Threads/MPI process:                     1

     MPI processes distributed on     1 nodes
     9475 MiB available memory on the printing compute node when the environment starts

     Reading input from pw.in

     Current dimensions of program PWSCF are:
     Max number of different atomic species (ntypx) = 10
     Max number of k-points (npk) =  40000
     Max angular momentum in pseudopotentials (lmaxx) =  4
     file Cd.rel-pbe-n-rrkjus_psl.1.0.0.UPF: wavefunction(s)  4D 4D renormalized
     file Te.rel-pbe-n-rrkjus_psl.1.0.0.UPF: wavefunction(s)  5S renormalized
     Message from routine setup:
     using ibrav=0 with symmetry is DISCOURAGED, use correct ibrav instead

     R & G space division:  proc/nbgrp/npool/nimage =       6
     Subspace diagonalization in iterative solution of the eigenvalue problem:
     a serial algorithm will be used


     Parallelization info
     --------------------
     sticks:   dense  smooth     PW     G-vecs:    dense   smooth      PW
     Min         615     414    115                24936    13591    2008
     Max         617     416    116                24939    13592    2009
     Sum        3697    2491    691               149629    81547   12051

     Using Slab Decomposition



     bravais-lattice index     =            0
     lattice parameter (alat)  =       8.6615  a.u.
     unit-cell volume          =     459.4769 (a.u.)^3
     number of atoms/cell      =            2
     number of atomic types    =            2
     number of electrons       =        18.00
     number of Kohn-Sham states=           18
     kinetic-energy cutoff     =     120.0000  Ry
     charge density cutoff     =     720.0000  Ry
     scf convergence threshold =      1.0E-10
     mixing beta               =       0.3000
     number of iterations used =            8  plain     mixing
     energy convergence thresh.=      1.0E-04
     force convergence thresh. =      1.0E-03
     press convergence thresh. =      5.0E-01
     Exchange-correlation= PBE
                           (   1   4   3   4   0   0   0)
     nstep                     =           50

     Non magnetic calculation with spin-orbit


     celldm(1)=   8.661496  celldm(2)=   0.000000  celldm(3)=   0.000000
     celldm(4)=   0.000000  celldm(5)=   0.000000  celldm(6)=   0.000000

     crystal axes: (cart. coord. in units of alat)
               a(1) = (   0.000000   0.707107   0.707107 )  
               a(2) = (   0.707107   0.000000   0.707107 )  
               a(3) = (   0.707107   0.707107   0.000000 )  

     reciprocal axes: (cart. coord. in units 2 pi/alat)
               b(1) = ( -0.707107  0.707107  0.707107 )  
               b(2) = (  0.707107 -0.707107  0.707107 )  
               b(3) = (  0.707107  0.707107 -0.707107 )  


     PseudoPot. # 1 for Cd read from file:
     /home/User/opencode_workspace/DFT/pseudopotentials/Cd.rel-pbe-n-rrkjus_psl.1.0.0.UPF
     MD5 check sum: f55a83cceeb01967e8d662641edf05f4
     Pseudo is Ultrasoft + core correction, Zval = 12.0
     Generated using &quot;atomic&quot; code by A. Dal Corso  v.6.3
     Using radial grid of 1239 points, 10 beta functions with: 
                l(1) =   0
                l(2) =   0
                l(3) =   1
                l(4) =   1
                l(5) =   1
                l(6) =   1
                l(7) =   2
                l(8) =   2
                l(9) =   2
               l(10) =   2
     Q(r) pseudized with 0 coefficients 


     PseudoPot. # 2 for Te read from file:
     /home/User/opencode_workspace/DFT/pseudopotentials/Te.rel-pbe-n-rrkjus_psl.1.0.0.UPF
     MD5 check sum: 7fd30b6833abd190471e4dcc2367351b
     Pseudo is Ultrasoft + core correction, Zval =  6.0
     Generated using &quot;atomic&quot; code by A. Dal Corso  v.6.3
     Using radial grid of 1245 points, 10 beta functions with: 
                l(1) =   0
                l(2) =   0
                l(3) =   1
                l(4) =   1
                l(5) =   1
                l(6) =   1
                l(7) =   2
                l(8) =   2
                l(9) =   2
               l(10) =   2
     Q(r) pseudized with 0 coefficients 


     atomic species   valence    mass     pseudopotential
     Cd               12.00   112.41400     Cd( 1.00)
     Te                6.00   127.60000     Te( 1.00)

     24 Sym. Ops. (no inversion) found


                                    s                        frac. trans.

      isym =  1     identity                                     

 cryst.   s( 1) = (     1          0          0      )
                  (     0          1          0      )
                  (     0          0          1      )

 cart.    s( 1) = (  1.0000000  0.0000000  0.0000000 )
                  (  0.0000000  1.0000000  0.0000000 )
                  (  0.0000000  0.0000000  1.0000000 )


      isym =  2     180 deg rotation - cart. axis [0,0,1]        

 cryst.   s( 2) = (     0          1         -1      )
                  (     1          0         -1      )
                  (     0          0         -1      )

 cart.    s( 2) = ( -1.0000000  0.0000000  0.0000000 )
                  (  0.0000000 -1.0000000  0.0000000 )
                  (  0.0000000  0.0000000  1.0000000 )


      isym =  3     180 deg rotation - cart. axis [0,1,0]        

 cryst.   s( 3) = (     0         -1          1      )
                  (     0         -1          0      )
                  (     1         -1          0      )

 cart.    s( 3) = ( -1.0000000  0.0000000  0.0000000 )
                  (  0.0000000  1.0000000  0.0000000 )
                  (  0.0000000  0.0000000 -1.0000000 )


      isym =  4     180 deg rotation - cart. axis [1,0,0]        

 cryst.   s( 4) = (    -1          0          0      )
                  (    -1          0          1      )
                  (    -1          1          0      )

 cart.    s( 4) = (  1.0000000  0.0000000  0.0000000 )
                  (  0.0000000 -1.0000000  0.0000000 )
                  (  0.0000000  0.0000000 -1.0000000 )


      isym =  5     120 deg rotation - cart. axis [-1,-1,-1]     

 cryst.   s( 5) = (     0          0          1      )
                  (     1          0          0      )
                  (     0          1          0      )

 cart.    s( 5) = (  0.0000000  1.0000000  0.0000000 )
                  (  0.0000000  0.0000000  1.0000000 )
                  (  1.0000000  0.0000000  0.0000000 )


      isym =  6     120 deg rotation - cart. axis [-1,1,1]       

 cryst.   s( 6) = (     1         -1          0      )
                  (     0         -1          1      )
                  (     0         -1          0      )

 cart.    s( 6) = (  0.0000000 -1.0000000  0.0000000 )
                  (  0.0000000  0.0000000  1.0000000 )
                  ( -1.0000000  0.0000000  0.0000000 )


      isym =  7     120 deg rotation - cart. axis [1,1,-1]       

 cryst.   s( 7) = (    -1          1          0      )
                  (    -1          0          0      )
                  (    -1          0          1      )

 cart.    s( 7) = (  0.0000000  1.0000000  0.0000000 )
                  (  0.0000000  0.0000000 -1.0000000 )
                  ( -1.0000000  0.0000000  0.0000000 )


      isym =  8     120 deg rotation - cart. axis [1,-1,1]       

 cryst.   s( 8) = (     0          0         -1      )
                  (     0          1         -1      )
                  (     1          0         -1      )

 cart.    s( 8) = (  0.0000000 -1.0000000  0.0000000 )
                  (  0.0000000  0.0000000 -1.0000000 )
                  (  1.0000000  0.0000000  0.0000000 )


      isym =  9     120 deg rotation - cart. axis [1,1,1]        

 cryst.   s( 9) = (     0          1          0      )
                  (     0          0          1      )
                  (     1          0          0      )

 cart.    s( 9) = (  0.0000000  0.0000000  1.0000000 )
                  (  1.0000000  0.0000000  0.0000000 )
                  (  0.0000000  1.0000000  0.0000000 )


      isym = 10     120 deg rotation - cart. axis [-1,1,-1]      

 cryst.   s(10) = (    -1          0          1      )
                  (    -1          1          0      )
                  (    -1          0          0      )

 cart.    s(10) = (  0.0000000  0.0000000  1.0000000 )
                  ( -1.0000000  0.0000000  0.0000000 )
                  (  0.0000000 -1.0000000  0.0000000 )


      isym = 11     120 deg rotation - cart. axis [1,-1,-1]      

 cryst.   s(11) = (     1          0         -1      )
                  (     0          0         -1      )
                  (     0          1         -1      )

 cart.    s(11) = (  0.0000000  0.0000000 -1.0000000 )
                  ( -1.0000000  0.0000000  0.0000000 )
                  (  0.0000000  1.0000000  0.0000000 )


      isym = 12     120 deg rotation - cart. axis [-1,-1,1]      

 cryst.   s(12) = (     0         -1          0      )
                  (     1         -1          0      )
                  (     0         -1          1      )

 cart.    s(12) = (  0.0000000  0.0000000 -1.0000000 )
                  (  1.0000000  0.0000000  0.0000000 )
                  (  0.0000000 -1.0000000  0.0000000 )


      isym = 13     inv. 180 deg rotation - cart. axis [1,1,0]   

 cryst.   s(13) = (     1          0         -1      )
                  (     0          1         -1      )
                  (     0          0         -1      )

 cart.    s(13) = (  0.0000000 -1.0000000  0.0000000 )
                  ( -1.0000000  0.0000000  0.0000000 )
                  (  0.0000000  0.0000000  1.0000000 )


      isym = 14     inv. 180 deg rotation - cart. axis [1,-1,0]  

 cryst.   s(14) = (     0          1          0      )
                  (     1          0          0      )
                  (     0          0          1      )

 cart.    s(14) = (  0.0000000  1.0000000  0.0000000 )
                  (  1.0000000  0.0000000  0.0000000 )
                  (  0.0000000  0.0000000  1.0000000 )


      isym = 15     inv.  90 deg rotation - cart. axis [0,0,-1]  

 cryst.   s(15) = (     0         -1          0      )
                  (     0         -1          1      )
                  (     1         -1          0      )

 cart.    s(15) = (  0.0000000 -1.0000000  0.0000000 )
                  (  1.0000000  0.0000000  0.0000000 )
                  (  0.0000000  0.0000000 -1.0000000 )


      isym = 16     inv.  90 deg rotation - cart. axis [0,0,1]   

 cryst.   s(16) = (    -1          0          1      )
                  (    -1          0          0      )
                  (    -1          1          0      )

 cart.    s(16) = (  0.0000000  1.0000000  0.0000000 )
                  ( -1.0000000  0.0000000  0.0000000 )
                  (  0.0000000  0.0000000 -1.0000000 )


      isym = 17     inv. 180 deg rotation - cart. axis [1,0,1]   

 cryst.   s(17) = (     1         -1          0      )
                  (     0         -1          0      )
                  (     0         -1          1      )

 cart.    s(17) = (  0.0000000  0.0000000 -1.0000000 )
                  (  0.0000000  1.0000000  0.0000000 )
                  ( -1.0000000  0.0000000  0.0000000 )


      isym = 18     inv. 180 deg rotation - cart. axis [-1,0,1]  

 cryst.   s(18) = (     0          0          1      )
                  (     0          1          0      )
                  (     1          0          0      )

 cart.    s(18) = (  0.0000000  0.0000000  1.0000000 )
                  (  0.0000000  1.0000000  0.0000000 )
                  (  1.0000000  0.0000000  0.0000000 )


      isym = 19     inv.  90 deg rotation - cart. axis [0,1,0]   

 cryst.   s(19) = (     0          0         -1      )
                  (     1          0         -1      )
                  (     0          1         -1      )

 cart.    s(19) = (  0.0000000  0.0000000 -1.0000000 )
                  (  0.0000000 -1.0000000  0.0000000 )
                  (  1.0000000  0.0000000  0.0000000 )


      isym = 20     inv.  90 deg rotation - cart. axis [0,-1,0]  

 cryst.   s(20) = (    -1          1          0      )
                  (    -1          0          1      )
                  (    -1          0          0      )

 cart.    s(20) = (  0.0000000  0.0000000  1.0000000 )
                  (  0.0000000 -1.0000000  0.0000000 )
                  ( -1.0000000  0.0000000  0.0000000 )


      isym = 21     inv. 180 deg rotation - cart. axis [0,1,1]   

 cryst.   s(21) = (    -1          0          0      )
                  (    -1          1          0      )
                  (    -1          0          1      )

 cart.    s(21) = (  1.0000000  0.0000000  0.0000000 )
                  (  0.0000000  0.0000000 -1.0000000 )
                  (  0.0000000 -1.0000000  0.0000000 )


      isym = 22     inv. 180 deg rotation - cart. axis [0,1,-1]  

 cryst.   s(22) = (     1          0          0      )
                  (     0          0          1      )
                  (     0          1          0      )

 cart.    s(22) = (  1.0000000  0.0000000  0.0000000 )
                  (  0.0000000  0.0000000  1.0000000 )
                  (  0.0000000  1.0000000  0.0000000 )


      isym = 23     inv.  90 deg rotation - cart. axis [-1,0,0]  

 cryst.   s(23) = (     0          1         -1      )
                  (     0          0         -1      )
                  (     1          0         -1      )

 cart.    s(23) = ( -1.0000000  0.0000000  0.0000000 )
                  (  0.0000000  0.0000000 -1.0000000 )
                  (  0.0000000  1.0000000  0.0000000 )


      isym = 24     inv.  90 deg rotation - cart. axis [1,0,0]   

 cryst.   s(24) = (     0         -1          1      )
                  (     1         -1          0      )
                  (     0         -1          0      )

 cart.    s(24) = ( -1.0000000  0.0000000  0.0000000 )
                  (  0.0000000  0.0000000  1.0000000 )
                  (  0.0000000 -1.0000000  0.0000000 )


   Cartesian axes

     site n.     atom                  positions (alat units)
         1        Cd     tau(   1) = (   0.0000000   0.0000000   0.0000000  )
         2        Te     tau(   2) = (   0.3535534   0.3535534   0.3535534  )

   Crystallographic axes

     site n.     atom                  positions (cryst. coord.)
         1        Cd     tau(   1) = (  0.0000000  0.0000000  0.0000000  )
         2        Te     tau(   2) = (  0.2500000  0.2500000  0.2500000  )

     number of k points=    47
                       cart. coord. in units 2pi/alat
        k(    1) = (   0.0000000   0.0000000   0.0000000), wk =   0.0010000
        k(    2) = (   0.0707107   0.0707107  -0.0707107), wk =   0.0080000
        k(    3) = (   0.1414214   0.1414214  -0.1414214), wk =   0.0080000
        k(    4) = (   0.2121320   0.2121320  -0.2121320), wk =   0.0080000
        k(    5) = (   0.2828427   0.2828427  -0.2828427), wk =   0.0080000
        k(    6) = (  -0.3535534  -0.3535534   0.3535534), wk =   0.0040000
        k(    7) = (   0.1414214   0.0000000   0.0000000), wk =   0.0060000
        k(    8) = (   0.2121320   0.0707107  -0.0707107), wk =   0.0240000
        k(    9) = (   0.2828427   0.1414214  -0.1414214), wk =   0.0240000
        k(   10) = (   0.3535534   0.2121320  -0.2121320), wk =   0.0240000
        k(   11) = (  -0.2828427  -0.4242641   0.4242641), wk =   0.0240000
        k(   12) = (  -0.2121320  -0.3535534   0.3535534), wk =   0.0240000
        k(   13) = (  -0.1414214  -0.2828427   0.2828427), wk =   0.0240000
        k(   14) = (  -0.0707107  -0.2121320   0.2121320), wk =   0.0240000
        k(   15) = (   0.0000000  -0.1414214   0.1414214), wk =   0.0120000
        k(   16) = (   0.2828427   0.0000000   0.0000000), wk =   0.0060000
        k(   17) = (   0.3535534   0.0707107  -0.0707107), wk =   0.0240000
        k(   18) = (   0.4242641   0.1414214  -0.1414214), wk =   0.0240000
        k(   19) = (  -0.2121320  -0.4949747   0.4949747), wk =   0.0240000
        k(   20) = (  -0.1414214  -0.4242641   0.4242641), wk =   0.0240000
        k(   21) = (  -0.0707107  -0.3535534   0.3535534), wk =   0.0240000
        k(   22) = (   0.0000000  -0.2828427   0.2828427), wk =   0.0120000
        k(   23) = (   0.4242641   0.0000000   0.0000000), wk =   0.0060000
        k(   24) = (   0.4949747   0.0707107  -0.0707107), wk =   0.0240000
        k(   25) = (  -0.1414214  -0.5656854   0.5656854), wk =   0.0240000
        k(   26) = (  -0.0707107  -0.4949747   0.4949747), wk =   0.0240000
        k(   27) = (  -0.0000000  -0.4242641   0.4242641), wk =   0.0120000
        k(   28) = (   0.5656854   0.0000000   0.0000000), wk =   0.0060000
        k(   29) = (  -0.0707107  -0.6363961   0.6363961), wk =   0.0240000
        k(   30) = (   0.0000000  -0.5656854   0.5656854), wk =   0.0120000
        k(   31) = (  -0.7071068   0.0000000   0.0000000), wk =   0.0030000
        k(   32) = (   0.2828427   0.1414214   0.0000000), wk =   0.0240000
        k(   33) = (   0.3535534   0.2121320  -0.0707107), wk =   0.0480000
        k(   34) = (  -0.2828427  -0.4242641   0.5656854), wk =   0.0480000
        k(   35) = (  -0.2121320  -0.3535534   0.4949747), wk =   0.0240000
        k(   36) = (   0.4242641   0.1414214  -0.0000000), wk =   0.0240000
        k(   37) = (  -0.2121320  -0.4949747   0.6363961), wk =   0.0480000
        k(   38) = (  -0.1414214  -0.4242641   0.5656854), wk =   0.0480000
        k(   39) = (  -0.0707107  -0.3535534   0.4949747), wk =   0.0480000
        k(   40) = (   0.0000000  -0.2828427   0.4242641), wk =   0.0240000
        k(   41) = (  -0.1414214  -0.5656854   0.7071068), wk =   0.0240000
        k(   42) = (  -0.0707107  -0.4949747   0.6363961), wk =   0.0480000
        k(   43) = (  -0.0000000  -0.4242641   0.5656854), wk =   0.0240000
        k(   44) = (  -0.7071068   0.1414214   0.0000000), wk =   0.0120000
        k(   45) = (  -0.1414214  -0.4242641   0.7071068), wk =   0.0240000
        k(   46) = (  -0.0707107  -0.3535534   0.6363961), wk =   0.0240000
        k(   47) = (  -0.7071068   0.2828427   0.0000000), wk =   0.0120000

                       cryst. coord.
        k(    1) = (   0.0000000   0.0000000   0.0000000), wk =   0.0010000
        k(    2) = (   0.0000000   0.0000000   0.1000000), wk =   0.0080000
        k(    3) = (   0.0000000   0.0000000   0.2000000), wk =   0.0080000
        k(    4) = (   0.0000000   0.0000000   0.3000000), wk =   0.0080000
        k(    5) = (   0.0000000   0.0000000   0.4000000), wk =   0.0080000
        k(    6) = (   0.0000000   0.0000000  -0.5000000), wk =   0.0040000
        k(    7) = (   0.0000000   0.1000000   0.1000000), wk =   0.0060000
        k(    8) = (   0.0000000   0.1000000   0.2000000), wk =   0.0240000
        k(    9) = (   0.0000000   0.1000000   0.3000000), wk =   0.0240000
        k(   10) = (   0.0000000   0.1000000   0.4000000), wk =   0.0240000
        k(   11) = (   0.0000000   0.1000000  -0.5000000), wk =   0.0240000
        k(   12) = (   0.0000000   0.1000000  -0.4000000), wk =   0.0240000
        k(   13) = (   0.0000000   0.1000000  -0.3000000), wk =   0.0240000
        k(   14) = (   0.0000000   0.1000000  -0.2000000), wk =   0.0240000
        k(   15) = (   0.0000000   0.1000000  -0.1000000), wk =   0.0120000
        k(   16) = (   0.0000000   0.2000000   0.2000000), wk =   0.0060000
        k(   17) = (   0.0000000   0.2000000   0.3000000), wk =   0.0240000
        k(   18) = (   0.0000000   0.2000000   0.4000000), wk =   0.0240000
        k(   19) = (   0.0000000   0.2000000  -0.5000000), wk =   0.0240000
        k(   20) = (   0.0000000   0.2000000  -0.4000000), wk =   0.0240000
        k(   21) = (   0.0000000   0.2000000  -0.3000000), wk =   0.0240000
        k(   22) = (   0.0000000   0.2000000  -0.2000000), wk =   0.0120000
        k(   23) = (   0.0000000   0.3000000   0.3000000), wk =   0.0060000
        k(   24) = (   0.0000000   0.3000000   0.4000000), wk =   0.0240000
        k(   25) = (   0.0000000   0.3000000  -0.5000000), wk =   0.0240000
        k(   26) = (   0.0000000   0.3000000  -0.4000000), wk =   0.0240000
        k(   27) = (   0.0000000   0.3000000  -0.3000000), wk =   0.0120000
        k(   28) = (   0.0000000   0.4000000   0.4000000), wk =   0.0060000
        k(   29) = (   0.0000000   0.4000000  -0.5000000), wk =   0.0240000
        k(   30) = (   0.0000000   0.4000000  -0.4000000), wk =   0.0120000
        k(   31) = (   0.0000000  -0.5000000  -0.5000000), wk =   0.0030000
        k(   32) = (   0.1000000   0.2000000   0.3000000), wk =   0.0240000
        k(   33) = (   0.1000000   0.2000000   0.4000000), wk =   0.0480000
        k(   34) = (   0.1000000   0.2000000  -0.5000000), wk =   0.0480000
        k(   35) = (   0.1000000   0.2000000  -0.4000000), wk =   0.0240000
        k(   36) = (   0.1000000   0.3000000   0.4000000), wk =   0.0240000
        k(   37) = (   0.1000000   0.3000000  -0.5000000), wk =   0.0480000
        k(   38) = (   0.1000000   0.3000000  -0.4000000), wk =   0.0480000
        k(   39) = (   0.1000000   0.3000000  -0.3000000), wk =   0.0480000
        k(   40) = (   0.1000000   0.3000000  -0.2000000), wk =   0.0240000
        k(   41) = (   0.1000000   0.4000000  -0.5000000), wk =   0.0240000
        k(   42) = (   0.1000000   0.4000000  -0.4000000), wk =   0.0480000
        k(   43) = (   0.1000000   0.4000000  -0.3000000), wk =   0.0240000
        k(   44) = (   0.1000000  -0.5000000  -0.4000000), wk =   0.0120000
        k(   45) = (   0.2000000   0.4000000  -0.4000000), wk =   0.0240000
        k(   46) = (   0.2000000   0.4000000  -0.3000000), wk =   0.0240000
        k(   47) = (   0.2000000  -0.5000000  -0.3000000), wk =   0.0120000

     Dense  grid:   149629 G-vectors     FFT dimensions: (  75,  75,  75)

     Smooth grid:    81547 G-vectors     FFT dimensions: (  64,  64,  64)

     Dynamical RAM for                 wfc:       0.93 MB

     Dynamical RAM for     wfc (w. buffer):      44.82 MB

     Dynamical RAM for           str. fact:       0.76 MB

     Dynamical RAM for           local pot:       0.00 MB

     Dynamical RAM for          nlocal pot:       1.76 MB

     Dynamical RAM for                qrad:      33.83 MB

     Dynamical RAM for          rho,v,vnew:      11.26 MB

     Dynamical RAM for               rhoin:       3.75 MB

     Dynamical RAM for            rho*nmix:      24.35 MB

     Dynamical RAM for           G-vectors:       1.53 MB

     Dynamical RAM for          h,s,v(r/c):       0.06 MB

     Dynamical RAM for          <psi|beta>:       0.04 MB

     Dynamical RAM for                 psi:       1.87 MB

     Dynamical RAM for                hpsi:       1.87 MB

     Dynamical RAM for                spsi:       1.87 MB

     Dynamical RAM for      wfcinit/wfcrot:       1.41 MB

     Dynamical RAM for           addusdens:     232.50 MB

     Dynamical RAM for          addusforce:     232.70 MB

     Dynamical RAM for         addusstress:     238.97 MB

     Estimated static dynamical RAM per process >     103.32 MB

     Estimated max dynamical RAM per process >     366.65 MB

     Estimated total dynamical RAM >       2.15 GB

     Initial potential from superposition of free atoms

     starting charge      17.9959, renormalised to      18.0000
     Starting wfcs are   26 randomized atomic wfcs

     total cpu time spent up to now is        8.6 secs

     per-process dynamical memory:   124.9 Mb

     Self-consistent Calculation

     iteration #  1     ecut=   120.00 Ry     beta= 0.30
     Davidson diagonalization with overlap

---- Real-time Memory Report at c_bands before calling an iterative solver
           339 MiB given to the printing process from OS
           122 MiB allocation reported by mallinfo(arena+hblkhd)
          7954 MiB available memory on the node where the printing process lives
------------------
     ethr =  1.00E-02,  avg # of iterations =  1.1

     Threshold (ethr) on eigenvalues was too large:
     Diagonalizing with lowered threshold

     Davidson diagonalization with overlap

---- Real-time Memory Report at c_bands before calling an iterative solver
           394 MiB given to the printing process from OS
           130 MiB allocation reported by mallinfo(arena+hblkhd)
          7548 MiB available memory on the node where the printing process lives
------------------
     ethr =  1.97E-04,  avg # of iterations =  5.2

     total cpu time spent up to now is       26.7 secs

     total energy              =    -128.97744932 Ry
     estimated scf accuracy    <       0.03918564 Ry

     iteration #  2     ecut=   120.00 Ry     beta= 0.30
     Davidson diagonalization with overlap

---- Real-time Memory Report at c_bands before calling an iterative solver
           403 MiB given to the printing process from OS
           139 MiB allocation reported by mallinfo(arena+hblkhd)
          7515 MiB available memory on the node where the printing process lives
------------------
     ethr =  2.18E-04,  avg # of iterations =  1.9

     total cpu time spent up to now is       33.3 secs

     total energy              =    -128.97595264 Ry
     estimated scf accuracy    <       0.01191398 Ry

     iteration #  3     ecut=   120.00 Ry     beta= 0.30
     Davidson diagonalization with overlap

---- Real-time Memory Report at c_bands before calling an iterative solver
           405 MiB given to the printing process from OS
           140 MiB allocation reported by mallinfo(arena+hblkhd)
          7507 MiB available memory on the node where the printing process lives
------------------
     ethr =  6.62E-05,  avg # of iterations =  2.1

     total cpu time spent up to now is       40.9 secs

     total energy              =    -128.97919328 Ry
     estimated scf accuracy    <       0.00139046 Ry

     iteration #  4     ecut=   120.00 Ry     beta= 0.30
     Davidson diagonalization with overlap

---- Real-time Memory Report at c_bands before calling an iterative solver
           407 MiB given to the printing process from OS
           142 MiB allocation reported by mallinfo(arena+hblkhd)
          7359 MiB available memory on the node where the printing process lives
------------------
     ethr =  7.72E-06,  avg # of iterations =  4.7

     total cpu time spent up to now is       49.8 secs

     total energy              =    -128.97984566 Ry
     estimated scf accuracy    <       0.00022735 Ry

     iteration #  5     ecut=   120.00 Ry     beta= 0.30
     Davidson diagonalization with overlap

---- Real-time Memory Report at c_bands before calling an iterative solver
           408 MiB given to the printing process from OS
           144 MiB allocation reported by mallinfo(arena+hblkhd)
          7371 MiB available memory on the node where the printing process lives
------------------
     ethr =  1.26E-06,  avg # of iterations =  4.8

     total cpu time spent up to now is       59.5 secs

     total energy              =    -128.97993688 Ry
     estimated scf accuracy    <       0.00005313 Ry

     iteration #  6     ecut=   120.00 Ry     beta= 0.30
     Davidson diagonalization with overlap

---- Real-time Memory Report at c_bands before calling an iterative solver
           410 MiB given to the printing process from OS
           145 MiB allocation reported by mallinfo(arena+hblkhd)
          7323 MiB available memory on the node where the printing process lives
------------------
     ethr =  2.95E-07,  avg # of iterations =  6.4

     total cpu time spent up to now is       68.2 secs

     total energy              =    -128.97995512 Ry
     estimated scf accuracy    <       0.00001601 Ry

     iteration #  7     ecut=   120.00 Ry     beta= 0.30
     Davidson diagonalization with overlap

---- Real-time Memory Report at c_bands before calling an iterative solver
           412 MiB given to the printing process from OS
           147 MiB allocation reported by mallinfo(arena+hblkhd)
          7494 MiB available memory on the node where the printing process lives
------------------
     ethr =  8.89E-08,  avg # of iterations =  3.9

     total cpu time spent up to now is       76.0 secs

     total energy              =    -128.97995822 Ry
     estimated scf accuracy    <       0.00000158 Ry

     iteration #  8     ecut=   120.00 Ry     beta= 0.30
     Davidson diagonalization with overlap

---- Real-time Memory Report at c_bands before calling an iterative solver
           413 MiB given to the printing process from OS
           149 MiB allocation reported by mallinfo(arena+hblkhd)
          7287 MiB available memory on the node where the printing process lives
------------------
     ethr =  8.79E-09,  avg # of iterations =  9.6

     total cpu time spent up to now is       88.7 secs

     total energy              =    -128.97995790 Ry
     estimated scf accuracy    <       0.00000747 Ry

     iteration #  9     ecut=   120.00 Ry     beta= 0.30
     Davidson diagonalization with overlap

---- Real-time Memory Report at c_bands before calling an iterative solver
           415 MiB given to the printing process from OS
           150 MiB allocation reported by mallinfo(arena+hblkhd)
          7333 MiB available memory on the node where the printing process lives
------------------
     ethr =  8.79E-09,  avg # of iterations =  4.5

     total cpu time spent up to now is       98.7 secs

     total energy              =    -128.97995972 Ry
     estimated scf accuracy    <       0.00000029 Ry

     iteration # 10     ecut=   120.00 Ry     beta= 0.30
     Davidson diagonalization with overlap

---- Real-time Memory Report at c_bands before calling an iterative solver
           417 MiB given to the printing process from OS
           152 MiB allocation reported by mallinfo(arena+hblkhd)
          7329 MiB available memory on the node where the printing process lives
------------------
     ethr =  1.62E-09,  avg # of iterations =  4.6

     total cpu time spent up to now is      106.5 secs

     total energy              =    -128.97995975 Ry
     estimated scf accuracy    <       0.00000014 Ry

     iteration # 11     ecut=   120.00 Ry     beta= 0.30
     Davidson diagonalization with overlap

---- Real-time Memory Report at c_bands before calling an iterative solver
           417 MiB given to the printing process from OS
           152 MiB allocation reported by mallinfo(arena+hblkhd)
          7300 MiB available memory on the node where the printing process lives
------------------
     ethr =  7.94E-10,  avg # of iterations =  5.4

     total cpu time spent up to now is      116.4 secs

     total energy              =    -128.97995982 Ry
     estimated scf accuracy    <       0.00000029 Ry

     iteration # 12     ecut=   120.00 Ry     beta= 0.30
     Davidson diagonalization with overlap

---- Real-time Memory Report at c_bands before calling an iterative solver
           417 MiB given to the printing process from OS
           152 MiB allocation reported by mallinfo(arena+hblkhd)
          7476 MiB available memory on the node where the printing process lives
------------------
     ethr =  7.94E-10,  avg # of iterations =  1.2

     total cpu time spent up to now is      124.1 secs

     total energy              =    -128.97995970 Ry
     estimated scf accuracy    <       0.00000022 Ry

     iteration # 13     ecut=   120.00 Ry     beta= 0.30
     Davidson diagonalization with overlap

---- Real-time Memory Report at c_bands before calling an iterative solver
           417 MiB given to the printing process from OS
           152 MiB allocation reported by mallinfo(arena+hblkhd)
          7456 MiB available memory on the node where the printing process lives
------------------
     ethr =  7.94E-10,  avg # of iterations =  2.2

     total cpu time spent up to now is      131.2 secs

     total energy              =    -128.97995972 Ry
     estimated scf accuracy    <       0.00000002 Ry

     iteration # 14     ecut=   120.00 Ry     beta= 0.30
     Davidson diagonalization with overlap

---- Real-time Memory Report at c_bands before calling an iterative solver
           417 MiB given to the printing process from OS
           152 MiB allocation reported by mallinfo(arena+hblkhd)
          7462 MiB available memory on the node where the printing process lives
------------------
     ethr =  9.81E-11,  avg # of iterations =  7.5

     total cpu time spent up to now is      142.6 secs

     total energy              =    -128.97995975 Ry
     estimated scf accuracy    <          6.6E-09 Ry

     iteration # 15     ecut=   120.00 Ry     beta= 0.30
     Davidson diagonalization with overlap

---- Real-time Memory Report at c_bands before calling an iterative solver
           417 MiB given to the printing process from OS
           152 MiB allocation reported by mallinfo(arena+hblkhd)
          7280 MiB available memory on the node where the printing process lives
------------------
     ethr =  3.69E-11,  avg # of iterations =  2.4

     total cpu time spent up to now is      148.9 secs

     total energy              =    -128.97995976 Ry
     estimated scf accuracy    <          4.9E-09 Ry

     iteration # 16     ecut=   120.00 Ry     beta= 0.30
     Davidson diagonalization with overlap

---- Real-time Memory Report at c_bands before calling an iterative solver
           417 MiB given to the printing process from OS
           152 MiB allocation reported by mallinfo(arena+hblkhd)
          7280 MiB available memory on the node where the printing process lives
------------------
     ethr =  2.74E-11,  avg # of iterations =  8.4

     total cpu time spent up to now is      160.8 secs

     total energy              =    -128.97995976 Ry
     estimated scf accuracy    <       0.00000006 Ry

     iteration # 17     ecut=   120.00 Ry     beta= 0.30
     Davidson diagonalization with overlap

---- Real-time Memory Report at c_bands before calling an iterative solver
           417 MiB given to the printing process from OS
           152 MiB allocation reported by mallinfo(arena+hblkhd)
          7281 MiB available memory on the node where the printing process lives
------------------
     ethr =  2.74E-11,  avg # of iterations =  1.0

     total cpu time spent up to now is      166.9 secs

     total energy              =    -128.97995976 Ry
     estimated scf accuracy    <       0.00000006 Ry

     iteration # 18     ecut=   120.00 Ry     beta= 0.30
     Davidson diagonalization with overlap

---- Real-time Memory Report at c_bands before calling an iterative solver
           417 MiB given to the printing process from OS
           152 MiB allocation reported by mallinfo(arena+hblkhd)
          7283 MiB available memory on the node where the printing process lives
------------------
     ethr =  2.74E-11,  avg # of iterations =  1.0

     total cpu time spent up to now is      172.8 secs

     total energy              =    -128.97995977 Ry
     estimated scf accuracy    <       0.00000005 Ry

     iteration # 19     ecut=   120.00 Ry     beta= 0.30
     Davidson diagonalization with overlap

---- Real-time Memory Report at c_bands before calling an iterative solver
           417 MiB given to the printing process from OS
           152 MiB allocation reported by mallinfo(arena+hblkhd)
          7289 MiB available memory on the node where the printing process lives
------------------
     ethr =  2.74E-11,  avg # of iterations =  1.0

     total cpu time spent up to now is      179.8 secs

     total energy              =    -128.97995976 Ry
     estimated scf accuracy    <       0.00000006 Ry

     iteration # 20     ecut=   120.00 Ry     beta= 0.30
     Davidson diagonalization with overlap

---- Real-time Memory Report at c_bands before calling an iterative solver
           417 MiB given to the printing process from OS
           152 MiB allocation reported by mallinfo(arena+hblkhd)
          7314 MiB available memory on the node where the printing process lives
------------------
     ethr =  2.74E-11,  avg # of iterations =  1.0

     total cpu time spent up to now is      185.7 secs

     total energy              =    -128.97995976 Ry
     estimated scf accuracy    <       0.00000005 Ry

     iteration # 21     ecut=   120.00 Ry     beta= 0.30
     Davidson diagonalization with overlap

---- Real-time Memory Report at c_bands before calling an iterative solver
           417 MiB given to the printing process from OS
           152 MiB allocation reported by mallinfo(arena+hblkhd)
          7275 MiB available memory on the node where the printing process lives
------------------
     ethr =  2.74E-11,  avg # of iterations =  1.9

     total cpu time spent up to now is      192.0 secs

     total energy              =    -128.97995973 Ry
     estimated scf accuracy    <       0.00000004 Ry

     iteration # 22     ecut=   120.00 Ry     beta= 0.30
     Davidson diagonalization with overlap

---- Real-time Memory Report at c_bands before calling an iterative solver
           417 MiB given to the printing process from OS
           152 MiB allocation reported by mallinfo(arena+hblkhd)
          7281 MiB available memory on the node where the printing process lives
------------------
     ethr =  2.74E-11,  avg # of iterations =  8.9

     total cpu time spent up to now is      204.7 secs

     total energy              =    -128.97995975 Ry
     estimated scf accuracy    <          2.6E-09 Ry

     iteration # 23     ecut=   120.00 Ry     beta= 0.30
     Davidson diagonalization with overlap

---- Real-time Memory Report at c_bands before calling an iterative solver
           417 MiB given to the printing process from OS
           152 MiB allocation reported by mallinfo(arena+hblkhd)
          7320 MiB available memory on the node where the printing process lives
------------------
     ethr =  1.45E-11,  avg # of iterations =  7.2

     total cpu time spent up to now is      216.8 secs

     total energy              =    -128.97995975 Ry
     estimated scf accuracy    <       0.00000003 Ry

     iteration # 24     ecut=   120.00 Ry     beta= 0.30
     Davidson diagonalization with overlap

---- Real-time Memory Report at c_bands before calling an iterative solver
           417 MiB given to the printing process from OS
           152 MiB allocation reported by mallinfo(arena+hblkhd)
          7329 MiB available memory on the node where the printing process lives
------------------
     ethr =  1.45E-11,  avg # of iterations =  4.2

     total cpu time spent up to now is      226.0 secs

     total energy              =    -128.97995974 Ry
     estimated scf accuracy    <          8.9E-09 Ry

     iteration # 25     ecut=   120.00 Ry     beta= 0.30
     Davidson diagonalization with overlap

---- Real-time Memory Report at c_bands before calling an iterative solver
           417 MiB given to the printing process from OS
           152 MiB allocation reported by mallinfo(arena+hblkhd)
          7301 MiB available memory on the node where the printing process lives
------------------
     ethr =  1.45E-11,  avg # of iterations =  8.4

     total cpu time spent up to now is      240.8 secs

     total energy              =    -128.97995974 Ry
     estimated scf accuracy    <          3.8E-09 Ry

     iteration # 26     ecut=   120.00 Ry     beta= 0.30
     Davidson diagonalization with overlap

---- Real-time Memory Report at c_bands before calling an iterative solver
           417 MiB given to the printing process from OS
           152 MiB allocation reported by mallinfo(arena+hblkhd)
          7329 MiB available memory on the node where the printing process lives
------------------
     ethr =  1.45E-11,  avg # of iterations =  2.1

     total cpu time spent up to now is      248.5 secs

     total energy              =    -128.97995974 Ry
     estimated scf accuracy    <          5.8E-10 Ry

     iteration # 27     ecut=   120.00 Ry     beta= 0.30
     Davidson diagonalization with overlap

---- Real-time Memory Report at c_bands before calling an iterative solver
           417 MiB given to the printing process from OS
           152 MiB allocation reported by mallinfo(arena+hblkhd)
          7271 MiB available memory on the node where the printing process lives
------------------
     ethr =  3.24E-12,  avg # of iterations =  6.1

     total cpu time spent up to now is      259.3 secs

     End of self-consistent calculation

          k = 0.0000 0.0000 0.0000 ( 10177 PWs)   bands (ev):

    -6.0353  -6.0353  -3.4632  -3.4632  -3.4632  -3.4632  -2.9175  -2.9175
    -2.7033  -2.7033  -2.7033  -2.7033   4.5428   4.5428   5.4027   5.4027
     5.4027   5.4027

     occupation numbers 
     1.0000   1.0000   1.0000   1.0000   1.0000   1.0000   1.0000   1.0000
     1.0000   1.0000   1.0000   1.0000   1.0000   1.0000   1.0000   1.0000
     1.0000   1.0000

          k = 0.0707 0.0707-0.0707 ( 10168 PWs)   bands (ev):

    -5.9975  -5.9975  -3.4685  -3.4533  -3.4441  -3.4441  -2.9026  -2.9026
    -2.7082  -2.7016  -2.7016  -2.6890   4.0589   4.0589   4.8567   4.8567
     5.3012   5.3135

     occupation numbers 
     1.0000   1.0000   1.0000   1.0000   1.0000   1.0000   1.0000   1.0000
     1.0000   1.0000   1.0000   1.0000   1.0000   1.0000   1.0000   1.0000
     1.0000   1.0000

          k = 0.1414 0.1414-0.1414 ( 10141 PWs)   bands (ev):

    -5.8981  -5.8981  -3.4677  -3.4431  -3.3870  -3.3870  -2.8630  -2.8630
    -2.7013  -2.6856  -2.6856  -2.6701   2.9349   2.9349   4.5530   4.5530
     5.0732   5.0917

     occupation numbers 
     1.0000   1.0000   1.0000   1.0000   1.0000   1.0000   1.0000   1.0000
     1.0000   1.0000   1.0000   1.0000   1.0000   1.0000   1.0000   1.0000
     1.0000   1.0000

          k = 0.2121 0.2121-0.2121 ( 10180 PWs)   bands (ev):

    -5.7758  -5.7758  -3.4618  -3.4373  -3.3031  -3.3031  -2.8267  -2.8267
    -2.6838  -2.6526  -2.6114  -2.6114   1.8364   1.8364   4.3077   4.3077
     4.8317   4.8492

     occupation numbers 
     1.0000   1.0000   1.0000   1.0000   1.0000   1.0000   1.0000   1.0000
     1.0000   1.0000   1.0000   1.0000   1.0000   1.0000   1.0000   1.0000
     1.0000   1.0000

          k = 0.2828 0.2828-0.2828 ( 10197 PWs)   bands (ev):

    -5.6786  -5.6786  -3.4532  -3.4381  -3.2278  -3.2278  -2.8167  -2.8167
    -2.6625  -2.6432  -2.4646  -2.4646   1.0052   1.0052   4.1359   4.1359
     4.6602   4.6707

     occupation numbers 
     1.0000   1.0000   1.0000   1.0000   1.0000   1.0000   1.0000   1.0000
     1.0000   1.0000   1.0000   1.0000   1.0000   1.0000   1.0000   1.0000
     1.0000   1.0000

          k =-0.3536-0.3536 0.3536 ( 10200 PWs)   bands (ev):

    -5.6421  -5.6421  -3.4443  -3.4443  -3.1986  -3.1986  -2.8162  -2.8162
    -2.6467  -2.6467  -2.3752  -2.3752   0.6778   0.6778   4.0743   4.0743
     4.6025   4.6025

     occupation numbers 
     1.0000   1.0000   1.0000   1.0000   1.0000   1.0000   1.0000   1.0000
     1.0000   1.0000   1.0000   1.0000   1.0000   1.0000   1.0000   1.0000
     1.0000   1.0000

          k = 0.1414 0.0000 0.0000 ( 10161 PWs)   bands (ev):

    -5.9849  -5.9849  -3.4585  -3.4585  -3.4394  -3.4394  -2.8973  -2.8973
    -2.7094  -2.7094  -2.6890  -2.6890   4.0108   4.0108   4.7293   4.7293
     5.1203   5.1203

     occupation numbers 
     1.0000   1.0000   1.0000   1.0000   1.0000   1.0000   1.0000   1.0000
     1.0000   1.0000   1.0000   1.0000   1.0000   1.0000   1.0000   1.0000
     1.0000   1.0000

          k = 0.2121 0.0707-0.0707 ( 10180 PWs)   bands (ev):

    -5.9069  -5.9055  -3.4606  -3.4388  -3.4125  -3.3860  -2.8692  -2.8597
    -2.7069  -2.7065  -2.6773  -2.6664   3.1649   3.2179   4.3745   4.4690
     4.8757   4.8916

     occupation numbers 
     1.0000   1.0000   1.0000   1.0000   1.0000   1.0000   1.0000   1.0000
     1.0000   1.0000   1.0000   1.0000   1.0000   1.0000   1.0000   1.0000
     1.0000   1.0000

          k = 0.2828 0.1414-0.1414 ( 10192 PWs)   bands (ev):

    -5.7939  -5.7897  -3.4565  -3.4296  -3.3533  -3.2949  -2.8330  -2.8152
    -2.6898  -2.6834  -2.6275  -2.6191   2.1241   2.1810   4.0947   4.2078
     4.6101   4.6327

     occupation numbers 
     1.0000   1.0000   1.0000   1.0000   1.0000   1.0000   1.0000   1.0000
     1.0000   1.0000   1.0000   1.0000   1.0000   1.0000   1.0000   1.0000
     1.0000   1.0000

          k = 0.3536 0.2121-0.2121 ( 10195 PWs)   bands (ev):

    -5.6907  -5.6831  -3.4489  -3.4280  -3.2895  -3.1995  -2.8181  -2.7991
    -2.6686  -2.6547  -2.5228  -2.4750   1.2319   1.2893   3.8717   3.9960
     4.3953   4.4256

     occupation numbers 
     1.0000   1.0000   1.0000   1.0000   1.0000   1.0000   1.0000   1.0000
     1.0000   1.0000   1.0000   1.0000   1.0000   1.0000   1.0000   1.0000
     1.0000   1.0000

          k =-0.2828-0.4243 0.4243 ( 10176 PWs)   bands (ev):

    -5.6359  -5.6261  -3.4401  -3.4327  -3.2533  -3.1464  -2.8182  -2.7973
    -2.6514  -2.6477  -2.4049  -2.3395   0.7331   0.7926   3.7292   3.8592
     4.3233   4.3517

     occupation numbers 
     1.0000   1.0000   1.0000   1.0000   1.0000   1.0000   1.0000   1.0000
     1.0000   1.0000   1.0000   1.0000   1.0000   1.0000   1.0000   1.0000
     1.0000   1.0000

          k =-0.2121-0.3536 0.3536 ( 10191 PWs)   bands (ev):

    -5.6479  -5.6381  -3.4412  -3.4331  -3.2623  -3.1559  -2.8193  -2.7968
    -2.6567  -2.6458  -2.4379  -2.3691   0.8399   0.9026   3.6951   3.8297
     4.4109   4.4308

     occupation numbers 
     1.0000   1.0000   1.0000   1.0000   1.0000   1.0000   1.0000   1.0000
     1.0000   1.0000   1.0000   1.0000   1.0000   1.0000   1.0000   1.0000
     1.0000   1.0000

          k =-0.1414-0.2828 0.2828 ( 10197 PWs)   bands (ev):

    -5.7227  -5.7153  -3.4505  -3.4307  -3.3123  -3.2244  -2.8244  -2.7999
    -2.6752  -2.6552  -2.5795  -2.5209   1.4949   1.5638   3.7933   3.9387
     4.6194   4.6328

     occupation numbers 
     1.0000   1.0000   1.0000   1.0000   1.0000   1.0000   1.0000   1.0000
     1.0000   1.0000   1.0000   1.0000   1.0000   1.0000   1.0000   1.0000
     1.0000   1.0000

          k =-0.0707-0.2121 0.2121 ( 10181 PWs)   bands (ev):

    -5.8343  -5.8303  -3.4587  -3.4350  -3.3777  -3.3223  -2.8487  -2.8255
    -2.6949  -2.6784  -2.6739  -2.6323   2.4440   2.5244   4.0351   4.1974
     4.8820   4.8941

     occupation numbers 
     1.0000   1.0000   1.0000   1.0000   1.0000   1.0000   1.0000   1.0000
     1.0000   1.0000   1.0000   1.0000   1.0000   1.0000   1.0000   1.0000
     1.0000   1.0000

          k = 0.0000-0.1414 0.1414 ( 10145 PWs)   bands (ev):

    -5.9399  -5.9385  -3.4649  -3.4446  -3.4268  -3.4030  -2.8839  -2.8735
    -2.7071  -2.6995  -2.6951  -2.6728   3.4133   3.4911   4.4335   4.5831
     5.1226   5.1325

     occupation numbers 
     1.0000   1.0000   1.0000   1.0000   1.0000   1.0000   1.0000   1.0000
     1.0000   1.0000   1.0000   1.0000   1.0000   1.0000   1.0000   1.0000
     1.0000   1.0000

          k = 0.2828 0.0000 0.0000 ( 10197 PWs)   bands (ev):

    -5.8532  -5.8532  -3.4395  -3.4395  -3.3755  -3.3755  -2.8387  -2.8387
    -2.7130  -2.7130  -2.6527  -2.6527   2.9469   2.9469   4.1296   4.1296
     4.5283   4.5283

     occupation numbers 
     1.0000   1.0000   1.0000   1.0000   1.0000   1.0000   1.0000   1.0000
     1.0000   1.0000   1.0000   1.0000   1.0000   1.0000   1.0000   1.0000
     1.0000   1.0000

          k = 0.3536 0.0707-0.0707 ( 10207 PWs)   bands (ev):

    -5.7623  -5.7579  -3.4393  -3.4155  -3.3527  -3.2875  -2.8060  -2.7948
    -2.7117  -2.6961  -2.6091  -2.6038   2.2116   2.2851   3.7622   3.9034
     4.2076   4.2472

     occupation numbers 
     1.0000   1.0000   1.0000   1.0000   1.0000   1.0000   1.0000   1.0000
     1.0000   1.0000   1.0000   1.0000   1.0000   1.0000   1.0000   1.0000
     1.0000   1.0000

          k = 0.4243 0.1414-0.1414 ( 10199 PWs)   bands (ev):

    -5.6693  -5.6587  -3.4345  -3.4029  -3.3197  -3.1835  -2.7893  -2.7777
    -2.6865  -2.6709  -2.5249  -2.4682   1.4341   1.5421   3.4093   3.6160
     3.9678   4.0289

     occupation numbers 
     1.0000   1.0000   1.0000   1.0000   1.0000   1.0000   1.0000   1.0000
     1.0000   1.0000   1.0000   1.0000   1.0000   1.0000   1.0000   1.0000
     1.0000   1.0000

          k =-0.2121-0.4950 0.4950 ( 10212 PWs)   bands (ev):

    -5.6099  -5.5935  -3.4276  -3.4028  -3.2950  -3.1120  -2.7934  -2.7754
    -2.6621  -2.6536  -2.4088  -2.3063   0.8893   1.0184   3.1029   3.3160
     3.9346   3.9782

     occupation numbers 
     1.0000   1.0000   1.0000   1.0000   1.0000   1.0000   1.0000   1.0000
     1.0000   1.0000   1.0000   1.0000   1.0000   1.0000   1.0000   1.0000
     1.0000   1.0000

          k =-0.1414-0.4243 0.4243 ( 10205 PWs)   bands (ev):

    -5.6037  -5.5853  -3.4216  -3.4106  -3.2952  -3.0976  -2.8007  -2.7748
    -2.6560  -2.6475  -2.3908  -2.2679   0.8071   0.9540   2.9264   3.1473
     4.0734   4.1000

     occupation numbers 
     1.0000   1.0000   1.0000   1.0000   1.0000   1.0000   1.0000   1.0000
     1.0000   1.0000   1.0000   1.0000   1.0000   1.0000   1.0000   1.0000
     1.0000   1.0000

          k =-0.0707-0.3536 0.3536 ( 10196 PWs)   bands (ev):

    -5.6524  -5.6366  -3.4233  -3.4199  -3.3205  -3.1406  -2.8082  -2.7751
    -2.6644  -2.6545  -2.5088  -2.3884   1.2102   1.3727   2.9627   3.2026
     4.3306   4.3477

     occupation numbers 
     1.0000   1.0000   1.0000   1.0000   1.0000   1.0000   1.0000   1.0000
     1.0000   1.0000   1.0000   1.0000   1.0000   1.0000   1.0000   1.0000
     1.0000   1.0000

          k = 0.0000-0.2828 0.2828 ( 10157 PWs)   bands (ev):

    -5.7400  -5.7300  -3.4403  -3.4248  -3.3545  -3.2282  -2.8243  -2.7876
    -2.6804  -2.6695  -2.6255  -2.5388   1.8436   1.9951   3.3256   3.5638
     4.6292   4.6440

     occupation numbers 
     1.0000   1.0000   1.0000   1.0000   1.0000   1.0000   1.0000   1.0000
     1.0000   1.0000   1.0000   1.0000   1.0000   1.0000   1.0000   1.0000
     1.0000   1.0000

          k = 0.4243 0.0000 0.0000 ( 10213 PWs)   bands (ev):

    -5.6933  -5.6933  -3.4167  -3.4167  -3.2818  -3.2818  -2.7672  -2.7672
    -2.7056  -2.7056  -2.5594  -2.5594   1.9220   1.9220   3.5881   3.5881
     3.9540   3.9540

     occupation numbers 
     1.0000   1.0000   1.0000   1.0000   1.0000   1.0000   1.0000   1.0000
     1.0000   1.0000   1.0000   1.0000   1.0000   1.0000   1.0000   1.0000
     1.0000   1.0000

          k = 0.4950 0.0707-0.0707 ( 10197 PWs)   bands (ev):

    -5.6226  -5.6146  -3.4168  -3.3941  -3.2835  -3.1828  -2.7591  -2.7405
    -2.7109  -2.6710  -2.4787  -2.4373   1.3807   1.4659   3.2305   3.3915
     3.6745   3.7259

     occupation numbers 
     1.0000   1.0000   1.0000   1.0000   1.0000   1.0000   1.0000   1.0000
     1.0000   1.0000   1.0000   1.0000   1.0000   1.0000   1.0000   1.0000
     1.0000   1.0000

          k =-0.1414-0.5657 0.5657 ( 10221 PWs)   bands (ev):

    -5.5734  -5.5565  -3.4141  -3.3759  -3.2967  -3.1031  -2.7599  -2.7481
    -2.6869  -2.6502  -2.3750  -2.2760   0.9537   1.1151   2.7801   3.0235
     3.5923   3.6429

     occupation numbers 
     1.0000   1.0000   1.0000   1.0000   1.0000   1.0000   1.0000   1.0000
     1.0000   1.0000   1.0000   1.0000   1.0000   1.0000   1.0000   1.0000
     1.0000   1.0000

          k =-0.0707-0.4950 0.4950 ( 10211 PWs)   bands (ev):

    -5.5623  -5.5399  -3.4115  -3.3701  -3.3162  -3.0696  -2.7674  -2.7612
    -2.6655  -2.6436  -2.3294  -2.1923   0.8103   1.0385   2.4258   2.7201
     3.7296   3.7605

     occupation numbers 
     1.0000   1.0000   1.0000   1.0000   1.0000   1.0000   1.0000   1.0000
     1.0000   1.0000   1.0000   1.0000   1.0000   1.0000   1.0000   1.0000
     1.0000   1.0000

          k =-0.0000-0.4243 0.4243 ( 10221 PWs)   bands (ev):

    -5.5919  -5.5701  -3.4127  -3.3895  -3.3245  -3.0838  -2.7875  -2.7640
    -2.6586  -2.6476  -2.3994  -2.2509   0.9559   1.2011   2.4268   2.7384
     4.0026   4.0229

     occupation numbers 
     1.0000   1.0000   1.0000   1.0000   1.0000   1.0000   1.0000   1.0000
     1.0000   1.0000   1.0000   1.0000   1.0000   1.0000   1.0000   1.0000
     1.0000   1.0000

          k = 0.5657 0.0000 0.0000 ( 10218 PWs)   bands (ev):

    -5.5691  -5.5691  -3.3995  -3.3995  -3.2007  -3.2007  -2.7400  -2.7400
    -2.6779  -2.6779  -2.3797  -2.3797   1.1217   1.1217   3.2115   3.2115
     3.5603   3.5603

     occupation numbers 
     1.0000   1.0000   1.0000   1.0000   1.0000   1.0000   1.0000   1.0000
     1.0000   1.0000   1.0000   1.0000   1.0000   1.0000   1.0000   1.0000
     1.0000   1.0000

          k =-0.0707-0.6364 0.6364 ( 10234 PWs)   bands (ev):

    -5.5403  -5.5296  -3.4032  -3.3819  -3.2384  -3.1223  -2.7490  -2.7181
    -2.6950  -2.6497  -2.3158  -2.2561   0.8457   0.9372   2.9287   3.0912
     3.3945   3.4450

     occupation numbers 
     1.0000   1.0000   1.0000   1.0000   1.0000   1.0000   1.0000   1.0000
     1.0000   1.0000   1.0000   1.0000   1.0000   1.0000   1.0000   1.0000
     1.0000   1.0000

          k = 0.0000-0.5657 0.5657 ( 10215 PWs)   bands (ev):

    -5.5382  -5.5188  -3.4060  -3.3647  -3.2885  -3.0769  -2.7547  -2.7322
    -2.6852  -2.6408  -2.2921  -2.1807   0.7729   0.9612   2.5254   2.7853
     3.4676   3.5118

     occupation numbers 
     1.0000   1.0000   1.0000   1.0000   1.0000   1.0000   1.0000   1.0000
     1.0000   1.0000   1.0000   1.0000   1.0000   1.0000   1.0000   1.0000
     1.0000   1.0000

          k =-0.7071 0.0000 0.0000 ( 10190 PWs)   bands (ev):

    -5.5234  -5.5234  -3.3933  -3.3933  -3.1705  -3.1705  -2.7355  -2.7355
    -2.6641  -2.6641  -2.2668  -2.2668   0.7949   0.7949   3.0772   3.0772
     3.4215   3.4215

     occupation numbers 
     1.0000   1.0000   1.0000   1.0000   1.0000   1.0000   1.0000   1.0000
     1.0000   1.0000   1.0000   1.0000   1.0000   1.0000   1.0000   1.0000
     1.0000   1.0000

          k = 0.2828 0.1414 0.0000 ( 10192 PWs)   bands (ev):

    -5.8224  -5.8180  -3.4509  -3.4264  -3.3840  -3.3185  -2.8397  -2.8171
    -2.7034  -2.6977  -2.6539  -2.6276   2.5136   2.6146   3.8692   4.0710
     4.5928   4.6836

     occupation numbers 
     1.0000   1.0000   1.0000   1.0000   1.0000   1.0000   1.0000   1.0000
     1.0000   1.0000   1.0000   1.0000   1.0000   1.0000   1.0000   1.0000
     1.0000   1.0000

          k = 0.3536 0.2121-0.0707 ( 10186 PWs)   bands (ev):

    -5.7199  -5.7104  -3.4409  -3.4173  -3.3409  -3.2193  -2.8130  -2.7863
    -2.6807  -2.6778  -2.5901  -2.5262   1.7116   1.8301   3.4530   3.6717
     4.3379   4.4330

     occupation numbers 
     1.0000   1.0000   1.0000   1.0000   1.0000   1.0000   1.0000   1.0000
     1.0000   1.0000   1.0000   1.0000   1.0000   1.0000   1.0000   1.0000
     1.0000   1.0000

          k =-0.2828-0.4243 0.5657 ( 10192 PWs)   bands (ev):

    -5.6395  -5.6250  -3.4314  -3.4159  -3.2995  -3.1365  -2.8058  -2.7802
    -2.6608  -2.6566  -2.4646  -2.3666   1.0307   1.1478   3.2436   3.4538
     4.1153   4.2022

     occupation numbers 
     1.0000   1.0000   1.0000   1.0000   1.0000   1.0000   1.0000   1.0000
     1.0000   1.0000   1.0000   1.0000   1.0000   1.0000   1.0000   1.0000
     1.0000   1.0000

          k =-0.2121-0.3536 0.4950 ( 10210 PWs)   bands (ev):

    -5.6095  -5.5930  -3.4250  -3.4188  -3.2826  -3.1062  -2.8059  -2.7803
    -2.6526  -2.6500  -2.3863  -2.2790   0.7532   0.8696   3.1827   3.3893
     4.0268   4.1090

     occupation numbers 
     1.0000   1.0000   1.0000   1.0000   1.0000   1.0000   1.0000   1.0000
     1.0000   1.0000   1.0000   1.0000   1.0000   1.0000   1.0000   1.0000
     1.0000   1.0000

          k = 0.4243 0.1414-0.0000 ( 10195 PWs)   bands (ev):

    -5.6809  -5.6719  -3.4281  -3.4015  -3.3271  -3.2087  -2.7766  -2.7714
    -2.7060  -2.6777  -2.5519  -2.5048   1.6775   1.7924   3.3200   3.5659
     3.8837   4.0340

     occupation numbers 
     1.0000   1.0000   1.0000   1.0000   1.0000   1.0000   1.0000   1.0000
     1.0000   1.0000   1.0000   1.0000   1.0000   1.0000   1.0000   1.0000
     1.0000   1.0000

          k =-0.2121-0.4950 0.6364 ( 10199 PWs)   bands (ev):

    -5.6104  -5.5943  -3.4186  -3.3891  -3.3141  -3.1239  -2.7708  -2.7634
    -2.6831  -2.6580  -2.4460  -2.3477   1.1438   1.3052   2.9244   3.2031
     3.6671   3.8073

     occupation numbers 
     1.0000   1.0000   1.0000   1.0000   1.0000   1.0000   1.0000   1.0000
     1.0000   1.0000   1.0000   1.0000   1.0000   1.0000   1.0000   1.0000
     1.0000   1.0000

          k =-0.1414-0.4243 0.5657 ( 10200 PWs)   bands (ev):

    -5.5757  -5.5544  -3.4115  -3.3863  -3.3105  -3.0779  -2.7773  -2.7627
    -2.6635  -2.6487  -2.3529  -2.2238   0.8335   1.0274   2.6598   2.9416
     3.6335   3.7352

     occupation numbers 
     1.0000   1.0000   1.0000   1.0000   1.0000   1.0000   1.0000   1.0000
     1.0000   1.0000   1.0000   1.0000   1.0000   1.0000   1.0000   1.0000
     1.0000   1.0000

          k =-0.0707-0.3536 0.4950 ( 10204 PWs)   bands (ev):

    -5.5873  -5.5658  -3.4096  -3.3939  -3.3173  -3.0824  -2.7848  -2.7637
    -2.6589  -2.6510  -2.3829  -2.2448   0.9063   1.1183   2.5818   2.8737
     3.7873   3.8785

     occupation numbers 
     1.0000   1.0000   1.0000   1.0000   1.0000   1.0000   1.0000   1.0000
     1.0000   1.0000   1.0000   1.0000   1.0000   1.0000   1.0000   1.0000
     1.0000   1.0000

          k = 0.0000-0.2828 0.4243 ( 10208 PWs)   bands (ev):

    -5.6414  -5.6247  -3.4199  -3.4056  -3.3298  -3.1349  -2.7948  -2.7685
    -2.6684  -2.6622  -2.5011  -2.3827   1.2737   1.4664   2.8250   3.1071
     4.0606   4.1575

     occupation numbers 
     1.0000   1.0000   1.0000   1.0000   1.0000   1.0000   1.0000   1.0000
     1.0000   1.0000   1.0000   1.0000   1.0000   1.0000   1.0000   1.0000
     1.0000   1.0000

          k =-0.1414-0.5657 0.7071 ( 10195 PWs)   bands (ev):

    -5.5716  -5.5582  -3.4085  -3.3826  -3.2769  -3.1240  -2.7549  -2.7250
    -2.7058  -2.6537  -2.3860  -2.3106   1.0319   1.1562   2.9547   3.2132
     3.3669   3.5145

     occupation numbers 
     1.0000   1.0000   1.0000   1.0000   1.0000   1.0000   1.0000   1.0000
     1.0000   1.0000   1.0000   1.0000   1.0000   1.0000   1.0000   1.0000
     1.0000   1.0000

          k =-0.0707-0.4950 0.6364 ( 10207 PWs)   bands (ev):

    -5.5459  -5.5252  -3.4032  -3.3677  -3.3017  -3.0740  -2.7573  -2.7354
    -2.6845  -2.6437  -2.3083  -2.1925   0.8220   1.0188   2.5968   2.8847
     3.3046   3.3972

     occupation numbers 
     1.0000   1.0000   1.0000   1.0000   1.0000   1.0000   1.0000   1.0000
     1.0000   1.0000   1.0000   1.0000   1.0000   1.0000   1.0000   1.0000
     1.0000   1.0000

          k =-0.0000-0.4243 0.5657 ( 10193 PWs)   bands (ev):

    -5.5522  -5.5281  -3.4026  -3.3633  -3.3272  -3.0595  -2.7657  -2.7516
    -2.6657  -2.6449  -2.3083  -2.1677   0.8137   1.0691   2.3499   2.6767
     3.4785   3.5603

     occupation numbers 
     1.0000   1.0000   1.0000   1.0000   1.0000   1.0000   1.0000   1.0000
     1.0000   1.0000   1.0000   1.0000   1.0000   1.0000   1.0000   1.0000
     1.0000   1.0000

          k =-0.7071 0.1414 0.0000 ( 10224 PWs)   bands (ev):

    -5.5316  -5.5163  -3.4010  -3.3758  -3.2572  -3.0950  -2.7508  -2.7066
    -2.7046  -2.6433  -2.2864  -2.2038   0.7697   0.8982   2.8357   3.0514
     3.2466   3.2841

     occupation numbers 
     1.0000   1.0000   1.0000   1.0000   1.0000   1.0000   1.0000   1.0000
     1.0000   1.0000   1.0000   1.0000   1.0000   1.0000   1.0000   1.0000
     1.0000   1.0000

          k =-0.1414-0.4243 0.7071 ( 10230 PWs)   bands (ev):

    -5.5652  -5.5429  -3.4005  -3.3773  -3.3219  -3.0733  -2.7664  -2.7497
    -2.6730  -2.6493  -2.3478  -2.2181   0.9103   1.1356   2.5567   2.8941
     3.3443   3.4943

     occupation numbers 
     1.0000   1.0000   1.0000   1.0000   1.0000   1.0000   1.0000   1.0000
     1.0000   1.0000   1.0000   1.0000   1.0000   1.0000   1.0000   1.0000
     1.0000   1.0000

          k =-0.0707-0.3536 0.6364 ( 10214 PWs)   bands (ev):

    -5.5485  -5.5235  -3.3931  -3.3691  -3.3299  -3.0546  -2.7666  -2.7449
    -2.6660  -2.6483  -2.2977  -2.1592   0.8134   1.0643   2.4451   2.7982
     3.2053   3.3314

     occupation numbers 
     1.0000   1.0000   1.0000   1.0000   1.0000   1.0000   1.0000   1.0000
     1.0000   1.0000   1.0000   1.0000   1.0000   1.0000   1.0000   1.0000
     1.0000   1.0000

          k =-0.7071 0.2828 0.0000 ( 10200 PWs)   bands (ev):

    -5.5371  -5.5125  -3.3912  -3.3623  -3.3244  -3.0533  -2.7606  -2.7323
    -2.6768  -2.6449  -2.2754  -2.1450   0.7891   1.0265   2.5431   2.9492
     3.0244   3.0304

     occupation numbers 
     1.0000   1.0000   1.0000   1.0000   1.0000   1.0000   1.0000   1.0000
     1.0000   1.0000   1.0000   1.0000   1.0000   1.0000   1.0000   1.0000
     1.0000   1.0000

     highest occupied level (ev):     5.4027

!    total energy              =    -128.97995974 Ry
     estimated scf accuracy    <          7.2E-12 Ry

     The total energy is the sum of the following terms:
     one-electron contribution =     -48.70069554 Ry
     hartree contribution      =      36.04066728 Ry
     xc contribution           =     -39.51870455 Ry
     ewald contribution        =     -76.80122694 Ry

     convergence has been achieved in  27 iterations

     Forces acting on atoms (cartesian axes, Ry/au):

     atom    1 type  1   force =     0.00000000    0.00000000    0.00000000
     atom    2 type  2   force =     0.00000000    0.00000000    0.00000000
     The non-local contrib.  to forces
     atom    1 type  1   force =     0.00000000    0.00000000    0.00000000
     atom    2 type  2   force =    -0.00000000    0.00000000    0.00000000
     The ionic contribution  to forces
     atom    1 type  1   force =     0.00000000   -0.00000000   -0.00000000
     atom    2 type  2   force =    -0.00000000    0.00000000    0.00000000
     The local contribution  to forces
     atom    1 type  1   force =     0.00000000    0.00000000    0.00000000
     atom    2 type  2   force =     0.00000000   -0.00000000   -0.00000000
     The core correction contribution to forces
     atom    1 type  1   force =     0.00000000    0.00000000    0.00000000
     atom    2 type  2   force =    -0.00000000    0.00000000    0.00000000
     The Hubbard contrib.    to forces
     atom    1 type  1   force =     0.00000000    0.00000000    0.00000000
     atom    2 type  2   force =     0.00000000    0.00000000    0.00000000
     The SCF correction term to forces
     atom    1 type  1   force =     0.00000000   -0.00000000    0.00000000
     atom    2 type  2   force =     0.00000000    0.00000000   -0.00000000

     Total force =     0.000000     Total SCF correction =     0.000000


     Computing stress (Cartesian axis) and pressure

          total   stress  (Ry/bohr**3)                   (kbar)     P=       27.14
   0.00018447  -0.00000000   0.00000000           27.14       -0.00        0.00
  -0.00000000   0.00018447  -0.00000000           -0.00       27.14       -0.00
   0.00000000  -0.00000000   0.00018447            0.00       -0.00       27.14

     kinetic stress (kbar)   9593.91      0.00     -0.00
                                0.00   9593.91     -0.00
                               -0.00     -0.00   9593.91

     local   stress (kbar)    721.11      0.00      0.00
                                0.00    721.11     -0.00
                                0.00     -0.00    721.11

     nonloc. stress (kbar)  -3589.88     -0.00      0.00
                               -0.00  -3589.88     -0.00
                                0.00     -0.00  -3589.88

     hartree stress (kbar)   3846.23      0.00     -0.00
                                0.00   3846.23      0.00
                               -0.00      0.00   3846.23

     exc-cor stress (kbar)   4490.42      0.00      0.00
                                0.00   4490.42     -0.00
                                0.00     -0.00   4490.42

     corecor stress (kbar)  -6838.48      0.00      0.00
                                0.00  -6838.48      0.00
                                0.00      0.00  -6838.48

     ewald   stress (kbar)  -8196.17      0.00     -0.00
                                0.00  -8196.17      0.00
                               -0.00      0.00  -8196.17

     hubbard stress (kbar)      0.00      0.00      0.00
                                0.00      0.00      0.00
                                0.00      0.00      0.00

     DFT-D   stress (kbar)      0.00      0.00      0.00
                                0.00      0.00      0.00
                                0.00      0.00      0.00

     XDM     stress (kbar)      0.00      0.00      0.00
                                0.00      0.00      0.00
                                0.00      0.00      0.00

     dft-nl  stress (kbar)      0.00      0.00      0.00
                                0.00      0.00      0.00
                                0.00      0.00      0.00

     TS-vdW  stress (kbar)      0.00      0.00      0.00
                                0.00      0.00      0.00
                                0.00      0.00      0.00

     MDB     stress (kbar)      0.00      0.00      0.00
                                0.00      0.00      0.00
                                0.00      0.00      0.00

     3D-RISM stress (kbar)      0.00      0.00      0.00
                                0.00      0.00      0.00
                                0.00      0.00      0.00


     BFGS Geometry Optimization
     Energy error            =      1.2E-03 Ry
     Gradient error          =      0.0E+00 Ry/Bohr
     Cell gradient error     =      2.7E+01 kbar

     number of scf cycles    =   1
     number of bfgs steps    =   0

     enthalpy           new  =    -128.9799597444 Ry

     new trust radius        =       0.0197705071 bohr
     new conv_thr            =            1.0E-10 Ry

     new unit-cell volume =    465.86310 a.u.^3 (    69.03379 Ang^3 )
     density =      5.77330 g/cm^3

CELL_PARAMETERS (angstrom)
  -0.000000000   3.255946345   3.255946345
   3.255946345  -0.000000000   3.255946345
   3.255946345   3.255946345  -0.000000000

ATOMIC_POSITIONS (crystal)
Cd               0.0000000000        0.0000000000        0.0000000000
Te               0.2500000000        0.2500000000        0.2500000000



     Writing config-only to output data dir /home/User/opencode_workspace/DFT/calculations/cdte/relax_soc/out/pwscf.save/ :
     XML data file
     NEW-OLD atomic charge density approx. for the potential
     New effective cutoffs (rho, wfc):  713.29  118.89

     total cpu time spent up to now is      268.4 secs

     per-process dynamical memory:   128.3 Mb

     Self-consistent Calculation

     iteration #  1     ecut=   120.00 Ry     beta= 0.30
     Davidson diagonalization with overlap

---- Real-time Memory Report at c_bands before calling an iterative solver
           419 MiB given to the printing process from OS
           125 MiB allocation reported by mallinfo(arena+hblkhd)
          7478 MiB available memory on the node where the printing process lives
------------------
     ethr =  1.00E-06,  avg # of iterations =  7.3

     Threshold (ethr) on eigenvalues was too large:
     Diagonalizing with lowered threshold

     Davidson diagonalization with overlap

---- Real-time Memory Report at c_bands before calling an iterative solver
           419 MiB given to the printing process from OS
           130 MiB allocation reported by mallinfo(arena+hblkhd)
          7387 MiB available memory on the node where the printing process lives
------------------
     ethr =  3.69E-08,  avg # of iterations =  6.4

     total cpu time spent up to now is      290.4 secs

     total energy              =    -128.98099648 Ry
     estimated scf accuracy    <       0.00000803 Ry

     iteration #  2     ecut=   120.00 Ry     beta= 0.30
     Davidson diagonalization with overlap

---- Real-time Memory Report at c_bands before calling an iterative solver
           419 MiB given to the printing process from OS
           139 MiB allocation reported by mallinfo(arena+hblkhd)
          7475 MiB available memory on the node where the printing process lives
------------------
     ethr =  4.46E-08,  avg # of iterations =  1.1

     total cpu time spent up to now is      296.3 secs

     total energy              =    -128.98099630 Ry
     estimated scf accuracy    <       0.00000271 Ry

     iteration #  3     ecut=   120.00 Ry     beta= 0.30
     Davidson diagonalization with overlap

---- Real-time Memory Report at c_bands before calling an iterative solver
           419 MiB given to the printing process from OS
           140 MiB allocation reported by mallinfo(arena+hblkhd)
          7516 MiB available memory on the node where the printing process lives
------------------
     ethr =  1.51E-08,  avg # of iterations =  2.1

     total cpu time spent up to now is      303.9 secs

     total energy              =    -128.98099699 Ry
     estimated scf accuracy    <       0.00000027 Ry

     iteration #  4     ecut=   120.00 Ry     beta= 0.30
     Davidson diagonalization with overlap

---- Real-time Memory Report at c_bands before calling an iterative solver
           419 MiB given to the printing process from OS
           142 MiB allocation reported by mallinfo(arena+hblkhd)
          7287 MiB available memory on the node where the printing process lives
------------------
     ethr =  1.51E-09,  avg # of iterations =  5.6

     total cpu time spent up to now is      312.6 secs

     total energy              =    -128.98099724 Ry
     estimated scf accuracy    <       0.00000004 Ry

     iteration #  5     ecut=   120.00 Ry     beta= 0.30
     Davidson diagonalization with overlap

---- Real-time Memory Report at c_bands before calling an iterative solver
           419 MiB given to the printing process from OS
           144 MiB allocation reported by mallinfo(arena+hblkhd)
          7347 MiB available memory on the node where the printing process lives
------------------
     ethr =  2.23E-10,  avg # of iterations =  5.4

     total cpu time spent up to now is      320.9 secs

     total energy              =    -128.98099731 Ry
     estimated scf accuracy    <       0.00000001 Ry

     iteration #  6     ecut=   120.00 Ry     beta= 0.30
     Davidson diagonalization with overlap

---- Real-time Memory Report at c_bands before calling an iterative solver
           419 MiB given to the printing process from OS
           145 MiB allocation reported by mallinfo(arena+hblkhd)
          7293 MiB available memory on the node where the printing process lives
------------------
     ethr =  7.75E-11,  avg # of iterations =  4.4

     total cpu time spent up to now is      330.2 secs

     total energy              =    -128.98099734 Ry
     estimated scf accuracy    <          7.9E-09 Ry

     iteration #  7     ecut=   120.00 Ry     beta= 0.30
     Davidson diagonalization with overlap

---- Real-time Memory Report at c_bands before calling an iterative solver
           419 MiB given to the printing process from OS
           147 MiB allocation reported by mallinfo(arena+hblkhd)
          7462 MiB available memory on the node where the printing process lives
------------------
     ethr =  4.39E-11,  avg # of iterations =  3.5

     total cpu time spent up to now is      338.6 secs

     total energy              =    -128.98099736 Ry
     estimated scf accuracy    <          1.3E-09 Ry

     iteration #  8     ecut=   120.00 Ry     beta= 0.30
     Davidson diagonalization with overlap

---- Real-time Memory Report at c_bands before calling an iterative solver
           419 MiB given to the printing process from OS
           149 MiB allocation reported by mallinfo(arena+hblkhd)
          7277 MiB available memory on the node where the printing process lives
------------------
     ethr =  7.09E-12,  avg # of iterations =  7.3

     total cpu time spent up to now is      350.8 secs

     total energy              =    -128.98099736 Ry
     estimated scf accuracy    <       0.00000001 Ry

     iteration #  9     ecut=   120.00 Ry     beta= 0.30
     Davidson diagonalization with overlap

---- Real-time Memory Report at c_bands before calling an iterative solver
           419 MiB given to the printing process from OS
           150 MiB allocation reported by mallinfo(arena+hblkhd)
          7312 MiB available memory on the node where the printing process lives
------------------
     ethr =  7.09E-12,  avg # of iterations =  6.9

     total cpu time spent up to now is      364.3 secs

     total energy              =    -128.98099737 Ry
     estimated scf accuracy    <          2.8E-10 Ry

     iteration # 10     ecut=   120.00 Ry     beta= 0.30
     Davidson diagonalization with overlap

---- Real-time Memory Report at c_bands before calling an iterative solver
           420 MiB given to the printing process from OS
           152 MiB allocation reported by mallinfo(arena+hblkhd)
          7420 MiB available memory on the node where the printing process lives
------------------
     ethr =  1.55E-12,  avg # of iterations =  5.5

     total cpu time spent up to now is      372.7 secs

     End of self-consistent calculation

          k = 0.0000 0.0000 0.0000 ( 10177 PWs)   bands (ev):

    -6.1195  -6.1195  -3.5817  -3.5817  -3.5817  -3.5817  -3.0308  -3.0308
    -2.8256  -2.8256  -2.8256  -2.8256   4.3820   4.3820   5.2394   5.2394
     5.2394   5.2394

     occupation numbers 
     1.0000   1.0000   1.0000   1.0000   1.0000   1.0000   1.0000   1.0000
     1.0000   1.0000   1.0000   1.0000   1.0000   1.0000   1.0000   1.0000
     1.0000   1.0000

          k = 0.0704 0.0704-0.0704 ( 10168 PWs)   bands (ev):

    -6.0828  -6.0828  -3.5868  -3.5723  -3.5630  -3.5630  -3.0163  -3.0163
    -2.8303  -2.8238  -2.8238  -2.8118   3.9023   3.9023   4.6956   4.6956
     5.1409   5.1528

     occupation numbers 
     1.0000   1.0000   1.0000   1.0000   1.0000   1.0000   1.0000   1.0000
     1.0000   1.0000   1.0000   1.0000   1.0000   1.0000   1.0000   1.0000
     1.0000   1.0000

          k = 0.1408 0.1408-0.1408 ( 10141 PWs)   bands (ev):

    -5.9867  -5.9867  -3.5862  -3.5626  -3.5076  -3.5076  -2.9779  -2.9779
    -2.8235  -2.8073  -2.8073  -2.7935   2.7974   2.7974   4.3997   4.3997
     4.9190   4.9370

     occupation numbers 
     1.0000   1.0000   1.0000   1.0000   1.0000   1.0000   1.0000   1.0000
     1.0000   1.0000   1.0000   1.0000   1.0000   1.0000   1.0000   1.0000
     1.0000   1.0000

          k = 0.2112 0.2112-0.2112 ( 10180 PWs)   bands (ev):

    -5.8683  -5.8683  -3.5806  -3.5571  -3.4266  -3.4266  -2.9435  -2.9435
    -2.8066  -2.7766  -2.7341  -2.7341   1.7213   1.7213   4.1606   4.1606
     4.6835   4.7005

     occupation numbers 
     1.0000   1.0000   1.0000   1.0000   1.0000   1.0000   1.0000   1.0000
     1.0000   1.0000   1.0000   1.0000   1.0000   1.0000   1.0000   1.0000
     1.0000   1.0000

          k = 0.2815 0.2815-0.2815 ( 10197 PWs)   bands (ev):

    -5.7743  -5.7743  -3.5724  -3.5579  -3.3540  -3.3540  -2.9341  -2.9341
    -2.7861  -2.7675  -2.5933  -2.5933   0.9109   0.9109   3.9929   3.9929
     4.5161   4.5262

     occupation numbers 
     1.0000   1.0000   1.0000   1.0000   1.0000   1.0000   1.0000   1.0000
     1.0000   1.0000   1.0000   1.0000   1.0000   1.0000   1.0000   1.0000
     1.0000   1.0000

          k =-0.3519-0.3519 0.3519 ( 10200 PWs)   bands (ev):

    -5.7390  -5.7390  -3.5639  -3.5639  -3.3258  -3.3258  -2.9336  -2.9336
    -2.7709  -2.7709  -2.5089  -2.5089   0.5935   0.5935   3.9328   3.9328
     4.4597   4.4597

     occupation numbers 
     1.0000   1.0000   1.0000   1.0000   1.0000   1.0000   1.0000   1.0000
     1.0000   1.0000   1.0000   1.0000   1.0000   1.0000   1.0000   1.0000
     1.0000   1.0000

          k = 0.1408 0.0000 0.0000 ( 10161 PWs)   bands (ev):

    -6.0707  -6.0707  -3.5772  -3.5772  -3.5585  -3.5585  -3.0112  -3.0112
    -2.8314  -2.8314  -2.8116  -2.8116   3.8522   3.8522   4.5708   4.5708
     4.9655   4.9655

     occupation numbers 
     1.0000   1.0000   1.0000   1.0000   1.0000   1.0000   1.0000   1.0000
     1.0000   1.0000   1.0000   1.0000   1.0000   1.0000   1.0000   1.0000
     1.0000   1.0000

          k = 0.2112 0.0704-0.0704 ( 10180 PWs)   bands (ev):

    -5.9952  -5.9938  -3.5793  -3.5584  -3.5322  -3.5066  -2.9839  -2.9745
    -2.8285  -2.8284  -2.7996  -2.7896   3.0194   3.0728   4.2241   4.3200
     4.7266   4.7420

     occupation numbers 
     1.0000   1.0000   1.0000   1.0000   1.0000   1.0000   1.0000   1.0000
     1.0000   1.0000   1.0000   1.0000   1.0000   1.0000   1.0000   1.0000
     1.0000   1.0000

          k = 0.2815 0.1408-0.1408 ( 10192 PWs)   bands (ev):

    -5.8859  -5.8817  -3.5755  -3.5497  -3.4750  -3.4184  -2.9494  -2.9320
    -2.8124  -2.8052  -2.7510  -2.7418   2.0001   2.0576   3.9503   4.0659
     4.4668   4.4890

     occupation numbers 
     1.0000   1.0000   1.0000   1.0000   1.0000   1.0000   1.0000   1.0000
     1.0000   1.0000   1.0000   1.0000   1.0000   1.0000   1.0000   1.0000
     1.0000   1.0000

          k = 0.3519 0.2112-0.2112 ( 10195 PWs)   bands (ev):

    -5.7861  -5.7786  -3.5682  -3.5482  -3.4137  -3.3264  -2.9355  -2.9169
    -2.7919  -2.7783  -2.6491  -2.6026   1.1297   1.1877   3.7318   3.8591
     4.2563   4.2866

     occupation numbers 
     1.0000   1.0000   1.0000   1.0000   1.0000   1.0000   1.0000   1.0000
     1.0000   1.0000   1.0000   1.0000   1.0000   1.0000   1.0000   1.0000
     1.0000   1.0000

          k =-0.2815-0.4223 0.4223 ( 10176 PWs)   bands (ev):

    -5.7331  -5.7234  -3.5598  -3.5527  -3.3789  -3.2750  -2.9354  -2.9153
    -2.7754  -2.7718  -2.5377  -2.4740   0.6458   0.7058   3.5925   3.7259
     4.1850   4.2140

     occupation numbers 
     1.0000   1.0000   1.0000   1.0000   1.0000   1.0000   1.0000   1.0000
     1.0000   1.0000   1.0000   1.0000   1.0000   1.0000   1.0000   1.0000
     1.0000   1.0000

          k =-0.2112-0.3519 0.3519 ( 10191 PWs)   bands (ev):

    -5.7447  -5.7351  -3.5608  -3.5531  -3.3876  -3.2842  -2.9365  -2.9148
    -2.7804  -2.7700  -2.5688  -2.5019   0.7491   0.8124   3.5598   3.6981
     4.2696   4.2907

     occupation numbers 
     1.0000   1.0000   1.0000   1.0000   1.0000   1.0000   1.0000   1.0000
     1.0000   1.0000   1.0000   1.0000   1.0000   1.0000   1.0000   1.0000
     1.0000   1.0000

          k =-0.1408-0.2815 0.2815 ( 10197 PWs)   bands (ev):

    -5.8171  -5.8098  -3.5697  -3.5508  -3.4357  -3.3503  -2.9415  -2.9177
    -2.7983  -2.7789  -2.7032  -2.6467   1.3857   1.4553   3.6568   3.8060
     4.4725   4.4874

     occupation numbers 
     1.0000   1.0000   1.0000   1.0000   1.0000   1.0000   1.0000   1.0000
     1.0000   1.0000   1.0000   1.0000   1.0000   1.0000   1.0000   1.0000
     1.0000   1.0000

          k =-0.0704-0.2112 0.2112 ( 10181 PWs)   bands (ev):

    -5.9250  -5.9210  -3.5775  -3.5548  -3.4987  -3.4449  -2.9644  -2.9418
    -2.8173  -2.8009  -2.7951  -2.7556   2.3129   2.3939   3.8940   4.0598
     4.7286   4.7423

     occupation numbers 
     1.0000   1.0000   1.0000   1.0000   1.0000   1.0000   1.0000   1.0000
     1.0000   1.0000   1.0000   1.0000   1.0000   1.0000   1.0000   1.0000
     1.0000   1.0000

          k = 0.0000-0.1408 0.1408 ( 10145 PWs)   bands (ev):

    -6.0271  -6.0257  -3.5834  -3.5640  -3.5462  -3.5231  -2.9981  -2.9879
    -2.8291  -2.8212  -2.8172  -2.7959   3.2642   3.3424   4.2825   4.4344
     4.9646   4.9757

     occupation numbers 
     1.0000   1.0000   1.0000   1.0000   1.0000   1.0000   1.0000   1.0000
     1.0000   1.0000   1.0000   1.0000   1.0000   1.0000   1.0000   1.0000
     1.0000   1.0000

          k = 0.2815 0.0000 0.0000 ( 10197 PWs)   bands (ev):

    -5.9432  -5.9432  -3.5591  -3.5591  -3.4963  -3.4963  -2.9540  -2.9540
    -2.8345  -2.8345  -2.7758  -2.7758   2.8013   2.8013   3.9877   3.9877
     4.3888   4.3888

     occupation numbers 
     1.0000   1.0000   1.0000   1.0000   1.0000   1.0000   1.0000   1.0000
     1.0000   1.0000   1.0000   1.0000   1.0000   1.0000   1.0000   1.0000
     1.0000   1.0000

          k = 0.3519 0.0704-0.0704 ( 10207 PWs)   bands (ev):

    -5.8553  -5.8510  -3.5590  -3.5363  -3.4741  -3.4111  -2.9229  -2.9117
    -2.8326  -2.8185  -2.7330  -2.7272   2.0804   2.1540   3.6271   3.7692
     4.0748   4.1135

     occupation numbers 
     1.0000   1.0000   1.0000   1.0000   1.0000   1.0000   1.0000   1.0000
     1.0000   1.0000   1.0000   1.0000   1.0000   1.0000   1.0000   1.0000
     1.0000   1.0000

          k = 0.4223 0.1408-0.1408 ( 10199 PWs)   bands (ev):

    -5.7655  -5.7549  -3.5543  -3.5242  -3.4425  -3.3106  -2.9077  -2.8957
    -2.8083  -2.7942  -2.6513  -2.5957   1.3224   1.4308   3.2804   3.4905
     3.8377   3.8992

     occupation numbers 
     1.0000   1.0000   1.0000   1.0000   1.0000   1.0000   1.0000   1.0000
     1.0000   1.0000   1.0000   1.0000   1.0000   1.0000   1.0000   1.0000
     1.0000   1.0000

          k =-0.2112-0.4927 0.4927 ( 10212 PWs)   bands (ev):

    -5.7080  -5.6918  -3.5477  -3.5240  -3.4191  -3.2412  -2.9116  -2.8937
    -2.7853  -2.7775  -2.5414  -2.4414   0.7945   0.9242   2.9798   3.1979
     3.8035   3.8486

     occupation numbers 
     1.0000   1.0000   1.0000   1.0000   1.0000   1.0000   1.0000   1.0000
     1.0000   1.0000   1.0000   1.0000   1.0000   1.0000   1.0000   1.0000
     1.0000   1.0000

          k =-0.1408-0.4223 0.4223 ( 10205 PWs)   bands (ev):

    -5.7020  -5.6838  -3.5421  -3.5314  -3.4194  -3.2270  -2.9185  -2.8933
    -2.7797  -2.7716  -2.5248  -2.4049   0.7153   0.8629   2.8074   3.0336
     3.9384   3.9666

     occupation numbers 
     1.0000   1.0000   1.0000   1.0000   1.0000   1.0000   1.0000   1.0000
     1.0000   1.0000   1.0000   1.0000   1.0000   1.0000   1.0000   1.0000
     1.0000   1.0000

          k =-0.0704-0.3519 0.3519 ( 10196 PWs)   bands (ev):

    -5.7491  -5.7335  -3.5435  -3.5404  -3.4439  -3.2689  -2.9258  -2.8937
    -2.7878  -2.7782  -2.6359  -2.5191   1.1051   1.2682   2.8449   3.0896
     4.1891   4.2080

     occupation numbers 
     1.0000   1.0000   1.0000   1.0000   1.0000   1.0000   1.0000   1.0000
     1.0000   1.0000   1.0000   1.0000   1.0000   1.0000   1.0000   1.0000
     1.0000   1.0000

          k = 0.0000-0.2815 0.2815 ( 10157 PWs)   bands (ev):

    -5.8338  -5.8238  -3.5599  -3.5451  -3.4764  -3.3538  -2.9412  -2.9056
    -2.8033  -2.7925  -2.7474  -2.6640   1.7221   1.8739   3.2018   3.4443
     4.4804   4.4972

     occupation numbers 
     1.0000   1.0000   1.0000   1.0000   1.0000   1.0000   1.0000   1.0000
     1.0000   1.0000   1.0000   1.0000   1.0000   1.0000   1.0000   1.0000
     1.0000   1.0000

          k = 0.4223 0.0000 0.0000 ( 10213 PWs)   bands (ev):

    -5.7885  -5.7885  -3.5374  -3.5374  -3.4057  -3.4057  -2.8850  -2.8850
    -2.8275  -2.8275  -2.6842  -2.6842   1.7951   1.7951   3.4597   3.4597
     3.8275   3.8275

     occupation numbers 
     1.0000   1.0000   1.0000   1.0000   1.0000   1.0000   1.0000   1.0000
     1.0000   1.0000   1.0000   1.0000   1.0000   1.0000   1.0000   1.0000
     1.0000   1.0000

          k = 0.4927 0.0704-0.0704 ( 10197 PWs)   bands (ev):

    -5.7202  -5.7123  -3.5374  -3.5158  -3.4073  -3.3098  -2.8773  -2.8603
    -2.8319  -2.7944  -2.6067  -2.5661   1.2666   1.3516   3.1087   3.2707
     3.5531   3.6039

     occupation numbers 
     1.0000   1.0000   1.0000   1.0000   1.0000   1.0000   1.0000   1.0000
     1.0000   1.0000   1.0000   1.0000   1.0000   1.0000   1.0000   1.0000
     1.0000   1.0000

          k =-0.1408-0.5631 0.5631 ( 10221 PWs)   bands (ev):

    -5.6727  -5.6560  -3.5348  -3.4985  -3.4201  -3.2322  -2.8783  -2.8682
    -2.8088  -2.7743  -2.5089  -2.4122   0.8530   1.0137   2.6678   2.9147
     3.4693   3.5212

     occupation numbers 
     1.0000   1.0000   1.0000   1.0000   1.0000   1.0000   1.0000   1.0000
     1.0000   1.0000   1.0000   1.0000   1.0000   1.0000   1.0000   1.0000
     1.0000   1.0000

          k =-0.0704-0.4927 0.4927 ( 10211 PWs)   bands (ev):

    -5.6620  -5.6399  -3.5324  -3.4927  -3.4394  -3.1993  -2.8866  -2.8798
    -2.7886  -2.7679  -2.4669  -2.3328   0.7153   0.9425   2.3206   2.6188
     3.6026   3.6351

     occupation numbers 
     1.0000   1.0000   1.0000   1.0000   1.0000   1.0000   1.0000   1.0000
     1.0000   1.0000   1.0000   1.0000   1.0000   1.0000   1.0000   1.0000
     1.0000   1.0000

          k =-0.0000-0.4223 0.4223 ( 10221 PWs)   bands (ev):

    -5.6906  -5.6690  -3.5336  -3.5110  -3.4478  -3.2132  -2.9059  -2.8827
    -2.7822  -2.7717  -2.5329  -2.3880   0.8564   1.1006   2.3216   2.6370
     3.8690   3.8909

     occupation numbers 
     1.0000   1.0000   1.0000   1.0000   1.0000   1.0000   1.0000   1.0000
     1.0000   1.0000   1.0000   1.0000   1.0000   1.0000   1.0000   1.0000
     1.0000   1.0000

          k = 0.5631 0.0000 0.0000 ( 10218 PWs)   bands (ev):

    -5.6683  -5.6683  -3.5209  -3.5209  -3.3272  -3.3272  -2.8589  -2.8589
    -2.8011  -2.8011  -2.5116  -2.5116   1.0149   1.0149   3.0920   3.0920
     3.4423   3.4423

     occupation numbers 
     1.0000   1.0000   1.0000   1.0000   1.0000   1.0000   1.0000   1.0000
     1.0000   1.0000   1.0000   1.0000   1.0000   1.0000   1.0000   1.0000
     1.0000   1.0000

          k =-0.0704-0.6335 0.6335 ( 10234 PWs)   bands (ev):

    -5.6406  -5.6300  -3.5243  -3.5042  -3.3637  -3.2509  -2.8676  -2.8383
    -2.8174  -2.7740  -2.4522  -2.3937   0.7471   0.8382   2.8144   2.9783
     3.2785   3.3290

     occupation numbers 
     1.0000   1.0000   1.0000   1.0000   1.0000   1.0000   1.0000   1.0000
     1.0000   1.0000   1.0000   1.0000   1.0000   1.0000   1.0000   1.0000
     1.0000   1.0000

          k = 0.0000-0.5631 0.5631 ( 10215 PWs)   bands (ev):

    -5.6386  -5.6194  -3.5270  -3.4878  -3.4122  -3.2063  -2.8733  -2.8529
    -2.8072  -2.7653  -2.4311  -2.3219   0.6774   0.8643   2.4202   2.6832
     3.3471   3.3928

     occupation numbers 
     1.0000   1.0000   1.0000   1.0000   1.0000   1.0000   1.0000   1.0000
     1.0000   1.0000   1.0000   1.0000   1.0000   1.0000   1.0000   1.0000
     1.0000   1.0000

          k =-0.7039 0.0000 0.0000 ( 10190 PWs)   bands (ev):

    -5.6241  -5.6241  -3.5149  -3.5149  -3.2978  -3.2978  -2.8546  -2.8546
    -2.7878  -2.7878  -2.4048  -2.4048   0.6988   0.6988   2.9609   2.9609
     3.3064   3.3064

     occupation numbers 
     1.0000   1.0000   1.0000   1.0000   1.0000   1.0000   1.0000   1.0000
     1.0000   1.0000   1.0000   1.0000   1.0000   1.0000   1.0000   1.0000
     1.0000   1.0000

          k = 0.2815 0.1408 0.0000 ( 10192 PWs)   bands (ev):

    -5.9134  -5.9090  -3.5700  -3.5467  -3.5046  -3.4412  -2.9555  -2.9334
    -2.8247  -2.8200  -2.7764  -2.7510   2.3781   2.4792   3.7328   3.9372
     4.4464   4.5377

     occupation numbers 
     1.0000   1.0000   1.0000   1.0000   1.0000   1.0000   1.0000   1.0000
     1.0000   1.0000   1.0000   1.0000   1.0000   1.0000   1.0000   1.0000
     1.0000   1.0000

          k = 0.3519 0.2112-0.0704 ( 10186 PWs)   bands (ev):

    -5.8144  -5.8049  -3.5605  -3.5379  -3.4632  -3.3452  -2.9304  -2.9042
    -2.8030  -2.8005  -2.7139  -2.6517   1.5938   1.7129   3.3250   3.5477
     4.1966   4.2926

     occupation numbers 
     1.0000   1.0000   1.0000   1.0000   1.0000   1.0000   1.0000   1.0000
     1.0000   1.0000   1.0000   1.0000   1.0000   1.0000   1.0000   1.0000
     1.0000   1.0000

          k =-0.2815-0.4223 0.5631 ( 10192 PWs)   bands (ev):

    -5.7366  -5.7223  -3.5514  -3.5365  -3.4234  -3.2650  -2.9235  -2.8986
    -2.7844  -2.7801  -2.5940  -2.4987   0.9321   1.0500   3.1180   3.3329
     3.9795   4.0674

     occupation numbers 
     1.0000   1.0000   1.0000   1.0000   1.0000   1.0000   1.0000   1.0000
     1.0000   1.0000   1.0000   1.0000   1.0000   1.0000   1.0000   1.0000
     1.0000   1.0000

          k =-0.2112-0.3519 0.4927 ( 10210 PWs)   bands (ev):

    -5.7076  -5.6913  -3.5454  -3.5392  -3.4072  -3.2356  -2.9235  -2.8987
    -2.7765  -2.7739  -2.5205  -2.4158   0.6640   0.7811   3.0574   3.2688
     3.8934   3.9765

     occupation numbers 
     1.0000   1.0000   1.0000   1.0000   1.0000   1.0000   1.0000   1.0000
     1.0000   1.0000   1.0000   1.0000   1.0000   1.0000   1.0000   1.0000
     1.0000   1.0000

          k = 0.4223 0.1408-0.0000 ( 10195 PWs)   bands (ev):

    -5.7766  -5.7678  -3.5482  -3.5229  -3.4495  -3.3350  -2.8952  -2.8894
    -2.8268  -2.8008  -2.6772  -2.6310   1.5571   1.6717   3.1964   3.4437
     3.7547   3.9045

     occupation numbers 
     1.0000   1.0000   1.0000   1.0000   1.0000   1.0000   1.0000   1.0000
     1.0000   1.0000   1.0000   1.0000   1.0000   1.0000   1.0000   1.0000
     1.0000   1.0000

          k =-0.2112-0.4927 0.6335 ( 10199 PWs)   bands (ev):

    -5.7085  -5.6926  -3.5391  -3.5110  -3.4371  -3.2525  -2.8898  -2.8821
    -2.8052  -2.7818  -2.5762  -2.4803   1.0380   1.1993   2.8080   3.0902
     3.5421   3.6827

     occupation numbers 
     1.0000   1.0000   1.0000   1.0000   1.0000   1.0000   1.0000   1.0000
     1.0000   1.0000   1.0000   1.0000   1.0000   1.0000   1.0000   1.0000
     1.0000   1.0000

          k =-0.1408-0.4223 0.5631 ( 10200 PWs)   bands (ev):

    -5.6749  -5.6539  -3.5324  -3.5081  -3.4340  -3.2075  -2.8959  -2.8815
    -2.7868  -2.7727  -2.4890  -2.3627   0.7388   0.9325   2.5476   2.8339
     3.5092   3.6117

     occupation numbers 
     1.0000   1.0000   1.0000   1.0000   1.0000   1.0000   1.0000   1.0000
     1.0000   1.0000   1.0000   1.0000   1.0000   1.0000   1.0000   1.0000
     1.0000   1.0000

          k =-0.0704-0.3519 0.4927 ( 10204 PWs)   bands (ev):

    -5.6862  -5.6649  -3.5307  -3.5152  -3.4408  -3.2119  -2.9032  -2.8825
    -2.7825  -2.7749  -2.5172  -2.3824   0.8089   1.0208   2.4719   2.7683
     3.6589   3.7512

     occupation numbers 
     1.0000   1.0000   1.0000   1.0000   1.0000   1.0000   1.0000   1.0000
     1.0000   1.0000   1.0000   1.0000   1.0000   1.0000   1.0000   1.0000
     1.0000   1.0000

          k = 0.0000-0.2815 0.4223 ( 10208 PWs)   bands (ev):

    -5.7385  -5.7220  -3.5404  -3.5266  -3.4527  -3.2632  -2.9130  -2.8872
    -2.7915  -2.7856  -2.6286  -2.5136   1.1649   1.3572   2.7116   2.9976
     3.9254   4.0234

     occupation numbers 
     1.0000   1.0000   1.0000   1.0000   1.0000   1.0000   1.0000   1.0000
     1.0000   1.0000   1.0000   1.0000   1.0000   1.0000   1.0000   1.0000
     1.0000   1.0000

          k =-0.1408-0.5631 0.7039 ( 10195 PWs)   bands (ev):

    -5.6709  -5.6577  -3.5294  -3.5048  -3.4010  -3.2526  -2.8734  -2.8460
    -2.8267  -2.7778  -2.5187  -2.4451   0.9274   1.0512   2.8389   3.0971
     3.2527   3.3975

     occupation numbers 
     1.0000   1.0000   1.0000   1.0000   1.0000   1.0000   1.0000   1.0000
     1.0000   1.0000   1.0000   1.0000   1.0000   1.0000   1.0000   1.0000
     1.0000   1.0000

          k =-0.0704-0.4927 0.6335 ( 10207 PWs)   bands (ev):

    -5.6461  -5.6256  -3.5244  -3.4906  -3.4250  -3.2035  -2.8759  -2.8561
    -2.8065  -2.7680  -2.4464  -2.3329   0.7250   0.9206   2.4886   2.7801
     3.1888   3.2819

     occupation numbers 
     1.0000   1.0000   1.0000   1.0000   1.0000   1.0000   1.0000   1.0000
     1.0000   1.0000   1.0000   1.0000   1.0000   1.0000   1.0000   1.0000
     1.0000   1.0000

          k = 0.0000-0.4223 0.5631 ( 10193 PWs)   bands (ev):

    -5.6522  -5.6283  -3.5239  -3.4863  -3.4498  -3.1893  -2.8844  -2.8712
    -2.7888  -2.7691  -2.4471  -2.3093   0.7178   0.9715   2.2471   2.5773
     3.3577   3.4406

     occupation numbers 
     1.0000   1.0000   1.0000   1.0000   1.0000   1.0000   1.0000   1.0000
     1.0000   1.0000   1.0000   1.0000   1.0000   1.0000   1.0000   1.0000
     1.0000   1.0000

          k =-0.7039 0.1408 0.0000 ( 10224 PWs)   bands (ev):

    -5.6321  -5.6171  -3.5222  -3.4984  -3.3820  -3.2242  -2.8694  -2.8273
    -2.8268  -2.7677  -2.4249  -2.3440   0.6739   0.8016   2.7221   2.9391
     3.1360   3.1721

     occupation numbers 
     1.0000   1.0000   1.0000   1.0000   1.0000   1.0000   1.0000   1.0000
     1.0000   1.0000   1.0000   1.0000   1.0000   1.0000   1.0000   1.0000
     1.0000   1.0000

          k =-0.1408-0.4223 0.7039 ( 10230 PWs)   bands (ev):

    -5.6648  -5.6427  -3.5219  -3.4995  -3.4448  -3.2029  -2.8850  -2.8696
    -2.7957  -2.7732  -2.4838  -2.3569   0.8108   1.0351   2.4486   2.7896
     3.2269   3.3772

     occupation numbers 
     1.0000   1.0000   1.0000   1.0000   1.0000   1.0000   1.0000   1.0000
     1.0000   1.0000   1.0000   1.0000   1.0000   1.0000   1.0000   1.0000
     1.0000   1.0000

          k =-0.0704-0.3519 0.6335 ( 10214 PWs)   bands (ev):

    -5.6486  -5.6239  -3.5149  -3.4916  -3.4525  -3.1844  -2.8851  -2.8651
    -2.7892  -2.7722  -2.4370  -2.3013   0.7174   0.9670   2.3388   2.6960
     3.0918   3.2181

     occupation numbers 
     1.0000   1.0000   1.0000   1.0000   1.0000   1.0000   1.0000   1.0000
     1.0000   1.0000   1.0000   1.0000   1.0000   1.0000   1.0000   1.0000
     1.0000   1.0000

          k =-0.7039 0.2815 0.0000 ( 10200 PWs)   bands (ev):

    -5.6376  -5.6133  -3.5130  -3.4856  -3.4467  -3.1831  -2.8790  -2.8533
    -2.7993  -2.7690  -2.4158  -2.2878   0.6932   0.9292   2.4335   2.8422
     2.9199   2.9233

     occupation numbers 
     1.0000   1.0000   1.0000   1.0000   1.0000   1.0000   1.0000   1.0000
     1.0000   1.0000   1.0000   1.0000   1.0000   1.0000   1.0000   1.0000
     1.0000   1.0000

     highest occupied level (ev):     5.2394

!    total energy              =    -128.98099737 Ry
     estimated scf accuracy    <          1.9E-11 Ry

     The total energy is the sum of the following terms:
     one-electron contribution =     -49.25765115 Ry
     hartree contribution      =      36.23221989 Ry
     xc contribution           =     -39.50689340 Ry
     ewald contribution        =     -76.44867272 Ry

     convergence has been achieved in  10 iterations

     Forces acting on atoms (cartesian axes, Ry/au):

     atom    1 type  1   force =     0.00000000   -0.00000000   -0.00000000
     atom    2 type  2   force =     0.00000000    0.00000000   -0.00000000
     The non-local contrib.  to forces
     atom    1 type  1   force =    -0.00000000   -0.00000000    0.00000000
     atom    2 type  2   force =     0.00000000   -0.00000000   -0.00000000
     The ionic contribution  to forces
     atom    1 type  1   force =    -0.00000000    0.00000000    0.00000000
     atom    2 type  2   force =     0.00000000   -0.00000000   -0.00000000
     The local contribution  to forces
     atom    1 type  1   force =    -0.00000000    0.00000000    0.00000000
     atom    2 type  2   force =    -0.00000000   -0.00000000    0.00000000
     The core correction contribution to forces
     atom    1 type  1   force =     0.00000000    0.00000000   -0.00000000
     atom    2 type  2   force =     0.00000000    0.00000000   -0.00000000
     The Hubbard contrib.    to forces
     atom    1 type  1   force =     0.00000000    0.00000000    0.00000000
     atom    2 type  2   force =     0.00000000    0.00000000    0.00000000
     The SCF correction term to forces
     atom    1 type  1   force =    -0.00000000    0.00000000   -0.00000000
     atom    2 type  2   force =    -0.00000000   -0.00000000   -0.00000000

     Total force =     0.000000     Total SCF correction =     0.000000


     Computing stress (Cartesian axis) and pressure

          total   stress  (Ry/bohr**3)                   (kbar)     P=       20.77
   0.00014120   0.00000000   0.00000000           20.77        0.00        0.00
   0.00000000   0.00014120   0.00000000            0.00       20.77        0.00
   0.00000000   0.00000000   0.00014120            0.00        0.00       20.77

     kinetic stress (kbar)   9460.41     -0.00      0.00
                               -0.00   9460.41     -0.00
                                0.00     -0.00   9460.41

     local   stress (kbar)    654.57      0.00      0.00
                                0.00    654.57     -0.00
                                0.00     -0.00    654.57

     nonloc. stress (kbar)  -3546.55      0.00      0.00
                                0.00  -3546.55      0.00
                               -0.00      0.00  -3546.55

     hartree stress (kbar)   3813.67     -0.00      0.00
                               -0.00   3813.67     -0.00
                                0.00     -0.00   3813.67

     exc-cor stress (kbar)   4429.70     -0.00      0.00
                               -0.00   4429.70      0.00
                                0.00      0.00   4429.70

     corecor stress (kbar)  -6744.31      0.00      0.00
                                0.00  -6744.31     -0.00
                                0.00     -0.00  -6744.31

     ewald   stress (kbar)  -8046.70      0.00      0.00
                                0.00  -8046.70      0.00
                                0.00      0.00  -8046.70

     hubbard stress (kbar)      0.00      0.00      0.00
                                0.00      0.00      0.00
                                0.00      0.00      0.00

     DFT-D   stress (kbar)      0.00      0.00      0.00
                                0.00      0.00      0.00
                                0.00      0.00      0.00

     XDM     stress (kbar)      0.00      0.00      0.00
                                0.00      0.00      0.00
                                0.00      0.00      0.00

     dft-nl  stress (kbar)      0.00      0.00      0.00
                                0.00      0.00      0.00
                                0.00      0.00      0.00

     TS-vdW  stress (kbar)      0.00      0.00      0.00
                                0.00      0.00      0.00
                                0.00      0.00      0.00

     MDB     stress (kbar)      0.00      0.00      0.00
                                0.00      0.00      0.00
                                0.00      0.00      0.00

     3D-RISM stress (kbar)      0.00      0.00      0.00
                                0.00      0.00      0.00
                                0.00      0.00      0.00

     Energy error            =      1.0E-03 Ry
     Gradient error          =      3.7E-31 Ry/Bohr
     Cell gradient error     =      2.1E+01 kbar

     number of scf cycles    =   2
     number of bfgs steps    =   1

     enthalpy           old  =    -128.9799597444 Ry
     enthalpy           new  =    -128.9809973694 Ry

     CASE: enthalpy          _new < enthalpy          _old

     new trust radius        =       0.0217976461 bohr
     new conv_thr            =            1.0E-12 Ry

     new unit-cell volume =    472.95596 a.u.^3 (    70.08484 Ang^3 )
     density =      5.68672 g/cm^3

CELL_PARAMETERS (angstrom)
   0.000000000   3.272387324   3.272387324
   3.272387324  -0.000000000   3.272387324
   3.272387324   3.272387324   0.000000000

ATOMIC_POSITIONS (crystal)
Cd              -0.0000000000        0.0000000000        0.0000000000
Te               0.2500000000        0.2500000000        0.2500000000



     Writing config-only to output data dir /home/User/opencode_workspace/DFT/calculations/cdte/relax_soc/out/pwscf.save/ :
     XML data file
     NEW-OLD atomic charge density approx. for the potential
     New effective cutoffs (rho, wfc):  706.14  117.70

     total cpu time spent up to now is      381.3 secs

     per-process dynamical memory:   128.3 Mb

     Self-consistent Calculation

     iteration #  1     ecut=   120.00 Ry     beta= 0.30
     Davidson diagonalization with overlap

---- Real-time Memory Report at c_bands before calling an iterative solver
           420 MiB given to the printing process from OS
           125 MiB allocation reported by mallinfo(arena+hblkhd)
          7645 MiB available memory on the node where the printing process lives
------------------
     ethr =  1.00E-06,  avg # of iterations =  7.3

     Threshold (ethr) on eigenvalues was too large:
     Diagonalizing with lowered threshold

     Davidson diagonalization with overlap

---- Real-time Memory Report at c_bands before calling an iterative solver
           420 MiB given to the printing process from OS
           130 MiB allocation reported by mallinfo(arena+hblkhd)
          7546 MiB available memory on the node where the printing process lives
------------------
     ethr =  3.87E-08,  avg # of iterations =  6.6

     total cpu time spent up to now is      403.0 secs

     total energy              =    -128.98183768 Ry
     estimated scf accuracy    <       0.00000962 Ry

     iteration #  2     ecut=   120.00 Ry     beta= 0.30
     Davidson diagonalization with overlap

---- Real-time Memory Report at c_bands before calling an iterative solver
           420 MiB given to the printing process from OS
           139 MiB allocation reported by mallinfo(arena+hblkhd)
          7331 MiB available memory on the node where the printing process lives
------------------
     ethr =  5.34E-08,  avg # of iterations =  1.0

     total cpu time spent up to now is      409.3 secs

     total energy              =    -128.98183729 Ry
     estimated scf accuracy    <       0.00000330 Ry

     iteration #  3     ecut=   120.00 Ry     beta= 0.30
     Davidson diagonalization with overlap

---- Real-time Memory Report at c_bands before calling an iterative solver
           420 MiB given to the printing process from OS
           140 MiB allocation reported by mallinfo(arena+hblkhd)
          7523 MiB available memory on the node where the printing process lives
------------------
     ethr =  1.84E-08,  avg # of iterations =  2.0

     total cpu time spent up to now is      417.6 secs

     total energy              =    -128.98183809 Ry
     estimated scf accuracy    <       0.00000031 Ry

     iteration #  4     ecut=   120.00 Ry     beta= 0.30
     Davidson diagonalization with overlap

---- Real-time Memory Report at c_bands before calling an iterative solver
           420 MiB given to the printing process from OS
           142 MiB allocation reported by mallinfo(arena+hblkhd)
          7519 MiB available memory on the node where the printing process lives
------------------
     ethr =  1.70E-09,  avg # of iterations =  6.0

     total cpu time spent up to now is      429.7 secs

     total energy              =    -128.98183837 Ry
     estimated scf accuracy    <       0.00000006 Ry

     iteration #  5     ecut=   120.00 Ry     beta= 0.30
     Davidson diagonalization with overlap

---- Real-time Memory Report at c_bands before calling an iterative solver
           420 MiB given to the printing process from OS
           144 MiB allocation reported by mallinfo(arena+hblkhd)
          7256 MiB available memory on the node where the printing process lives
------------------
     ethr =  3.55E-10,  avg # of iterations =  4.5

     total cpu time spent up to now is      437.1 secs

     total energy              =    -128.98183844 Ry
     estimated scf accuracy    <       0.00000003 Ry

     iteration #  6     ecut=   120.00 Ry     beta= 0.30
     Davidson diagonalization with overlap

---- Real-time Memory Report at c_bands before calling an iterative solver
           420 MiB given to the printing process from OS
           145 MiB allocation reported by mallinfo(arena+hblkhd)
          7371 MiB available memory on the node where the printing process lives
------------------
     ethr =  1.65E-10,  avg # of iterations =  4.3

     total cpu time spent up to now is      446.3 secs

     total energy              =    -128.98183847 Ry
     estimated scf accuracy    <          7.5E-09 Ry

     iteration #  7     ecut=   120.00 Ry     beta= 0.30
     Davidson diagonalization with overlap

---- Real-time Memory Report at c_bands before calling an iterative solver
           420 MiB given to the printing process from OS
           147 MiB allocation reported by mallinfo(arena+hblkhd)
          7480 MiB available memory on the node where the printing process lives
------------------
     ethr =  4.14E-11,  avg # of iterations =  4.7

     total cpu time spent up to now is      454.5 secs

     total energy              =    -128.98183849 Ry
     estimated scf accuracy    <       0.00000001 Ry

     iteration #  8     ecut=   120.00 Ry     beta= 0.30
     Davidson diagonalization with overlap

---- Real-time Memory Report at c_bands before calling an iterative solver
           420 MiB given to the printing process from OS
           149 MiB allocation reported by mallinfo(arena+hblkhd)
          7258 MiB available memory on the node where the printing process lives
------------------
     ethr =  4.14E-11,  avg # of iterations =  4.3

     total cpu time spent up to now is      464.0 secs

     total energy              =    -128.98183850 Ry
     estimated scf accuracy    <       0.00000001 Ry

     iteration #  9     ecut=   120.00 Ry     beta= 0.30
     Davidson diagonalization with overlap

---- Real-time Memory Report at c_bands before calling an iterative solver
           420 MiB given to the printing process from OS
           150 MiB allocation reported by mallinfo(arena+hblkhd)
          7247 MiB available memory on the node where the printing process lives
------------------
     ethr =  4.14E-11,  avg # of iterations =  1.5

     total cpu time spent up to now is      470.6 secs

     total energy              =    -128.98183850 Ry
     estimated scf accuracy    <          9.3E-09 Ry

     iteration # 10     ecut=   120.00 Ry     beta= 0.30
     Davidson diagonalization with overlap

---- Real-time Memory Report at c_bands before calling an iterative solver
           420 MiB given to the printing process from OS
           152 MiB allocation reported by mallinfo(arena+hblkhd)
          7252 MiB available memory on the node where the printing process lives
------------------
     ethr =  4.14E-11,  avg # of iterations =  1.0

     total cpu time spent up to now is      477.0 secs

     total energy              =    -128.98183850 Ry
     estimated scf accuracy    <          7.9E-09 Ry

     iteration # 11     ecut=   120.00 Ry     beta= 0.30
     Davidson diagonalization with overlap

---- Real-time Memory Report at c_bands before calling an iterative solver
           420 MiB given to the printing process from OS
           152 MiB allocation reported by mallinfo(arena+hblkhd)
          7256 MiB available memory on the node where the printing process lives
------------------
     ethr =  4.14E-11,  avg # of iterations =  1.0

     total cpu time spent up to now is      483.8 secs

     total energy              =    -128.98183850 Ry
     estimated scf accuracy    <          8.3E-09 Ry

     iteration # 12     ecut=   120.00 Ry     beta= 0.30
     Davidson diagonalization with overlap

---- Real-time Memory Report at c_bands before calling an iterative solver
           420 MiB given to the printing process from OS
           152 MiB allocation reported by mallinfo(arena+hblkhd)
          7296 MiB available memory on the node where the printing process lives
------------------
     ethr =  4.14E-11,  avg # of iterations =  1.0

     total cpu time spent up to now is      490.2 secs

     total energy              =    -128.98183850 Ry
     estimated scf accuracy    <          7.1E-09 Ry

     iteration # 13     ecut=   120.00 Ry     beta= 0.30
     Davidson diagonalization with overlap

---- Real-time Memory Report at c_bands before calling an iterative solver
           420 MiB given to the printing process from OS
           152 MiB allocation reported by mallinfo(arena+hblkhd)
          7454 MiB available memory on the node where the printing process lives
------------------
     ethr =  3.95E-11,  avg # of iterations =  1.0

     total cpu time spent up to now is      496.6 secs

     total energy              =    -128.98183850 Ry
     estimated scf accuracy    <       0.00000001 Ry

     iteration # 14     ecut=   120.00 Ry     beta= 0.30
     Davidson diagonalization with overlap

---- Real-time Memory Report at c_bands before calling an iterative solver
           420 MiB given to the printing process from OS
           152 MiB allocation reported by mallinfo(arena+hblkhd)
          7254 MiB available memory on the node where the printing process lives
------------------
     ethr =  3.95E-11,  avg # of iterations =  1.0

     total cpu time spent up to now is      503.4 secs

     total energy              =    -128.98183850 Ry
     estimated scf accuracy    <          8.9E-09 Ry

     iteration # 15     ecut=   120.00 Ry     beta= 0.30
     Davidson diagonalization with overlap

---- Real-time Memory Report at c_bands before calling an iterative solver
           420 MiB given to the printing process from OS
           152 MiB allocation reported by mallinfo(arena+hblkhd)
          7323 MiB available memory on the node where the printing process lives
------------------
     ethr =  3.95E-11,  avg # of iterations =  1.2

     total cpu time spent up to now is      510.4 secs

     total energy              =    -128.98183850 Ry
     estimated scf accuracy    <          4.2E-09 Ry

     iteration # 16     ecut=   120.00 Ry     beta= 0.30
     Davidson diagonalization with overlap

---- Real-time Memory Report at c_bands before calling an iterative solver
           420 MiB given to the printing process from OS
           152 MiB allocation reported by mallinfo(arena+hblkhd)
          7462 MiB available memory on the node where the printing process lives
------------------
     ethr =  2.32E-11,  avg # of iterations =  6.3

     total cpu time spent up to now is      519.6 secs

     total energy              =    -128.98183850 Ry
     estimated scf accuracy    <          2.4E-09 Ry

     iteration # 17     ecut=   120.00 Ry     beta= 0.30
     Davidson diagonalization with overlap

---- Real-time Memory Report at c_bands before calling an iterative solver
           420 MiB given to the printing process from OS
           152 MiB allocation reported by mallinfo(arena+hblkhd)
          7274 MiB available memory on the node where the printing process lives
------------------
     ethr =  1.33E-11,  avg # of iterations =  1.1

     total cpu time spent up to now is      526.9 secs

     total energy              =    -128.98183850 Ry
     estimated scf accuracy    <          2.8E-09 Ry

     iteration # 18     ecut=   120.00 Ry     beta= 0.30
     Davidson diagonalization with overlap

---- Real-time Memory Report at c_bands before calling an iterative solver
           420 MiB given to the printing process from OS
           152 MiB allocation reported by mallinfo(arena+hblkhd)
          7287 MiB available memory on the node where the printing process lives
------------------
     ethr =  1.33E-11,  avg # of iterations =  1.9

     total cpu time spent up to now is      533.6 secs

     total energy              =    -128.98183850 Ry
     estimated scf accuracy    <          2.6E-09 Ry

     iteration # 19     ecut=   120.00 Ry     beta= 0.30
     Davidson diagonalization with overlap

---- Real-time Memory Report at c_bands before calling an iterative solver
           420 MiB given to the printing process from OS
           152 MiB allocation reported by mallinfo(arena+hblkhd)
          7273 MiB available memory on the node where the printing process lives
------------------
     ethr =  1.33E-11,  avg # of iterations =  2.0

     total cpu time spent up to now is      542.2 secs

     total energy              =    -128.98183850 Ry
     estimated scf accuracy    <          2.0E-09 Ry

     iteration # 20     ecut=   120.00 Ry     beta= 0.30
     Davidson diagonalization with overlap

---- Real-time Memory Report at c_bands before calling an iterative solver
           420 MiB given to the printing process from OS
           152 MiB allocation reported by mallinfo(arena+hblkhd)
          7358 MiB available memory on the node where the printing process lives
------------------
     ethr =  1.12E-11,  avg # of iterations =  1.3

     total cpu time spent up to now is      548.8 secs

     total energy              =    -128.98183850 Ry
     estimated scf accuracy    <          8.9E-10 Ry

     iteration # 21     ecut=   120.00 Ry     beta= 0.30
     Davidson diagonalization with overlap

---- Real-time Memory Report at c_bands before calling an iterative solver
           420 MiB given to the printing process from OS
           152 MiB allocation reported by mallinfo(arena+hblkhd)
          7283 MiB available memory on the node where the printing process lives
------------------
     ethr =  4.95E-12,  avg # of iterations =  1.7

     total cpu time spent up to now is      555.4 secs

     total energy              =    -128.98183850 Ry
     estimated scf accuracy    <          7.1E-10 Ry

     iteration # 22     ecut=   120.00 Ry     beta= 0.30
     Davidson diagonalization with overlap

---- Real-time Memory Report at c_bands before calling an iterative solver
           420 MiB given to the printing process from OS
           152 MiB allocation reported by mallinfo(arena+hblkhd)
          7455 MiB available memory on the node where the printing process lives
------------------
     ethr =  3.94E-12,  avg # of iterations =  1.1

     total cpu time spent up to now is      561.3 secs

     total energy              =    -128.98183850 Ry
     estimated scf accuracy    <          5.8E-10 Ry

     iteration # 23     ecut=   120.00 Ry     beta= 0.30
     Davidson diagonalization with overlap

---- Real-time Memory Report at c_bands before calling an iterative solver
           420 MiB given to the printing process from OS
           152 MiB allocation reported by mallinfo(arena+hblkhd)
          7433 MiB available memory on the node where the printing process lives
------------------
     ethr =  3.20E-12,  avg # of iterations =  1.0

     total cpu time spent up to now is      567.8 secs

     total energy              =    -128.98183850 Ry
     estimated scf accuracy    <          5.4E-10 Ry

     iteration # 24     ecut=   120.00 Ry     beta= 0.30
     Davidson diagonalization with overlap

---- Real-time Memory Report at c_bands before calling an iterative solver
           420 MiB given to the printing process from OS
           152 MiB allocation reported by mallinfo(arena+hblkhd)
          7226 MiB available memory on the node where the printing process lives
------------------
     ethr =  3.00E-12,  avg # of iterations =  4.9

     total cpu time spent up to now is      576.0 secs

     total energy              =    -128.98183850 Ry
     estimated scf accuracy    <          1.4E-10 Ry

     iteration # 25     ecut=   120.00 Ry     beta= 0.30
     Davidson diagonalization with overlap

---- Real-time Memory Report at c_bands before calling an iterative solver
           420 MiB given to the printing process from OS
           152 MiB allocation reported by mallinfo(arena+hblkhd)
          7250 MiB available memory on the node where the printing process lives
------------------
     ethr =  7.88E-13,  avg # of iterations =  3.7

     total cpu time spent up to now is      583.8 secs

     total energy              =    -128.98183850 Ry
     estimated scf accuracy    <          3.6E-10 Ry

     iteration # 26     ecut=   120.00 Ry     beta= 0.30
     Davidson diagonalization with overlap

---- Real-time Memory Report at c_bands before calling an iterative solver
           420 MiB given to the printing process from OS
           152 MiB allocation reported by mallinfo(arena+hblkhd)
          7244 MiB available memory on the node where the printing process lives
------------------
     ethr =  7.88E-13,  avg # of iterations =  1.3

     total cpu time spent up to now is      590.0 secs

     total energy              =    -128.98183850 Ry
     estimated scf accuracy    <          2.6E-10 Ry

     iteration # 27     ecut=   120.00 Ry     beta= 0.30
     Davidson diagonalization with overlap

---- Real-time Memory Report at c_bands before calling an iterative solver
           420 MiB given to the printing process from OS
           152 MiB allocation reported by mallinfo(arena+hblkhd)
          7255 MiB available memory on the node where the printing process lives
------------------
     ethr =  7.88E-13,  avg # of iterations =  1.0

     total cpu time spent up to now is      597.1 secs

     total energy              =    -128.98183850 Ry
     estimated scf accuracy    <          2.9E-10 Ry

     iteration # 28     ecut=   120.00 Ry     beta= 0.30
     Davidson diagonalization with overlap

---- Real-time Memory Report at c_bands before calling an iterative solver
           420 MiB given to the printing process from OS
           152 MiB allocation reported by mallinfo(arena+hblkhd)
          7375 MiB available memory on the node where the printing process lives
------------------
     ethr =  7.88E-13,  avg # of iterations =  2.0

     total cpu time spent up to now is      604.4 secs

     total energy              =    -128.98183850 Ry
     estimated scf accuracy    <          1.2E-10 Ry

     iteration # 29     ecut=   120.00 Ry     beta= 0.30
     Davidson diagonalization with overlap

---- Real-time Memory Report at c_bands before calling an iterative solver
           420 MiB given to the printing process from OS
           152 MiB allocation reported by mallinfo(arena+hblkhd)
          7269 MiB available memory on the node where the printing process lives
------------------
     ethr =  6.80E-13,  avg # of iterations =  1.0

     total cpu time spent up to now is      611.5 secs

     total energy              =    -128.98183850 Ry
     estimated scf accuracy    <          1.2E-10 Ry

     iteration # 30     ecut=   120.00 Ry     beta= 0.30
     Davidson diagonalization with overlap

---- Real-time Memory Report at c_bands before calling an iterative solver
           420 MiB given to the printing process from OS
           152 MiB allocation reported by mallinfo(arena+hblkhd)
          7427 MiB available memory on the node where the printing process lives
------------------
     ethr =  6.80E-13,  avg # of iterations =  1.0

     total cpu time spent up to now is      618.6 secs

     total energy              =    -128.98183850 Ry
     estimated scf accuracy    <          1.2E-10 Ry

     iteration # 31     ecut=   120.00 Ry     beta= 0.30
     Davidson diagonalization with overlap

---- Real-time Memory Report at c_bands before calling an iterative solver
           420 MiB given to the printing process from OS
           152 MiB allocation reported by mallinfo(arena+hblkhd)
          7258 MiB available memory on the node where the printing process lives
------------------
     ethr =  6.52E-13,  avg # of iterations =  1.0

     total cpu time spent up to now is      625.6 secs

     total energy              =    -128.98183850 Ry
     estimated scf accuracy    <          1.1E-10 Ry

     iteration # 32     ecut=   120.00 Ry     beta= 0.30
     Davidson diagonalization with overlap

---- Real-time Memory Report at c_bands before calling an iterative solver
           420 MiB given to the printing process from OS
           152 MiB allocation reported by mallinfo(arena+hblkhd)
          7247 MiB available memory on the node where the printing process lives
------------------
     ethr =  6.19E-13,  avg # of iterations =  3.0

     total cpu time spent up to now is      634.2 secs

     total energy              =    -128.98183850 Ry
     estimated scf accuracy    <          1.3E-10 Ry

     iteration # 33     ecut=   120.00 Ry     beta= 0.30
     Davidson diagonalization with overlap

---- Real-time Memory Report at c_bands before calling an iterative solver
           420 MiB given to the printing process from OS
           152 MiB allocation reported by mallinfo(arena+hblkhd)
          7435 MiB available memory on the node where the printing process lives
------------------
     ethr =  6.19E-13,  avg # of iterations =  2.0

     total cpu time spent up to now is      640.6 secs

     total energy              =    -128.98183850 Ry
     estimated scf accuracy    <          5.8E-12 Ry

     iteration # 34     ecut=   120.00 Ry     beta= 0.30
     Davidson diagonalization with overlap

---- Real-time Memory Report at c_bands before calling an iterative solver
           420 MiB given to the printing process from OS
           152 MiB allocation reported by mallinfo(arena+hblkhd)
          7249 MiB available memory on the node where the printing process lives
------------------
     ethr =  1.00E-13,  avg # of iterations =  7.1

     total cpu time spent up to now is      650.9 secs

     total energy              =    -128.98183850 Ry
     estimated scf accuracy    <          7.4E-11 Ry

     iteration # 35     ecut=   120.00 Ry     beta= 0.30
     Davidson diagonalization with overlap

---- Real-time Memory Report at c_bands before calling an iterative solver
           420 MiB given to the printing process from OS
           152 MiB allocation reported by mallinfo(arena+hblkhd)
          7251 MiB available memory on the node where the printing process lives
------------------
     ethr =  1.00E-13,  avg # of iterations =  8.2

     total cpu time spent up to now is      665.9 secs

     total energy              =    -128.98183850 Ry
     estimated scf accuracy    <          1.3E-10 Ry

     iteration # 36     ecut=   120.00 Ry     beta= 0.30
     Davidson diagonalization with overlap

---- Real-time Memory Report at c_bands before calling an iterative solver
           420 MiB given to the printing process from OS
           152 MiB allocation reported by mallinfo(arena+hblkhd)
          7254 MiB available memory on the node where the printing process lives
------------------
     ethr =  1.00E-13,  avg # of iterations =  7.0

     total cpu time spent up to now is      677.3 secs

     End of self-consistent calculation

          k = 0.0000 0.0000 0.0000 ( 10177 PWs)   bands (ev):

    -6.2108  -6.2108  -3.7106  -3.7106  -3.7106  -3.7106  -3.1542  -3.1542
    -2.9584  -2.9584  -2.9584  -2.9584   4.2090   4.2090   5.0638   5.0638
     5.0638   5.0638

     occupation numbers 
     1.0000   1.0000   1.0000   1.0000   1.0000   1.0000   1.0000   1.0000
     1.0000   1.0000   1.0000   1.0000   1.0000   1.0000   1.0000   1.0000
     1.0000   1.0000

          k = 0.0700 0.0700-0.0700 ( 10168 PWs)   bands (ev):

    -6.1754  -6.1754  -3.7155  -3.7016  -3.6924  -3.6924  -3.1400  -3.1400
    -2.9628  -2.9564  -2.9564  -2.9452   3.7338   3.7338   4.5222   4.5222
     4.9685   4.9800

     occupation numbers 
     1.0000   1.0000   1.0000   1.0000   1.0000   1.0000   1.0000   1.0000
     1.0000   1.0000   1.0000   1.0000   1.0000   1.0000   1.0000   1.0000
     1.0000   1.0000

          k = 0.1401 0.1401-0.1401 ( 10141 PWs)   bands (ev):

    -6.0826  -6.0826  -3.7150  -3.6924  -3.6388  -3.6388  -3.1030  -3.1030
    -2.9562  -2.9394  -2.9394  -2.9275   2.6494   2.6494   4.2347   4.2347
     4.7532   4.7706

     occupation numbers 
     1.0000   1.0000   1.0000   1.0000   1.0000   1.0000   1.0000   1.0000
     1.0000   1.0000   1.0000   1.0000   1.0000   1.0000   1.0000   1.0000
     1.0000   1.0000

          k = 0.2101 0.2101-0.2101 ( 10180 PWs)   bands (ev):

    -5.9686  -5.9686  -3.7098  -3.6873  -3.5608  -3.5608  -3.0705  -3.0705
    -2.9399  -2.9112  -2.8675  -2.8675   1.5976   1.5976   4.0022   4.0022
     4.5241   4.5405

     occupation numbers 
     1.0000   1.0000   1.0000   1.0000   1.0000   1.0000   1.0000   1.0000
     1.0000   1.0000   1.0000   1.0000   1.0000   1.0000   1.0000   1.0000
     1.0000   1.0000

          k = 0.2801 0.2801-0.2801 ( 10197 PWs)   bands (ev):

    -5.8780  -5.8780  -3.7019  -3.6881  -3.4911  -3.4911  -3.0617  -3.0617
    -2.9202  -2.9025  -2.7330  -2.7330   0.8095   0.8095   3.8390   3.8390
     4.3610   4.3708

     occupation numbers 
     1.0000   1.0000   1.0000   1.0000   1.0000   1.0000   1.0000   1.0000
     1.0000   1.0000   1.0000   1.0000   1.0000   1.0000   1.0000   1.0000
     1.0000   1.0000

          k =-0.3502-0.3502 0.3502 ( 10200 PWs)   bands (ev):

    -5.8440  -5.8440  -3.6938  -3.6938  -3.4639  -3.4639  -3.0612  -3.0612
    -2.9057  -2.9057  -2.6539  -2.6539   0.5027   0.5027   3.7805   3.7805
     4.3059   4.3059

     occupation numbers 
     1.0000   1.0000   1.0000   1.0000   1.0000   1.0000   1.0000   1.0000
     1.0000   1.0000   1.0000   1.0000   1.0000   1.0000   1.0000   1.0000
     1.0000   1.0000

          k = 0.1401 0.0000 0.0000 ( 10161 PWs)   bands (ev):

    -6.1636  -6.1636  -3.7062  -3.7062  -3.6881  -3.6881  -3.1350  -3.1350
    -2.9638  -2.9638  -2.9448  -2.9448   3.6816   3.6816   4.4002   4.4002
     4.7989   4.7989

     occupation numbers 
     1.0000   1.0000   1.0000   1.0000   1.0000   1.0000   1.0000   1.0000
     1.0000   1.0000   1.0000   1.0000   1.0000   1.0000   1.0000   1.0000
     1.0000   1.0000

          k = 0.2101 0.0700-0.0700 ( 10180 PWs)   bands (ev):

    -6.0909  -6.0895  -3.7083  -3.6885  -3.6624  -3.6377  -3.1086  -3.0994
    -2.9610  -2.9604  -2.9325  -2.9234   2.8630   2.9167   4.0623   4.1596
     4.5662   4.5810

     occupation numbers 
     1.0000   1.0000   1.0000   1.0000   1.0000   1.0000   1.0000   1.0000
     1.0000   1.0000   1.0000   1.0000   1.0000   1.0000   1.0000   1.0000
     1.0000   1.0000

          k = 0.2801 0.1401-0.1401 ( 10192 PWs)   bands (ev):

    -5.9856  -5.9814  -3.7048  -3.6803  -3.6073  -3.5527  -3.0760  -3.0590
    -2.9455  -2.9376  -2.8850  -2.8752   1.8668   1.9250   3.7949   3.9131
     4.3127   4.3343

     occupation numbers 
     1.0000   1.0000   1.0000   1.0000   1.0000   1.0000   1.0000   1.0000
     1.0000   1.0000   1.0000   1.0000   1.0000   1.0000   1.0000   1.0000
     1.0000   1.0000

          k = 0.3502 0.2101-0.2101 ( 10195 PWs)   bands (ev):

    -5.8895  -5.8820  -3.6979  -3.6788  -3.5485  -3.4642  -3.0630  -3.0450
    -2.9258  -2.9126  -2.7864  -2.7412   1.0197   1.0784   3.5813   3.7117
     4.1068   4.1370

     occupation numbers 
     1.0000   1.0000   1.0000   1.0000   1.0000   1.0000   1.0000   1.0000
     1.0000   1.0000   1.0000   1.0000   1.0000   1.0000   1.0000   1.0000
     1.0000   1.0000

          k =-0.2801-0.4202 0.4202 ( 10176 PWs)   bands (ev):

    -5.8384  -5.8288  -3.6899  -3.6831  -3.5152  -3.4147  -3.0628  -3.0435
    -2.9100  -2.9065  -2.6817  -2.6198   0.5516   0.6123   3.4454   3.5825
     4.0362   4.0658

     occupation numbers 
     1.0000   1.0000   1.0000   1.0000   1.0000   1.0000   1.0000   1.0000
     1.0000   1.0000   1.0000   1.0000   1.0000   1.0000   1.0000   1.0000
     1.0000   1.0000

          k =-0.2101-0.3502 0.3502 ( 10191 PWs)   bands (ev):

    -5.8496  -5.8400  -3.6908  -3.6835  -3.5236  -3.4235  -3.0639  -3.0431
    -2.9148  -2.9048  -2.7108  -2.6459   0.6513   0.7153   3.4141   3.5565
     4.1176   4.1399

     occupation numbers 
     1.0000   1.0000   1.0000   1.0000   1.0000   1.0000   1.0000   1.0000
     1.0000   1.0000   1.0000   1.0000   1.0000   1.0000   1.0000   1.0000
     1.0000   1.0000

          k =-0.1401-0.2801 0.2801 ( 10197 PWs)   bands (ev):

    -5.9193  -5.9121  -3.6993  -3.6813  -3.5697  -3.4872  -3.0687  -3.0458
    -2.9319  -2.9132  -2.8378  -2.7833   1.2682   1.3386   3.5098   3.6631
     4.3146   4.3311

     occupation numbers 
     1.0000   1.0000   1.0000   1.0000   1.0000   1.0000   1.0000   1.0000
     1.0000   1.0000   1.0000   1.0000   1.0000   1.0000   1.0000   1.0000
     1.0000   1.0000

          k =-0.0700-0.2101 0.2101 ( 10181 PWs)   bands (ev):

    -6.0233  -6.0193  -3.7068  -3.6851  -3.6303  -3.5781  -3.0902  -3.0683
    -2.9502  -2.9340  -2.9269  -2.8895   2.1719   2.2537   3.7421   3.9116
     4.5638   4.5792

     occupation numbers 
     1.0000   1.0000   1.0000   1.0000   1.0000   1.0000   1.0000   1.0000
     1.0000   1.0000   1.0000   1.0000   1.0000   1.0000   1.0000   1.0000
     1.0000   1.0000

          k = 0.0000-0.1401 0.1401 ( 10145 PWs)   bands (ev):

    -6.1216  -6.1202  -3.7123  -3.6938  -3.6761  -3.6537  -3.1224  -3.1124
    -2.9615  -2.9534  -2.9499  -2.9295   3.1038   3.1824   4.1198   4.2742
     4.7948   4.8070

     occupation numbers 
     1.0000   1.0000   1.0000   1.0000   1.0000   1.0000   1.0000   1.0000
     1.0000   1.0000   1.0000   1.0000   1.0000   1.0000   1.0000   1.0000
     1.0000   1.0000

          k = 0.2801 0.0000 0.0000 ( 10197 PWs)   bands (ev):

    -6.0407  -6.0407  -3.6891  -3.6891  -3.6277  -3.6277  -3.0794  -3.0794
    -2.9665  -2.9665  -2.9094  -2.9094   2.6450   2.6450   3.8349   3.8349
     4.2385   4.2385

     occupation numbers 
     1.0000   1.0000   1.0000   1.0000   1.0000   1.0000   1.0000   1.0000
     1.0000   1.0000   1.0000   1.0000   1.0000   1.0000   1.0000   1.0000
     1.0000   1.0000

          k = 0.3502 0.0700-0.0700 ( 10207 PWs)   bands (ev):

    -5.9561  -5.9518  -3.6890  -3.6675  -3.6062  -3.5456  -3.0500  -3.0389
    -2.9640  -2.9514  -2.8677  -2.8612   1.9396   2.0132   3.4817   3.6246
     3.9318   3.9695

     occupation numbers 
     1.0000   1.0000   1.0000   1.0000   1.0000   1.0000   1.0000   1.0000
     1.0000   1.0000   1.0000   1.0000   1.0000   1.0000   1.0000   1.0000
     1.0000   1.0000

          k = 0.4202 0.1401-0.1401 ( 10199 PWs)   bands (ev):

    -5.8696  -5.8591  -3.6846  -3.6561  -3.5759  -3.4487  -3.0364  -3.0241
    -2.9406  -2.9281  -2.7886  -2.7343   1.2024   1.3113   3.1417   3.3555
     3.6977   3.7597

     occupation numbers 
     1.0000   1.0000   1.0000   1.0000   1.0000   1.0000   1.0000   1.0000
     1.0000   1.0000   1.0000   1.0000   1.0000   1.0000   1.0000   1.0000
     1.0000   1.0000

          k =-0.2101-0.4902 0.4902 ( 10212 PWs)   bands (ev):

    -5.8142  -5.7983  -3.6784  -3.6557  -3.5538  -3.3815  -3.0400  -3.0224
    -2.9192  -2.9120  -2.6852  -2.5879   0.6924   0.8227   2.8473   3.0709
     3.6624   3.7090

     occupation numbers 
     1.0000   1.0000   1.0000   1.0000   1.0000   1.0000   1.0000   1.0000
     1.0000   1.0000   1.0000   1.0000   1.0000   1.0000   1.0000   1.0000
     1.0000   1.0000

          k =-0.1401-0.4202 0.4202 ( 10205 PWs)   bands (ev):

    -5.8085  -5.7905  -3.6730  -3.6626  -3.5544  -3.3677  -3.0466  -3.0221
    -2.9140  -2.9063  -2.6700  -2.5534   0.6163   0.7646   2.6794   2.9112
     3.7931   3.8232

     occupation numbers 
     1.0000   1.0000   1.0000   1.0000   1.0000   1.0000   1.0000   1.0000
     1.0000   1.0000   1.0000   1.0000   1.0000   1.0000   1.0000   1.0000
     1.0000   1.0000

          k =-0.0700-0.3502 0.3502 ( 10196 PWs)   bands (ev):

    -5.8539  -5.8384  -3.6741  -3.6714  -3.5779  -3.4083  -3.0537  -3.0226
    -2.9219  -2.9126  -2.7741  -2.6612   0.9921   1.1557   2.7180   2.9679
     4.0368   4.0578

     occupation numbers 
     1.0000   1.0000   1.0000   1.0000   1.0000   1.0000   1.0000   1.0000
     1.0000   1.0000   1.0000   1.0000   1.0000   1.0000   1.0000   1.0000
     1.0000   1.0000

          k = 0.0000-0.2801 0.2801 ( 10157 PWs)   bands (ev):

    -5.9354  -5.9256  -3.6898  -3.6759  -3.6090  -3.4902  -3.0683  -3.0340
    -2.9368  -2.9261  -2.8801  -2.7999   1.5917   1.7437   3.0685   3.3155
     4.3202   4.3393

     occupation numbers 
     1.0000   1.0000   1.0000   1.0000   1.0000   1.0000   1.0000   1.0000
     1.0000   1.0000   1.0000   1.0000   1.0000   1.0000   1.0000   1.0000
     1.0000   1.0000

          k = 0.4202 0.0000 0.0000 ( 10213 PWs)   bands (ev):

    -5.8917  -5.8917  -3.6685  -3.6685  -3.5402  -3.5402  -3.0131  -3.0131
    -2.9599  -2.9599  -2.8198  -2.8198   1.6591   1.6591   3.3214   3.3214
     3.6911   3.6911

     occupation numbers 
     1.0000   1.0000   1.0000   1.0000   1.0000   1.0000   1.0000   1.0000
     1.0000   1.0000   1.0000   1.0000   1.0000   1.0000   1.0000   1.0000
     1.0000   1.0000

          k = 0.4902 0.0700-0.0700 ( 10197 PWs)   bands (ev):

    -5.8259  -5.8181  -3.6685  -3.6480  -3.5418  -3.4478  -3.0060  -2.9906
    -2.9633  -2.9284  -2.7457  -2.7060   1.1444   1.2290   2.9775   3.1405
     3.4223   3.4725

     occupation numbers 
     1.0000   1.0000   1.0000   1.0000   1.0000   1.0000   1.0000   1.0000
     1.0000   1.0000   1.0000   1.0000   1.0000   1.0000   1.0000   1.0000
     1.0000   1.0000

          k =-0.1401-0.5603 0.5603 ( 10221 PWs)   bands (ev):

    -5.7802  -5.7637  -3.6660  -3.6316  -3.5542  -3.3724  -3.0071  -2.9987
    -2.9412  -2.9091  -2.6541  -2.5599   0.7447   0.9048   2.5467   2.7976
     3.3368   3.3902

     occupation numbers 
     1.0000   1.0000   1.0000   1.0000   1.0000   1.0000   1.0000   1.0000
     1.0000   1.0000   1.0000   1.0000   1.0000   1.0000   1.0000   1.0000
     1.0000   1.0000

          k =-0.0700-0.4902 0.4902 ( 10211 PWs)   bands (ev):

    -5.7699  -5.7481  -3.6637  -3.6259  -3.5732  -3.3402  -3.0161  -3.0088
    -2.9224  -2.9029  -2.6158  -2.4849   0.6131   0.8391   2.2073   2.5097
     3.4658   3.5001

     occupation numbers 
     1.0000   1.0000   1.0000   1.0000   1.0000   1.0000   1.0000   1.0000
     1.0000   1.0000   1.0000   1.0000   1.0000   1.0000   1.0000   1.0000
     1.0000   1.0000

          k =-0.0000-0.4202 0.4202 ( 10221 PWs)   bands (ev):

    -5.7975  -5.7762  -3.6649  -3.6430  -3.5818  -3.3538  -3.0346  -3.0118
    -2.9164  -2.9065  -2.6776  -2.5367   0.7494   0.9925   2.2083   2.5278
     3.7251   3.7489

     occupation numbers 
     1.0000   1.0000   1.0000   1.0000   1.0000   1.0000   1.0000   1.0000
     1.0000   1.0000   1.0000   1.0000   1.0000   1.0000   1.0000   1.0000
     1.0000   1.0000

          k = 0.5603 0.0000 0.0000 ( 10218 PWs)   bands (ev):

    -5.7758  -5.7758  -3.6528  -3.6528  -3.4646  -3.4646  -2.9882  -2.9882
    -2.9349  -2.9349  -2.6548  -2.6548   0.9005   0.9005   2.9633   2.9633
     3.3150   3.3150

     occupation numbers 
     1.0000   1.0000   1.0000   1.0000   1.0000   1.0000   1.0000   1.0000
     1.0000   1.0000   1.0000   1.0000   1.0000   1.0000   1.0000   1.0000
     1.0000   1.0000

          k =-0.0700-0.6303 0.6303 ( 10234 PWs)   bands (ev):

    -5.7491  -5.7387  -3.6560  -3.6369  -3.4999  -3.3906  -2.9966  -2.9690
    -2.9503  -2.9089  -2.6000  -2.5429   0.6413   0.7317   2.6912   2.8566
     3.1536   3.2040

     occupation numbers 
     1.0000   1.0000   1.0000   1.0000   1.0000   1.0000   1.0000   1.0000
     1.0000   1.0000   1.0000   1.0000   1.0000   1.0000   1.0000   1.0000
     1.0000   1.0000

          k = 0.0000-0.5603 0.5603 ( 10215 PWs)   bands (ev):

    -5.7473  -5.7284  -3.6585  -3.6215  -3.5465  -3.3470  -3.0022  -2.9840
    -2.9399  -2.9005  -2.5815  -2.4749   0.5747   0.7600   2.3067   2.5731
     3.2174   3.2646

     occupation numbers 
     1.0000   1.0000   1.0000   1.0000   1.0000   1.0000   1.0000   1.0000
     1.0000   1.0000   1.0000   1.0000   1.0000   1.0000   1.0000   1.0000
     1.0000   1.0000

          k =-0.7003 0.0000 0.0000 ( 10190 PWs)   bands (ev):

    -5.7331  -5.7331  -3.6471  -3.6471  -3.4362  -3.4362  -2.9842  -2.9842
    -2.9222  -2.9222  -2.5544  -2.5544   0.5955   0.5955   2.8355   2.8355
     3.1823   3.1823

     occupation numbers 
     1.0000   1.0000   1.0000   1.0000   1.0000   1.0000   1.0000   1.0000
     1.0000   1.0000   1.0000   1.0000   1.0000   1.0000   1.0000   1.0000
     1.0000   1.0000

          k = 0.2801 0.1401 0.0000 ( 10192 PWs)   bands (ev):

    -6.0121  -6.0078  -3.6995  -3.6774  -3.6357  -3.5745  -3.0815  -3.0599
    -2.9564  -2.9528  -2.9095  -2.8851   2.2325   2.3338   3.5859   3.7930
     4.2891   4.3807

     occupation numbers 
     1.0000   1.0000   1.0000   1.0000   1.0000   1.0000   1.0000   1.0000
     1.0000   1.0000   1.0000   1.0000   1.0000   1.0000   1.0000   1.0000
     1.0000   1.0000

          k = 0.3502 0.2101-0.0700 ( 10186 PWs)   bands (ev):

    -5.9167  -5.9074  -3.6905  -3.6690  -3.5961  -3.4821  -3.0580  -3.0325
    -2.9361  -2.9337  -2.8484  -2.7881   1.4673   1.5869   3.1872   3.4142
     4.0446   4.1415

     occupation numbers 
     1.0000   1.0000   1.0000   1.0000   1.0000   1.0000   1.0000   1.0000
     1.0000   1.0000   1.0000   1.0000   1.0000   1.0000   1.0000   1.0000
     1.0000   1.0000

          k =-0.2801-0.4202 0.5603 ( 10192 PWs)   bands (ev):

    -5.8418  -5.8277  -3.6818  -3.6676  -3.5581  -3.4047  -3.0515  -3.0273
    -2.9186  -2.9143  -2.7346  -2.6421   0.8260   0.9448   2.9828   3.2028
     3.8334   3.9223

     occupation numbers 
     1.0000   1.0000   1.0000   1.0000   1.0000   1.0000   1.0000   1.0000
     1.0000   1.0000   1.0000   1.0000   1.0000   1.0000   1.0000   1.0000
     1.0000   1.0000

          k =-0.2101-0.3502 0.4902 ( 10210 PWs)   bands (ev):

    -5.8139  -5.7978  -3.6761  -3.6701  -3.5426  -3.3762  -3.0513  -3.0273
    -2.9110  -2.9085  -2.6660  -2.5641   0.5677   0.6856   2.9226   3.1393
     3.7498   3.8339

     occupation numbers 
     1.0000   1.0000   1.0000   1.0000   1.0000   1.0000   1.0000   1.0000
     1.0000   1.0000   1.0000   1.0000   1.0000   1.0000   1.0000   1.0000
     1.0000   1.0000

          k = 0.4202 0.1401-0.0000 ( 10195 PWs)   bands (ev):

    -5.8803  -5.8715  -3.6787  -3.6548  -3.5825  -3.4721  -3.0242  -3.0177
    -2.9582  -2.9345  -2.8133  -2.7682   1.4279   1.5422   3.0631   3.3118
     3.6160   3.7651

     occupation numbers 
     1.0000   1.0000   1.0000   1.0000   1.0000   1.0000   1.0000   1.0000
     1.0000   1.0000   1.0000   1.0000   1.0000   1.0000   1.0000   1.0000
     1.0000   1.0000

          k =-0.2101-0.4902 0.6303 ( 10199 PWs)   bands (ev):

    -5.8147  -5.7990  -3.6701  -3.6434  -3.5708  -3.3923  -3.0192  -3.0112
    -2.9378  -2.9162  -2.7174  -2.6242   0.9244   1.0854   2.6826   2.9685
     3.4075   3.5485

     occupation numbers 
     1.0000   1.0000   1.0000   1.0000   1.0000   1.0000   1.0000   1.0000
     1.0000   1.0000   1.0000   1.0000   1.0000   1.0000   1.0000   1.0000
     1.0000   1.0000

          k =-0.1401-0.4202 0.5603 ( 10200 PWs)   bands (ev):

    -5.7824  -5.7616  -3.6637  -3.6404  -3.5683  -3.3484  -3.0249  -3.0107
    -2.9206  -2.9074  -2.6363  -2.5132   0.6367   0.8303   2.4267   2.7180
     3.3753   3.4787

     occupation numbers 
     1.0000   1.0000   1.0000   1.0000   1.0000   1.0000   1.0000   1.0000
     1.0000   1.0000   1.0000   1.0000   1.0000   1.0000   1.0000   1.0000
     1.0000   1.0000

          k =-0.0700-0.3502 0.4902 ( 10204 PWs)   bands (ev):

    -5.7932  -5.7722  -3.6622  -3.6470  -3.5750  -3.3526  -3.0320  -3.0117
    -2.9167  -2.9093  -2.6628  -2.5316   0.7042   0.9158   2.3536   2.6548
     3.5207   3.6142

     occupation numbers 
     1.0000   1.0000   1.0000   1.0000   1.0000   1.0000   1.0000   1.0000
     1.0000   1.0000   1.0000   1.0000   1.0000   1.0000   1.0000   1.0000
     1.0000   1.0000

          k = 0.0000-0.2801 0.4202 ( 10208 PWs)   bands (ev):

    -5.8436  -5.8273  -3.6713  -3.6582  -3.5862  -3.4026  -3.0415  -3.0162
    -2.9252  -2.9196  -2.7671  -2.6557   1.0480   1.2400   2.5894   2.8796
     3.7799   3.8791

     occupation numbers 
     1.0000   1.0000   1.0000   1.0000   1.0000   1.0000   1.0000   1.0000
     1.0000   1.0000   1.0000   1.0000   1.0000   1.0000   1.0000   1.0000
     1.0000   1.0000

          k =-0.1401-0.5603 0.7003 ( 10195 PWs)   bands (ev):

    -5.7785  -5.7654  -3.6609  -3.6376  -3.5358  -3.3922  -3.0023  -2.9775
    -2.9581  -2.9124  -2.6627  -2.5910   0.8154   0.9386   2.7141   2.9719
     3.1297   3.2714

     occupation numbers 
     1.0000   1.0000   1.0000   1.0000   1.0000   1.0000   1.0000   1.0000
     1.0000   1.0000   1.0000   1.0000   1.0000   1.0000   1.0000   1.0000
     1.0000   1.0000

          k =-0.0700-0.4902 0.6303 ( 10207 PWs)   bands (ev):

    -5.7546  -5.7344  -3.6560  -3.6241  -3.5589  -3.3443  -3.0048  -2.9872
    -2.9391  -2.9030  -2.5958  -2.4851   0.6207   0.8150   2.3720   2.6673
     3.0641   3.1577

     occupation numbers 
     1.0000   1.0000   1.0000   1.0000   1.0000   1.0000   1.0000   1.0000
     1.0000   1.0000   1.0000   1.0000   1.0000   1.0000   1.0000   1.0000
     1.0000   1.0000

          k = 0.0000-0.4202 0.5603 ( 10193 PWs)   bands (ev):

    -5.7605  -5.7369  -3.6556  -3.6198  -3.5830  -3.3303  -3.0134  -3.0011
    -2.9226  -2.9039  -2.5972  -2.4626   0.6146   0.8664   2.1362   2.4702
     3.2276   3.3115

     occupation numbers 
     1.0000   1.0000   1.0000   1.0000   1.0000   1.0000   1.0000   1.0000
     1.0000   1.0000   1.0000   1.0000   1.0000   1.0000   1.0000   1.0000
     1.0000   1.0000

          k =-0.7003 0.1401 0.0000 ( 10224 PWs)   bands (ev):

    -5.7410  -5.7262  -3.6540  -3.6315  -3.5175  -3.3645  -2.9984  -2.9594
    -2.9586  -2.9028  -2.5750  -2.4960   0.5708   0.6977   2.5996   2.8181
     3.0168   3.0515

     occupation numbers 
     1.0000   1.0000   1.0000   1.0000   1.0000   1.0000   1.0000   1.0000
     1.0000   1.0000   1.0000   1.0000   1.0000   1.0000   1.0000   1.0000
     1.0000   1.0000

          k =-0.1401-0.4202 0.7003 ( 10230 PWs)   bands (ev):

    -5.7726  -5.7508  -3.6538  -3.6324  -3.5783  -3.3437  -3.0141  -2.9997
    -2.9290  -2.9078  -2.6311  -2.5074   0.7039   0.9271   2.3321   2.6770
     3.1004   3.2512

     occupation numbers 
     1.0000   1.0000   1.0000   1.0000   1.0000   1.0000   1.0000   1.0000
     1.0000   1.0000   1.0000   1.0000   1.0000   1.0000   1.0000   1.0000
     1.0000   1.0000

          k =-0.0700-0.3502 0.6303 ( 10214 PWs)   bands (ev):

    -5.7570  -5.7327  -3.6473  -3.6247  -3.5856  -3.3256  -3.0139  -2.9956
    -2.9230  -2.9067  -2.5877  -2.4551   0.6141   0.8623   2.2242   2.5858
     2.9695   3.0960

     occupation numbers 
     1.0000   1.0000   1.0000   1.0000   1.0000   1.0000   1.0000   1.0000
     1.0000   1.0000   1.0000   1.0000   1.0000   1.0000   1.0000   1.0000
     1.0000   1.0000

          k =-0.7003 0.2801 0.0000 ( 10200 PWs)   bands (ev):

    -5.7463  -5.7224  -3.6453  -3.6194  -3.5796  -3.3242  -3.0078  -2.9846
    -2.9323  -2.9038  -2.5676  -2.4425   0.5900   0.8245   2.3154   2.7268
     2.8071   2.8079

     occupation numbers 
     1.0000   1.0000   1.0000   1.0000   1.0000   1.0000   1.0000   1.0000
     1.0000   1.0000   1.0000   1.0000   1.0000   1.0000   1.0000   1.0000
     1.0000   1.0000

     highest occupied level (ev):     5.0638

!    total energy              =    -128.98183850 Ry
     estimated scf accuracy    <          2.6E-13 Ry

     The total energy is the sum of the following terms:
     one-electron contribution =     -49.86473433 Ry
     hartree contribution      =      36.44168430 Ry
     xc contribution           =     -39.49420569 Ry
     ewald contribution        =     -76.06458278 Ry

     convergence has been achieved in  36 iterations

     Forces acting on atoms (cartesian axes, Ry/au):

     atom    1 type  1   force =    -0.00000000   -0.00000000    0.00000000
     atom    2 type  2   force =     0.00000000    0.00000000   -0.00000000
     The non-local contrib.  to forces
     atom    1 type  1   force =     0.00000000   -0.00000000    0.00000000
     atom    2 type  2   force =    -0.00000000   -0.00000000   -0.00000000
     The ionic contribution  to forces
     atom    1 type  1   force =    -0.00000000   -0.00000000    0.00000000
     atom    2 type  2   force =     0.00000000    0.00000000    0.00000000
     The local contribution  to forces
     atom    1 type  1   force =    -0.00000000    0.00000000    0.00000000
     atom    2 type  2   force =     0.00000000    0.00000000   -0.00000000
     The core correction contribution to forces
     atom    1 type  1   force =     0.00000000   -0.00000000    0.00000000
     atom    2 type  2   force =    -0.00000000   -0.00000000   -0.00000000
     The Hubbard contrib.    to forces
     atom    1 type  1   force =     0.00000000    0.00000000    0.00000000
     atom    2 type  2   force =     0.00000000    0.00000000    0.00000000
     The SCF correction term to forces
     atom    1 type  1   force =     0.00000000    0.00000000   -0.00000000
     atom    2 type  2   force =    -0.00000000   -0.00000000   -0.00000000

     Total force =     0.000000     Total SCF correction =     0.000000


     Computing stress (Cartesian axis) and pressure

          total   stress  (Ry/bohr**3)                   (kbar)     P=       14.23
   0.00009673  -0.00000000  -0.00000000           14.23       -0.00       -0.00
  -0.00000000   0.00009673   0.00000000           -0.00       14.23        0.00
  -0.00000000   0.00000000   0.00009673           -0.00        0.00       14.23

     kinetic stress (kbar)   9316.46     -0.00     -0.00
                               -0.00   9316.46     -0.00
                               -0.00     -0.00   9316.46

     local   stress (kbar)    583.89     -0.00     -0.00
                               -0.00    583.89      0.00
                               -0.00      0.00    583.89

     nonloc. stress (kbar)  -3499.53      0.00     -0.00
                                0.00  -3499.53      0.00
                                0.00      0.00  -3499.53

     hartree stress (kbar)   3778.19     -0.00     -0.00
                               -0.00   3778.19      0.00
                               -0.00      0.00   3778.19

     exc-cor stress (kbar)   4364.16     -0.00      0.00
                               -0.00   4364.16      0.00
                                0.00      0.00   4364.16

     corecor stress (kbar)  -6642.73     -0.00      0.00
                               -0.00  -6642.73     -0.00
                                0.00     -0.00  -6642.73

     ewald   stress (kbar)  -7886.21      0.00      0.00
                                0.00  -7886.21     -0.00
                                0.00     -0.00  -7886.21

     hubbard stress (kbar)      0.00      0.00      0.00
                                0.00      0.00      0.00
                                0.00      0.00      0.00

     DFT-D   stress (kbar)      0.00      0.00      0.00
                                0.00      0.00      0.00
                                0.00      0.00      0.00

     XDM     stress (kbar)      0.00      0.00      0.00
                                0.00      0.00      0.00
                                0.00      0.00      0.00

     dft-nl  stress (kbar)      0.00      0.00      0.00
                                0.00      0.00      0.00
                                0.00      0.00      0.00

     TS-vdW  stress (kbar)      0.00      0.00      0.00
                                0.00      0.00      0.00
                                0.00      0.00      0.00

     MDB     stress (kbar)      0.00      0.00      0.00
                                0.00      0.00      0.00
                                0.00      0.00      0.00

     3D-RISM stress (kbar)      0.00      0.00      0.00
                                0.00      0.00      0.00
                                0.00      0.00      0.00

     Energy error            =      8.4E-04 Ry
     Gradient error          =      4.6E-31 Ry/Bohr
     Cell gradient error     =      1.4E+01 kbar

     number of scf cycles    =   3
     number of bfgs steps    =   2

     enthalpy           old  =    -128.9809973694 Ry
     enthalpy           new  =    -128.9818385000 Ry

     CASE: enthalpy          _new < enthalpy          _old

     new trust radius        =       0.0327789160 bohr
     new conv_thr            =            1.0E-12 Ry

     new unit-cell volume =    483.72966 a.u.^3 (    71.68134 Ang^3 )
     density =      5.56006 g/cm^3

CELL_PARAMETERS (angstrom)
  -0.000000000   3.297048793   3.297048793
   3.297048793  -0.000000000   3.297048793
   3.297048793   3.297048793   0.000000000

ATOMIC_POSITIONS (crystal)
Cd               0.0000000000        0.0000000000       -0.0000000000
Te               0.2500000000        0.2500000000        0.2500000000



     Writing config-only to output data dir /home/User/opencode_workspace/DFT/calculations/cdte/relax_soc/out/pwscf.save/ :
     XML data file
     NEW-OLD atomic charge density approx. for the potential
     New effective cutoffs (rho, wfc):  695.61  115.95

     total cpu time spent up to now is      685.5 secs

     per-process dynamical memory:   128.3 Mb

     Self-consistent Calculation

     iteration #  1     ecut=   120.00 Ry     beta= 0.30
     Davidson diagonalization with overlap

---- Real-time Memory Report at c_bands before calling an iterative solver
           420 MiB given to the printing process from OS
           125 MiB allocation reported by mallinfo(arena+hblkhd)
          7444 MiB available memory on the node where the printing process lives
------------------
     ethr =  1.00E-06,  avg # of iterations =  8.4

     total cpu time spent up to now is      699.9 secs

     total energy              =    -128.98254365 Ry
     estimated scf accuracy    <       0.00001936 Ry

     iteration #  2     ecut=   120.00 Ry     beta= 0.30
     Davidson diagonalization with overlap

---- Real-time Memory Report at c_bands before calling an iterative solver
           420 MiB given to the printing process from OS
           139 MiB allocation reported by mallinfo(arena+hblkhd)
          7340 MiB available memory on the node where the printing process lives
------------------
     ethr =  1.08E-07,  avg # of iterations =  3.3

     total cpu time spent up to now is      706.8 secs

     total energy              =    -128.98254435 Ry
     estimated scf accuracy    <       0.00000712 Ry

     iteration #  3     ecut=   120.00 Ry     beta= 0.30
     Davidson diagonalization with overlap

---- Real-time Memory Report at c_bands before calling an iterative solver
           420 MiB given to the printing process from OS
           140 MiB allocation reported by mallinfo(arena+hblkhd)
          7341 MiB available memory on the node where the printing process lives
------------------
     ethr =  3.96E-08,  avg # of iterations =  3.1

     total cpu time spent up to now is      714.2 secs

     total energy              =    -128.98254615 Ry
     estimated scf accuracy    <       0.00000041 Ry

     iteration #  4     ecut=   120.00 Ry     beta= 0.30
     Davidson diagonalization with overlap

---- Real-time Memory Report at c_bands before calling an iterative solver
           420 MiB given to the printing process from OS
           142 MiB allocation reported by mallinfo(arena+hblkhd)
          7518 MiB available memory on the node where the printing process lives
------------------
     ethr =  2.27E-09,  avg # of iterations =  7.7

     total cpu time spent up to now is      726.9 secs

     total energy              =    -128.98254681 Ry
     estimated scf accuracy    <       0.00000017 Ry

     iteration #  5     ecut=   120.00 Ry     beta= 0.30
     Davidson diagonalization with overlap

---- Real-time Memory Report at c_bands before calling an iterative solver
           420 MiB given to the printing process from OS
           144 MiB allocation reported by mallinfo(arena+hblkhd)
          7346 MiB available memory on the node where the printing process lives
------------------
     ethr =  9.70E-10,  avg # of iterations =  2.8

     total cpu time spent up to now is      733.9 secs

     total energy              =    -128.98254694 Ry
     estimated scf accuracy    <       0.00000006 Ry

     iteration #  6     ecut=   120.00 Ry     beta= 0.30
     Davidson diagonalization with overlap

---- Real-time Memory Report at c_bands before calling an iterative solver
           420 MiB given to the printing process from OS
           145 MiB allocation reported by mallinfo(arena+hblkhd)
          7334 MiB available memory on the node where the printing process lives
------------------
     ethr =  3.06E-10,  avg # of iterations =  5.0

     total cpu time spent up to now is      742.1 secs

     total energy              =    -128.98254701 Ry
     estimated scf accuracy    <          4.4E-09 Ry

     iteration #  7     ecut=   120.00 Ry     beta= 0.30
     Davidson diagonalization with overlap

---- Real-time Memory Report at c_bands before calling an iterative solver
           420 MiB given to the printing process from OS
           147 MiB allocation reported by mallinfo(arena+hblkhd)
          7368 MiB available memory on the node where the printing process lives
------------------
     ethr =  2.43E-11,  avg # of iterations =  6.8

     total cpu time spent up to now is      751.5 secs

     total energy              =    -128.98254704 Ry
     estimated scf accuracy    <          7.0E-09 Ry

     iteration #  8     ecut=   120.00 Ry     beta= 0.30
     Davidson diagonalization with overlap

---- Real-time Memory Report at c_bands before calling an iterative solver
           420 MiB given to the printing process from OS
           149 MiB allocation reported by mallinfo(arena+hblkhd)
          7272 MiB available memory on the node where the printing process lives
------------------
     ethr =  2.43E-11,  avg # of iterations =  6.9

     total cpu time spent up to now is      762.2 secs

     total energy              =    -128.98254705 Ry
     estimated scf accuracy    <       0.00000003 Ry

     iteration #  9     ecut=   120.00 Ry     beta= 0.30
     Davidson diagonalization with overlap

---- Real-time Memory Report at c_bands before calling an iterative solver
           420 MiB given to the printing process from OS
           150 MiB allocation reported by mallinfo(arena+hblkhd)
          7464 MiB available memory on the node where the printing process lives
------------------
     ethr =  2.43E-11,  avg # of iterations =  3.6

     total cpu time spent up to now is      769.2 secs

     total energy              =    -128.98254705 Ry
     estimated scf accuracy    <       0.00000001 Ry

     iteration # 10     ecut=   120.00 Ry     beta= 0.30
     Davidson diagonalization with overlap

---- Real-time Memory Report at c_bands before calling an iterative solver
           420 MiB given to the printing process from OS
           152 MiB allocation reported by mallinfo(arena+hblkhd)
          7474 MiB available memory on the node where the printing process lives
------------------
     ethr =  2.43E-11,  avg # of iterations =  4.8

     total cpu time spent up to now is      777.4 secs

     total energy              =    -128.98254706 Ry
     estimated scf accuracy    <          5.0E-09 Ry

     iteration # 11     ecut=   120.00 Ry     beta= 0.30
     Davidson diagonalization with overlap

---- Real-time Memory Report at c_bands before calling an iterative solver
           420 MiB given to the printing process from OS
           152 MiB allocation reported by mallinfo(arena+hblkhd)
          7443 MiB available memory on the node where the printing process lives
------------------
     ethr =  2.43E-11,  avg # of iterations =  1.0

     total cpu time spent up to now is      784.3 secs

     total energy              =    -128.98254705 Ry
     estimated scf accuracy    <          8.9E-09 Ry

     iteration # 12     ecut=   120.00 Ry     beta= 0.30
     Davidson diagonalization with overlap

---- Real-time Memory Report at c_bands before calling an iterative solver
           420 MiB given to the printing process from OS
           152 MiB allocation reported by mallinfo(arena+hblkhd)
          7447 MiB available memory on the node where the printing process lives
------------------
     ethr =  2.43E-11,  avg # of iterations =  2.9

     total cpu time spent up to now is      790.9 secs

     total energy              =    -128.98254705 Ry
     estimated scf accuracy    <          1.5E-09 Ry

     iteration # 13     ecut=   120.00 Ry     beta= 0.30
     Davidson diagonalization with overlap

---- Real-time Memory Report at c_bands before calling an iterative solver
           420 MiB given to the printing process from OS
           152 MiB allocation reported by mallinfo(arena+hblkhd)
          7263 MiB available memory on the node where the printing process lives
------------------
     ethr =  8.41E-12,  avg # of iterations =  6.1

     total cpu time spent up to now is      800.8 secs

     total energy              =    -128.98254706 Ry
     estimated scf accuracy    <          1.2E-09 Ry

     iteration # 14     ecut=   120.00 Ry     beta= 0.30
     Davidson diagonalization with overlap

---- Real-time Memory Report at c_bands before calling an iterative solver
           420 MiB given to the printing process from OS
           152 MiB allocation reported by mallinfo(arena+hblkhd)
          7281 MiB available memory on the node where the printing process lives
------------------
     ethr =  6.86E-12,  avg # of iterations =  2.0

     total cpu time spent up to now is      806.8 secs

     total energy              =    -128.98254706 Ry
     estimated scf accuracy    <          2.4E-09 Ry

     iteration # 15     ecut=   120.00 Ry     beta= 0.30
     Davidson diagonalization with overlap

---- Real-time Memory Report at c_bands before calling an iterative solver
           420 MiB given to the printing process from OS
           152 MiB allocation reported by mallinfo(arena+hblkhd)
          7307 MiB available memory on the node where the printing process lives
------------------
     ethr =  6.86E-12,  avg # of iterations =  1.0

     total cpu time spent up to now is      812.6 secs

     total energy              =    -128.98254706 Ry
     estimated scf accuracy    <          2.1E-09 Ry

     iteration # 16     ecut=   120.00 Ry     beta= 0.30
     Davidson diagonalization with overlap

---- Real-time Memory Report at c_bands before calling an iterative solver
           420 MiB given to the printing process from OS
           152 MiB allocation reported by mallinfo(arena+hblkhd)
          7294 MiB available memory on the node where the printing process lives
------------------
     ethr =  6.86E-12,  avg # of iterations =  1.0

     total cpu time spent up to now is      818.5 secs

     total energy              =    -128.98254706 Ry
     estimated scf accuracy    <          1.4E-09 Ry

     iteration # 17     ecut=   120.00 Ry     beta= 0.30
     Davidson diagonalization with overlap

---- Real-time Memory Report at c_bands before calling an iterative solver
           420 MiB given to the printing process from OS
           152 MiB allocation reported by mallinfo(arena+hblkhd)
          7280 MiB available memory on the node where the printing process lives
------------------
     ethr =  6.86E-12,  avg # of iterations =  1.0

     total cpu time spent up to now is      824.3 secs

     total energy              =    -128.98254706 Ry
     estimated scf accuracy    <          1.5E-09 Ry

     iteration # 18     ecut=   120.00 Ry     beta= 0.30
     Davidson diagonalization with overlap

---- Real-time Memory Report at c_bands before calling an iterative solver
           420 MiB given to the printing process from OS
           152 MiB allocation reported by mallinfo(arena+hblkhd)
          7443 MiB available memory on the node where the printing process lives
------------------
     ethr =  6.86E-12,  avg # of iterations =  1.0

     total cpu time spent up to now is      830.1 secs

     total energy              =    -128.98254706 Ry
     estimated scf accuracy    <          1.3E-09 Ry

     iteration # 19     ecut=   120.00 Ry     beta= 0.30
     Davidson diagonalization with overlap

---- Real-time Memory Report at c_bands before calling an iterative solver
           420 MiB given to the printing process from OS
           152 MiB allocation reported by mallinfo(arena+hblkhd)
          7459 MiB available memory on the node where the printing process lives
------------------
     ethr =  6.86E-12,  avg # of iterations =  1.0

     total cpu time spent up to now is      836.0 secs

     total energy              =    -128.98254706 Ry
     estimated scf accuracy    <          7.6E-10 Ry

     iteration # 20     ecut=   120.00 Ry     beta= 0.30
     Davidson diagonalization with overlap

---- Real-time Memory Report at c_bands before calling an iterative solver
           420 MiB given to the printing process from OS
           152 MiB allocation reported by mallinfo(arena+hblkhd)
          7252 MiB available memory on the node where the printing process lives
------------------
     ethr =  4.20E-12,  avg # of iterations =  1.0

     total cpu time spent up to now is      842.2 secs

     total energy              =    -128.98254706 Ry
     estimated scf accuracy    <          7.3E-10 Ry

     iteration # 21     ecut=   120.00 Ry     beta= 0.30
     Davidson diagonalization with overlap

---- Real-time Memory Report at c_bands before calling an iterative solver
           420 MiB given to the printing process from OS
           152 MiB allocation reported by mallinfo(arena+hblkhd)
          7434 MiB available memory on the node where the printing process lives
------------------
     ethr =  4.06E-12,  avg # of iterations =  1.0

     total cpu time spent up to now is      848.2 secs

     total energy              =    -128.98254706 Ry
     estimated scf accuracy    <          6.4E-10 Ry

     iteration # 22     ecut=   120.00 Ry     beta= 0.30
     Davidson diagonalization with overlap

---- Real-time Memory Report at c_bands before calling an iterative solver
           420 MiB given to the printing process from OS
           152 MiB allocation reported by mallinfo(arena+hblkhd)
          7462 MiB available memory on the node where the printing process lives
------------------
     ethr =  3.58E-12,  avg # of iterations =  3.0

     total cpu time spent up to now is      856.9 secs

     total energy              =    -128.98254706 Ry
     estimated scf accuracy    <          8.9E-10 Ry

     iteration # 23     ecut=   120.00 Ry     beta= 0.30
     Davidson diagonalization with overlap

---- Real-time Memory Report at c_bands before calling an iterative solver
           420 MiB given to the printing process from OS
           152 MiB allocation reported by mallinfo(arena+hblkhd)
          7245 MiB available memory on the node where the printing process lives
------------------
     ethr =  3.58E-12,  avg # of iterations =  1.0

     total cpu time spent up to now is      862.8 secs

     total energy              =    -128.98254706 Ry
     estimated scf accuracy    <          5.1E-10 Ry

     iteration # 24     ecut=   120.00 Ry     beta= 0.30
     Davidson diagonalization with overlap

---- Real-time Memory Report at c_bands before calling an iterative solver
           420 MiB given to the printing process from OS
           152 MiB allocation reported by mallinfo(arena+hblkhd)
          7277 MiB available memory on the node where the printing process lives
------------------
     ethr =  2.85E-12,  avg # of iterations =  1.0

     total cpu time spent up to now is      868.9 secs

     total energy              =    -128.98254706 Ry
     estimated scf accuracy    <          4.5E-10 Ry

     iteration # 25     ecut=   120.00 Ry     beta= 0.30
     Davidson diagonalization with overlap

---- Real-time Memory Report at c_bands before calling an iterative solver
           420 MiB given to the printing process from OS
           152 MiB allocation reported by mallinfo(arena+hblkhd)
          7249 MiB available memory on the node where the printing process lives
------------------
     ethr =  2.52E-12,  avg # of iterations =  2.0

     total cpu time spent up to now is      875.7 secs

     total energy              =    -128.98254706 Ry
     estimated scf accuracy    <          2.6E-10 Ry

     iteration # 26     ecut=   120.00 Ry     beta= 0.30
     Davidson diagonalization with overlap

---- Real-time Memory Report at c_bands before calling an iterative solver
           420 MiB given to the printing process from OS
           152 MiB allocation reported by mallinfo(arena+hblkhd)
          7251 MiB available memory on the node where the printing process lives
------------------
     ethr =  1.46E-12,  avg # of iterations =  1.3

     total cpu time spent up to now is      881.7 secs

     total energy              =    -128.98254706 Ry
     estimated scf accuracy    <          4.1E-10 Ry

     iteration # 27     ecut=   120.00 Ry     beta= 0.30
     Davidson diagonalization with overlap

---- Real-time Memory Report at c_bands before calling an iterative solver
           420 MiB given to the printing process from OS
           152 MiB allocation reported by mallinfo(arena+hblkhd)
          7263 MiB available memory on the node where the printing process lives
------------------
     ethr =  1.46E-12,  avg # of iterations =  1.2

     total cpu time spent up to now is      887.7 secs

     total energy              =    -128.98254706 Ry
     estimated scf accuracy    <          6.8E-10 Ry

     iteration # 28     ecut=   120.00 Ry     beta= 0.30
     Davidson diagonalization with overlap

---- Real-time Memory Report at c_bands before calling an iterative solver
           420 MiB given to the printing process from OS
           152 MiB allocation reported by mallinfo(arena+hblkhd)
          7309 MiB available memory on the node where the printing process lives
------------------
     ethr =  1.46E-12,  avg # of iterations =  2.2

     total cpu time spent up to now is      894.7 secs

     total energy              =    -128.98254706 Ry
     estimated scf accuracy    <          2.6E-10 Ry

     iteration # 29     ecut=   120.00 Ry     beta= 0.30
     Davidson diagonalization with overlap

---- Real-time Memory Report at c_bands before calling an iterative solver
           420 MiB given to the printing process from OS
           152 MiB allocation reported by mallinfo(arena+hblkhd)
          7273 MiB available memory on the node where the printing process lives
------------------
     ethr =  1.46E-12,  avg # of iterations =  5.1

     total cpu time spent up to now is      903.2 secs

     total energy              =    -128.98254706 Ry
     estimated scf accuracy    <          1.8E-10 Ry

     iteration # 30     ecut=   120.00 Ry     beta= 0.30
     Davidson diagonalization with overlap

---- Real-time Memory Report at c_bands before calling an iterative solver
           420 MiB given to the printing process from OS
           152 MiB allocation reported by mallinfo(arena+hblkhd)
          7473 MiB available memory on the node where the printing process lives
------------------
     ethr =  9.78E-13,  avg # of iterations =  5.1

     total cpu time spent up to now is      912.1 secs

     total energy              =    -128.98254706 Ry
     estimated scf accuracy    <          4.8E-11 Ry

     iteration # 31     ecut=   120.00 Ry     beta= 0.30
     Davidson diagonalization with overlap

---- Real-time Memory Report at c_bands before calling an iterative solver
           420 MiB given to the printing process from OS
           152 MiB allocation reported by mallinfo(arena+hblkhd)
          7306 MiB available memory on the node where the printing process lives
------------------
     ethr =  2.69E-13,  avg # of iterations =  4.9

     total cpu time spent up to now is      920.0 secs

     total energy              =    -128.98254706 Ry
     estimated scf accuracy    <          1.6E-10 Ry

     iteration # 32     ecut=   120.00 Ry     beta= 0.30
     Davidson diagonalization with overlap

---- Real-time Memory Report at c_bands before calling an iterative solver
           420 MiB given to the printing process from OS
           152 MiB allocation reported by mallinfo(arena+hblkhd)
          7256 MiB available memory on the node where the printing process lives
------------------
     ethr =  2.69E-13,  avg # of iterations =  1.1

     total cpu time spent up to now is      926.2 secs

     total energy              =    -128.98254706 Ry
     estimated scf accuracy    <          1.3E-10 Ry

     iteration # 33     ecut=   120.00 Ry     beta= 0.30
     Davidson diagonalization with overlap

---- Real-time Memory Report at c_bands before calling an iterative solver
           420 MiB given to the printing process from OS
           152 MiB allocation reported by mallinfo(arena+hblkhd)
          7447 MiB available memory on the node where the printing process lives
------------------
     ethr =  2.69E-13,  avg # of iterations =  4.4

     total cpu time spent up to now is      934.4 secs

     total energy              =    -128.98254706 Ry
     estimated scf accuracy    <          6.7E-12 Ry

     iteration # 34     ecut=   120.00 Ry     beta= 0.30
     Davidson diagonalization with overlap

---- Real-time Memory Report at c_bands before calling an iterative solver
           420 MiB given to the printing process from OS
           152 MiB allocation reported by mallinfo(arena+hblkhd)
          7432 MiB available memory on the node where the printing process lives
------------------
     ethr =  1.00E-13,  avg # of iterations =  6.6

     total cpu time spent up to now is      944.7 secs

     total energy              =    -128.98254706 Ry
     estimated scf accuracy    <          1.6E-10 Ry

     iteration # 35     ecut=   120.00 Ry     beta= 0.30
     Davidson diagonalization with overlap

---- Real-time Memory Report at c_bands before calling an iterative solver
           420 MiB given to the printing process from OS
           152 MiB allocation reported by mallinfo(arena+hblkhd)
          7264 MiB available memory on the node where the printing process lives
------------------
     ethr =  1.00E-13,  avg # of iterations =  5.9

     total cpu time spent up to now is      955.0 secs

     End of self-consistent calculation

          k = 0.0000 0.0000 0.0000 ( 10177 PWs)   bands (ev):

    -6.3453  -6.3453  -3.9010  -3.9010  -3.9010  -3.9010  -3.3365  -3.3365
    -3.1542  -3.1542  -3.1542  -3.1542   3.9572   3.9572   4.8082   4.8082
     4.8082   4.8082

     occupation numbers 
     1.0000   1.0000   1.0000   1.0000   1.0000   1.0000   1.0000   1.0000
     1.0000   1.0000   1.0000   1.0000   1.0000   1.0000   1.0000   1.0000
     1.0000   1.0000

          k = 0.0695 0.0695-0.0695 ( 10168 PWs)   bands (ev):

    -6.3118  -6.3118  -3.9057  -3.8927  -3.8836  -3.8836  -3.3229  -3.3229
    -3.1583  -3.1519  -3.1519  -3.1418   3.4881   3.4881   4.2692   4.2692
     4.7174   4.7282

     occupation numbers 
     1.0000   1.0000   1.0000   1.0000   1.0000   1.0000   1.0000   1.0000
     1.0000   1.0000   1.0000   1.0000   1.0000   1.0000   1.0000   1.0000
     1.0000   1.0000

          k = 0.1390 0.1390-0.1390 ( 10141 PWs)   bands (ev):

    -6.2240  -6.2240  -3.9053  -3.8843  -3.8325  -3.8325  -3.2879  -3.2879
    -3.1519  -3.1345  -3.1345  -3.1251   2.4338   2.4338   3.9941   3.9941
     4.5115   4.5280

     occupation numbers 
     1.0000   1.0000   1.0000   1.0000   1.0000   1.0000   1.0000   1.0000
     1.0000   1.0000   1.0000   1.0000   1.0000   1.0000   1.0000   1.0000
     1.0000   1.0000

          k = 0.2085 0.2085-0.2085 ( 10180 PWs)   bands (ev):

    -6.1162  -6.1162  -3.9006  -3.8796  -3.7589  -3.7589  -3.2582  -3.2582
    -3.1365  -3.1097  -3.0645  -3.0645   1.4175   1.4175   3.7713   3.7713
     4.2918   4.3073

     occupation numbers 
     1.0000   1.0000   1.0000   1.0000   1.0000   1.0000   1.0000   1.0000
     1.0000   1.0000   1.0000   1.0000   1.0000   1.0000   1.0000   1.0000
     1.0000   1.0000

          k = 0.2780 0.2780-0.2780 ( 10197 PWs)   bands (ev):

    -6.0305  -6.0305  -3.8933  -3.8804  -3.6933  -3.6933  -3.2502  -3.2502
    -3.1181  -3.1015  -2.9392  -2.9392   0.6616   0.6616   3.6146   3.6146
     4.1349   4.1441

     occupation numbers 
     1.0000   1.0000   1.0000   1.0000   1.0000   1.0000   1.0000   1.0000
     1.0000   1.0000   1.0000   1.0000   1.0000   1.0000   1.0000   1.0000
     1.0000   1.0000

          k =-0.3475-0.3475 0.3475 ( 10200 PWs)   bands (ev):

    -5.9983  -5.9983  -3.8857  -3.8857  -3.6677  -3.6677  -3.2497  -3.2497
    -3.1045  -3.1045  -2.8673  -2.8673   0.3698   0.3698   3.5584   3.5584
     4.0818   4.0818

     occupation numbers 
     1.0000   1.0000   1.0000   1.0000   1.0000   1.0000   1.0000   1.0000
     1.0000   1.0000   1.0000   1.0000   1.0000   1.0000   1.0000   1.0000
     1.0000   1.0000

          k = 0.1390 0.0000 0.0000 ( 10161 PWs)   bands (ev):

    -6.3007  -6.3007  -3.8969  -3.8969  -3.8795  -3.8795  -3.3181  -3.3181
    -3.1590  -3.1590  -3.1411  -3.1411   3.4330   3.4330   4.1515   4.1515
     4.5562   4.5562

     occupation numbers 
     1.0000   1.0000   1.0000   1.0000   1.0000   1.0000   1.0000   1.0000
     1.0000   1.0000   1.0000   1.0000   1.0000   1.0000   1.0000   1.0000
     1.0000   1.0000

          k = 0.2085 0.0695-0.0695 ( 10180 PWs)   bands (ev):

    -6.2318  -6.2304  -3.8990  -3.8806  -3.8548  -3.8315  -3.2931  -3.2841
    -3.1563  -3.1550  -3.1285  -3.1206   2.6351   2.6895   3.8262   3.9257
     4.3324   4.3463

     occupation numbers 
     1.0000   1.0000   1.0000   1.0000   1.0000   1.0000   1.0000   1.0000
     1.0000   1.0000   1.0000   1.0000   1.0000   1.0000   1.0000   1.0000
     1.0000   1.0000

          k = 0.2780 0.1390-0.1390 ( 10192 PWs)   bands (ev):

    -6.1323  -6.1282  -3.8959  -3.8730  -3.8028  -3.7511  -3.2631  -3.2467
    -3.1418  -3.1331  -3.0827  -3.0721   1.6727   1.7320   3.5683   3.6902
     4.0879   4.1089

     occupation numbers 
     1.0000   1.0000   1.0000   1.0000   1.0000   1.0000   1.0000   1.0000
     1.0000   1.0000   1.0000   1.0000   1.0000   1.0000   1.0000   1.0000
     1.0000   1.0000

          k = 0.3475 0.2085-0.2085 ( 10195 PWs)   bands (ev):

    -6.0415  -6.0342  -3.8895  -3.8717  -3.7476  -3.6676  -3.2514  -3.2342
    -3.1233  -3.1106  -2.9889  -2.9458   0.8595   0.9192   3.3618   3.4969
     3.8887   3.9189

     occupation numbers 
     1.0000   1.0000   1.0000   1.0000   1.0000   1.0000   1.0000   1.0000
     1.0000   1.0000   1.0000   1.0000   1.0000   1.0000   1.0000   1.0000
     1.0000   1.0000

          k =-0.2780-0.4171 0.4171 ( 10176 PWs)   bands (ev):

    -5.9933  -5.9838  -3.8821  -3.8757  -3.7164  -3.6207  -3.2510  -3.2329
    -3.1085  -3.1051  -2.8936  -2.8344   0.4140   0.4755   3.2309   3.3735
     3.8191   3.8498

     occupation numbers 
     1.0000   1.0000   1.0000   1.0000   1.0000   1.0000   1.0000   1.0000
     1.0000   1.0000   1.0000   1.0000   1.0000   1.0000   1.0000   1.0000
     1.0000   1.0000

          k =-0.2085-0.3475 0.3475 ( 10191 PWs)   bands (ev):

    -6.0038  -5.9944  -3.8828  -3.8761  -3.7244  -3.6290  -3.2521  -3.2325
    -3.1129  -3.1036  -2.9200  -2.8581   0.5085   0.5734   3.2017   3.3500
     3.8959   3.9202

     occupation numbers 
     1.0000   1.0000   1.0000   1.0000   1.0000   1.0000   1.0000   1.0000
     1.0000   1.0000   1.0000   1.0000   1.0000   1.0000   1.0000   1.0000
     1.0000   1.0000

          k =-0.1390-0.2780 0.2780 ( 10197 PWs)   bands (ev):

    -6.0697  -6.0625  -3.8908  -3.8741  -3.7677  -3.6891  -3.2566  -3.2350
    -3.1290  -3.1114  -3.0365  -2.9851   1.0972   1.1687   3.2954   3.4547
     4.0844   4.1033

     occupation numbers 
     1.0000   1.0000   1.0000   1.0000   1.0000   1.0000   1.0000   1.0000
     1.0000   1.0000   1.0000   1.0000   1.0000   1.0000   1.0000   1.0000
     1.0000   1.0000

          k =-0.0695-0.2085 0.2085 ( 10181 PWs)   bands (ev):

    -6.1679  -6.1640  -3.8976  -3.8775  -3.8246  -3.7749  -3.2762  -3.2553
    -3.1462  -3.1304  -3.1215  -3.0870   1.9666   2.0495   3.5202   3.6952
     4.3236   4.3416

     occupation numbers 
     1.0000   1.0000   1.0000   1.0000   1.0000   1.0000   1.0000   1.0000
     1.0000   1.0000   1.0000   1.0000   1.0000   1.0000   1.0000   1.0000
     1.0000   1.0000

          k = 0.0000-0.1390 0.1390 ( 10145 PWs)   bands (ev):

    -6.2609  -6.2595  -3.9027  -3.8854  -3.8680  -3.8466  -3.3062  -3.2965
    -3.1569  -3.1485  -3.1456  -3.1266   2.8702   2.9494   3.8825   4.0402
     4.5476   4.5614

     occupation numbers 
     1.0000   1.0000   1.0000   1.0000   1.0000   1.0000   1.0000   1.0000
     1.0000   1.0000   1.0000   1.0000   1.0000   1.0000   1.0000   1.0000
     1.0000   1.0000

          k = 0.2780 0.0000 0.0000 ( 10197 PWs)   bands (ev):

    -6.1843  -6.1843  -3.8811  -3.8811  -3.8218  -3.8218  -3.2650  -3.2650
    -3.1612  -3.1612  -3.1066  -3.1066   2.4177   2.4177   3.6121   3.6121
     4.0192   4.0192

     occupation numbers 
     1.0000   1.0000   1.0000   1.0000   1.0000   1.0000   1.0000   1.0000
     1.0000   1.0000   1.0000   1.0000   1.0000   1.0000   1.0000   1.0000
     1.0000   1.0000

          k = 0.3475 0.0695-0.0695 ( 10207 PWs)   bands (ev):

    -6.1044  -6.1001  -3.8811  -3.8613  -3.8013  -3.7441  -3.2381  -3.2270
    -3.1579  -3.1473  -3.0663  -3.0591   1.7350   1.8086   3.2695   3.4138
     3.7232   3.7595

     occupation numbers 
     1.0000   1.0000   1.0000   1.0000   1.0000   1.0000   1.0000   1.0000
     1.0000   1.0000   1.0000   1.0000   1.0000   1.0000   1.0000   1.0000
     1.0000   1.0000

          k = 0.4171 0.1390-0.1390 ( 10199 PWs)   bands (ev):

    -6.0227  -6.0124  -3.8770  -3.8507  -3.7730  -3.6526  -3.2263  -3.2138
    -3.1360  -3.1256  -2.9912  -2.9388   1.0280   1.1375   2.9393   3.1586
     3.4936   3.5561

     occupation numbers 
     1.0000   1.0000   1.0000   1.0000   1.0000   1.0000   1.0000   1.0000
     1.0000   1.0000   1.0000   1.0000   1.0000   1.0000   1.0000   1.0000
     1.0000   1.0000

          k =-0.2085-0.4866 0.4866 ( 10212 PWs)   bands (ev):

    -5.9704  -5.9547  -3.8712  -3.8501  -3.7527  -3.5885  -3.2297  -3.2125
    -3.1166  -3.1104  -2.8969  -2.8036   0.5435   0.6747   2.6542   2.8857
     3.4565   3.5055

     occupation numbers 
     1.0000   1.0000   1.0000   1.0000   1.0000   1.0000   1.0000   1.0000
     1.0000   1.0000   1.0000   1.0000   1.0000   1.0000   1.0000   1.0000
     1.0000   1.0000

          k =-0.1390-0.4171 0.4171 ( 10205 PWs)   bands (ev):

    -5.9650  -5.9474  -3.8662  -3.8563  -3.7537  -3.5751  -3.2357  -3.2123
    -3.1120  -3.1050  -2.8837  -2.7720   0.4718   0.6211   2.4926   2.7330
     3.5811   3.6139

     occupation numbers 
     1.0000   1.0000   1.0000   1.0000   1.0000   1.0000   1.0000   1.0000
     1.0000   1.0000   1.0000   1.0000   1.0000   1.0000   1.0000   1.0000
     1.0000   1.0000

          k =-0.0695-0.3475 0.3475 ( 10196 PWs)   bands (ev):

    -6.0079  -5.9928  -3.8671  -3.8649  -3.7757  -3.6139  -3.2426  -3.2130
    -3.1195  -3.1108  -2.9779  -2.8706   0.8277   0.9921   2.5328   2.7905
     3.8147   3.8388

     occupation numbers 
     1.0000   1.0000   1.0000   1.0000   1.0000   1.0000   1.0000   1.0000
     1.0000   1.0000   1.0000   1.0000   1.0000   1.0000   1.0000   1.0000
     1.0000   1.0000

          k = 0.0000-0.2780 0.2780 ( 10157 PWs)   bands (ev):

    -6.0850  -6.0753  -3.8818  -3.8690  -3.8048  -3.6917  -3.2562  -3.2235
    -3.1336  -3.1233  -3.0761  -3.0007   1.4021   1.5544   2.8736   3.1274
     4.0868   4.1092

     occupation numbers 
     1.0000   1.0000   1.0000   1.0000   1.0000   1.0000   1.0000   1.0000
     1.0000   1.0000   1.0000   1.0000   1.0000   1.0000   1.0000   1.0000
     1.0000   1.0000

          k = 0.4171 0.0000 0.0000 ( 10213 PWs)   bands (ev):

    -6.0434  -6.0434  -3.8620  -3.8620  -3.7390  -3.7390  -3.2025  -3.2025
    -3.1552  -3.1552  -3.0199  -3.0199   1.4617   1.4617   3.1194   3.1194
     3.4921   3.4921

     occupation numbers 
     1.0000   1.0000   1.0000   1.0000   1.0000   1.0000   1.0000   1.0000
     1.0000   1.0000   1.0000   1.0000   1.0000   1.0000   1.0000   1.0000
     1.0000   1.0000

          k = 0.4866 0.0695-0.0695 ( 10197 PWs)   bands (ev):

    -5.9814  -5.9736  -3.8620  -3.8432  -3.7404  -3.6515  -3.1961  -3.1830
    -3.1573  -3.1260  -2.9507  -2.9125   0.9669   1.0510   2.7859   2.9503
     3.2314   3.2807

     occupation numbers 
     1.0000   1.0000   1.0000   1.0000   1.0000   1.0000   1.0000   1.0000
     1.0000   1.0000   1.0000   1.0000   1.0000   1.0000   1.0000   1.0000
     1.0000   1.0000

          k =-0.1390-0.5561 0.5561 ( 10221 PWs)   bands (ev):

    -5.9382  -5.9221  -3.8597  -3.8281  -3.7523  -3.5794  -3.1975  -3.1913
    -3.1367  -3.1078  -2.8678  -2.7773   0.5872   0.7462   2.3699   2.6265
     3.1435   3.1990

     occupation numbers 
     1.0000   1.0000   1.0000   1.0000   1.0000   1.0000   1.0000   1.0000
     1.0000   1.0000   1.0000   1.0000   1.0000   1.0000   1.0000   1.0000
     1.0000   1.0000

          k =-0.0695-0.4866 0.4866 ( 10211 PWs)   bands (ev):

    -5.9285  -5.9072  -3.8576  -3.8225  -3.7707  -3.5482  -3.2074  -3.1993
    -3.1196  -3.1019  -2.8345  -2.7085   0.4639   0.6883   2.0417   2.3505
     3.2662   3.3032

     occupation numbers 
     1.0000   1.0000   1.0000   1.0000   1.0000   1.0000   1.0000   1.0000
     1.0000   1.0000   1.0000   1.0000   1.0000   1.0000   1.0000   1.0000
     1.0000   1.0000

          k =-0.0000-0.4171 0.4171 ( 10221 PWs)   bands (ev):

    -5.9547  -5.9338  -3.8587  -3.8379  -3.7795  -3.5613  -3.2247  -3.2025
    -3.1143  -3.1051  -2.8905  -2.7556   0.5936   0.8351   2.0428   2.3684
     3.5151   3.5418

     occupation numbers 
     1.0000   1.0000   1.0000   1.0000   1.0000   1.0000   1.0000   1.0000
     1.0000   1.0000   1.0000   1.0000   1.0000   1.0000   1.0000   1.0000
     1.0000   1.0000

          k = 0.5561 0.0000 0.0000 ( 10218 PWs)   bands (ev):

    -5.9338  -5.9338  -3.8474  -3.8474  -3.6673  -3.6673  -3.1794  -3.1794
    -3.1321  -3.1321  -2.8659  -2.8659   0.7343   0.7343   2.7753   2.7753
     3.1293   3.1293

     occupation numbers 
     1.0000   1.0000   1.0000   1.0000   1.0000   1.0000   1.0000   1.0000
     1.0000   1.0000   1.0000   1.0000   1.0000   1.0000   1.0000   1.0000
     1.0000   1.0000

          k =-0.0695-0.6256 0.6256 ( 10234 PWs)   bands (ev):

    -5.9087  -5.8985  -3.8504  -3.8329  -3.7008  -3.5968  -3.1873  -3.1621
    -3.1463  -3.1078  -2.8173  -2.7624   0.4873   0.5769   2.5112   2.6787
     2.9713   3.0215

     occupation numbers 
     1.0000   1.0000   1.0000   1.0000   1.0000   1.0000   1.0000   1.0000
     1.0000   1.0000   1.0000   1.0000   1.0000   1.0000   1.0000   1.0000
     1.0000   1.0000

          k = 0.0000-0.5561 0.5561 ( 10215 PWs)   bands (ev):

    -5.9071  -5.8886  -3.8527  -3.8187  -3.7449  -3.5547  -3.1927  -3.1775
    -3.1356  -3.0998  -2.8024  -2.6996   0.4250   0.6080   2.1408   2.4124
     3.0279   3.0775

     occupation numbers 
     1.0000   1.0000   1.0000   1.0000   1.0000   1.0000   1.0000   1.0000
     1.0000   1.0000   1.0000   1.0000   1.0000   1.0000   1.0000   1.0000
     1.0000   1.0000

          k =-0.6951 0.0000 0.0000 ( 10190 PWs)   bands (ev):

    -5.8934  -5.8934  -3.8421  -3.8421  -3.6404  -3.6404  -3.1757  -3.1757
    -3.1202  -3.1202  -2.7744  -2.7744   0.4452   0.4452   2.6524   2.6524
     3.0012   3.0012

     occupation numbers 
     1.0000   1.0000   1.0000   1.0000   1.0000   1.0000   1.0000   1.0000
     1.0000   1.0000   1.0000   1.0000   1.0000   1.0000   1.0000   1.0000
     1.0000   1.0000

          k = 0.2780 0.1390 0.0000 ( 10192 PWs)   bands (ev):

    -6.1573  -6.1531  -3.8909  -3.8704  -3.8295  -3.7714  -3.2677  -3.2469
    -3.1509  -3.1485  -3.1059  -3.0829   2.0208   2.1223   3.3713   3.5823
     4.0600   4.1521

     occupation numbers 
     1.0000   1.0000   1.0000   1.0000   1.0000   1.0000   1.0000   1.0000
     1.0000   1.0000   1.0000   1.0000   1.0000   1.0000   1.0000   1.0000
     1.0000   1.0000

          k = 0.3475 0.2085-0.0695 ( 10186 PWs)   bands (ev):

    -6.0673  -6.0581  -3.8825  -3.8626  -3.7924  -3.6840  -3.2465  -3.2219
    -3.1327  -3.1300  -3.0470  -2.9894   1.2833   1.4037   2.9859   3.2194
     3.8230   3.9214

     occupation numbers 
     1.0000   1.0000   1.0000   1.0000   1.0000   1.0000   1.0000   1.0000
     1.0000   1.0000   1.0000   1.0000   1.0000   1.0000   1.0000   1.0000
     1.0000   1.0000

          k =-0.2780-0.4171 0.5561 ( 10192 PWs)   bands (ev):

    -5.9965  -5.9826  -3.8744  -3.8612  -3.7569  -3.6107  -3.2405  -3.2173
    -3.1165  -3.1122  -2.9417  -2.8535   0.6714   0.7913   2.7855   3.0132
     3.6204   3.7107

     occupation numbers 
     1.0000   1.0000   1.0000   1.0000   1.0000   1.0000   1.0000   1.0000
     1.0000   1.0000   1.0000   1.0000   1.0000   1.0000   1.0000   1.0000
     1.0000   1.0000

          k =-0.2085-0.3475 0.4866 ( 10210 PWs)   bands (ev):

    -5.9701  -5.9543  -3.8693  -3.8634  -3.7425  -3.5835  -3.2402  -3.2174
    -3.1093  -3.1069  -2.8799  -2.7823   0.4270   0.5461   2.7260   2.9507
     3.5404   3.6259

     occupation numbers 
     1.0000   1.0000   1.0000   1.0000   1.0000   1.0000   1.0000   1.0000
     1.0000   1.0000   1.0000   1.0000   1.0000   1.0000   1.0000   1.0000
     1.0000   1.0000

          k = 0.4171 0.1390-0.0000 ( 10195 PWs)   bands (ev):

    -6.0328  -6.0242  -3.8716  -3.8496  -3.7790  -3.6745  -3.2147  -3.2074
    -3.1522  -3.1316  -3.0141  -2.9706   1.2402   1.3542   2.8684   3.1192
     3.4139   3.5617

     occupation numbers 
     1.0000   1.0000   1.0000   1.0000   1.0000   1.0000   1.0000   1.0000
     1.0000   1.0000   1.0000   1.0000   1.0000   1.0000   1.0000   1.0000
     1.0000   1.0000

          k =-0.2085-0.4866 0.6256 ( 10199 PWs)   bands (ev):

    -5.9709  -5.9554  -3.8635  -3.8389  -3.7683  -3.5985  -3.2103  -3.2018
    -3.1335  -3.1143  -2.9256  -2.8363   0.7592   0.9199   2.4995   2.7910
     3.2110   3.3528

     occupation numbers 
     1.0000   1.0000   1.0000   1.0000   1.0000   1.0000   1.0000   1.0000
     1.0000   1.0000   1.0000   1.0000   1.0000   1.0000   1.0000   1.0000
     1.0000   1.0000

          k =-0.1390-0.4171 0.5561 ( 10200 PWs)   bands (ev):

    -5.9403  -5.9200  -3.8577  -3.8357  -3.7663  -3.5563  -3.2155  -3.2015
    -3.1180  -3.1059  -2.8529  -2.7346   0.4877   0.6812   2.2504   2.5491
     3.1798   3.2846

     occupation numbers 
     1.0000   1.0000   1.0000   1.0000   1.0000   1.0000   1.0000   1.0000
     1.0000   1.0000   1.0000   1.0000   1.0000   1.0000   1.0000   1.0000
     1.0000   1.0000

          k =-0.0695-0.3475 0.4866 ( 10204 PWs)   bands (ev):

    -5.9506  -5.9300  -3.8563  -3.8416  -3.7729  -3.5603  -3.2221  -3.2024
    -3.1146  -3.1076  -2.8770  -2.7511   0.5515   0.7627   2.1809   2.4893
     3.3190   3.4142

     occupation numbers 
     1.0000   1.0000   1.0000   1.0000   1.0000   1.0000   1.0000   1.0000
     1.0000   1.0000   1.0000   1.0000   1.0000   1.0000   1.0000   1.0000
     1.0000   1.0000

          k = 0.0000-0.2780 0.4171 ( 10208 PWs)   bands (ev):

    -5.9982  -5.9822  -3.8647  -3.8523  -3.7834  -3.6084  -3.2312  -3.2067
    -3.1225  -3.1172  -2.9715  -2.8653   0.8781   1.0695   2.4109   2.7075
     3.5676   3.6687

     occupation numbers 
     1.0000   1.0000   1.0000   1.0000   1.0000   1.0000   1.0000   1.0000
     1.0000   1.0000   1.0000   1.0000   1.0000   1.0000   1.0000   1.0000
     1.0000   1.0000

          k =-0.1390-0.5561 0.6951 ( 10195 PWs)   bands (ev):

    -5.9365  -5.9237  -3.8549  -3.8336  -3.7348  -3.5984  -3.1928  -3.1716
    -3.1521  -3.1110  -2.8748  -2.8059   0.6526   0.7749   2.5317   2.7891
     2.9502   3.0873

     occupation numbers 
     1.0000   1.0000   1.0000   1.0000   1.0000   1.0000   1.0000   1.0000
     1.0000   1.0000   1.0000   1.0000   1.0000   1.0000   1.0000   1.0000
     1.0000   1.0000

          k =-0.0695-0.4866 0.6256 ( 10207 PWs)   bands (ev):

    -5.9140  -5.8942  -3.8504  -3.8212  -3.7566  -3.5520  -3.1953  -3.1806
    -3.1348  -3.1020  -2.8154  -2.7087   0.4686   0.6611   2.2016   2.5026
     2.8820   2.9764

     occupation numbers 
     1.0000   1.0000   1.0000   1.0000   1.0000   1.0000   1.0000   1.0000
     1.0000   1.0000   1.0000   1.0000   1.0000   1.0000   1.0000   1.0000
     1.0000   1.0000

          k = 0.0000-0.4171 0.5561 ( 10193 PWs)   bands (ev):

    -5.9196  -5.8966  -3.8501  -3.8170  -3.7796  -3.5385  -3.2042  -3.1929
    -3.1199  -3.1027  -2.8177  -2.6879   0.4641   0.7132   1.9742   2.3139
     3.0377   3.1232

     occupation numbers 
     1.0000   1.0000   1.0000   1.0000   1.0000   1.0000   1.0000   1.0000
     1.0000   1.0000   1.0000   1.0000   1.0000   1.0000   1.0000   1.0000
     1.0000   1.0000

          k =-0.6951 0.1390-0.0000 ( 10224 PWs)   bands (ev):

    -5.9011  -5.8866  -3.8485  -3.8279  -3.7175  -3.5716  -3.1891  -3.1550
    -3.1524  -3.1020  -2.7954  -2.7193   0.4207   0.5464   2.4207   2.6414
     2.8427   2.8752

     occupation numbers 
     1.0000   1.0000   1.0000   1.0000   1.0000   1.0000   1.0000   1.0000
     1.0000   1.0000   1.0000   1.0000   1.0000   1.0000   1.0000   1.0000
     1.0000   1.0000

          k =-0.1390-0.4171 0.6951 ( 10230 PWs)   bands (ev):

    -5.9311  -5.9097  -3.8485  -3.8284  -3.7754  -3.5516  -3.2048  -3.1918
    -3.1257  -3.1063  -2.8477  -2.7288   0.5483   0.7697   2.1619   2.5127
     2.9158   3.0671

     occupation numbers 
     1.0000   1.0000   1.0000   1.0000   1.0000   1.0000   1.0000   1.0000
     1.0000   1.0000   1.0000   1.0000   1.0000   1.0000   1.0000   1.0000
     1.0000   1.0000

          k =-0.0695-0.3475 0.6256 ( 10214 PWs)   bands (ev):

    -5.9163  -5.8925  -3.8426  -3.8212  -3.7822  -3.5339  -3.2043  -3.1882
    -3.1203  -3.1051  -2.8089  -2.6810   0.4634   0.7095   2.0568   2.4250
     2.7909   2.9176

     occupation numbers 
     1.0000   1.0000   1.0000   1.0000   1.0000   1.0000   1.0000   1.0000
     1.0000   1.0000   1.0000   1.0000   1.0000   1.0000   1.0000   1.0000
     1.0000   1.0000

          k =-0.6951 0.2780 0.0000 ( 10200 PWs)   bands (ev):

    -5.9062  -5.8828  -3.8406  -3.8168  -3.7759  -3.5325  -3.1982  -3.1785
    -3.1286  -3.1025  -2.7905  -2.6696   0.4396   0.6719   2.1430   2.5583
     2.6394   2.6423

     occupation numbers 
     1.0000   1.0000   1.0000   1.0000   1.0000   1.0000   1.0000   1.0000
     1.0000   1.0000   1.0000   1.0000   1.0000   1.0000   1.0000   1.0000
     1.0000   1.0000

     highest occupied level (ev):     4.8082

!    total energy              =    -128.98254706 Ry
     estimated scf accuracy    <          9.6E-13 Ry

     The total energy is the sum of the following terms:
     one-electron contribution =     -50.76474941 Ry
     hartree contribution      =      36.75359061 Ry
     xc contribution           =     -39.47575804 Ry
     ewald contribution        =     -75.49563022 Ry

     convergence has been achieved in  35 iterations

     Forces acting on atoms (cartesian axes, Ry/au):

     atom    1 type  1   force =    -0.00000000    0.00000000   -0.00000000
     atom    2 type  2   force =     0.00000000    0.00000000    0.00000000
     The non-local contrib.  to forces
     atom    1 type  1   force =    -0.00000000    0.00000000   -0.00000000
     atom    2 type  2   force =     0.00000000    0.00000000   -0.00000000
     The ionic contribution  to forces
     atom    1 type  1   force =     0.00000000    0.00000000    0.00000000
     atom    2 type  2   force =     0.00000000    0.00000000    0.00000000
     The local contribution  to forces
     atom    1 type  1   force =    -0.00000000    0.00000000    0.00000000
     atom    2 type  2   force =     0.00000000    0.00000000   -0.00000000
     The core correction contribution to forces
     atom    1 type  1   force =    -0.00000000    0.00000000   -0.00000000
     atom    2 type  2   force =     0.00000000   -0.00000000    0.00000000
     The Hubbard contrib.    to forces
     atom    1 type  1   force =     0.00000000    0.00000000    0.00000000
     atom    2 type  2   force =     0.00000000    0.00000000    0.00000000
     The SCF correction term to forces
     atom    1 type  1   force =    -0.00000000   -0.00000000   -0.00000000
     atom    2 type  2   force =    -0.00000000   -0.00000000    0.00000000

     Total force =     0.000000     Total SCF correction =     0.000000


     Computing stress (Cartesian axis) and pressure

          total   stress  (Ry/bohr**3)                   (kbar)     P=        5.31
   0.00003611   0.00000000   0.00000000            5.31        0.00        0.00
   0.00000000   0.00003611   0.00000000            0.00        5.31        0.00
   0.00000000   0.00000000   0.00003611            0.00        0.00        5.31

     kinetic stress (kbar)   9106.05     -0.00      0.00
                               -0.00   9106.05      0.00
                                0.00      0.00   9106.05

     local   stress (kbar)    482.61      0.00      0.00
                                0.00    482.61     -0.00
                                0.00     -0.00    482.61

     nonloc. stress (kbar)  -3430.18     -0.00     -0.00
                                0.00  -3430.18      0.00
                               -0.00      0.00  -3430.18

     hartree stress (kbar)   3725.66      0.00     -0.00
                                0.00   3725.66      0.00
                               -0.00      0.00   3725.66

     exc-cor stress (kbar)   4268.23     -0.00      0.00
                               -0.00   4268.23      0.00
                                0.00      0.00   4268.23

     corecor stress (kbar)  -6494.18     -0.00      0.00
                               -0.00  -6494.18      0.00
                                0.00      0.00  -6494.18

     ewald   stress (kbar)  -7652.89     -0.00     -0.00
                               -0.00  -7652.89     -0.00
                               -0.00     -0.00  -7652.89

     hubbard stress (kbar)      0.00      0.00      0.00
                                0.00      0.00      0.00
                                0.00      0.00      0.00

     DFT-D   stress (kbar)      0.00      0.00      0.00
                                0.00      0.00      0.00
                                0.00      0.00      0.00

     XDM     stress (kbar)      0.00      0.00      0.00
                                0.00      0.00      0.00
                                0.00      0.00      0.00

     dft-nl  stress (kbar)      0.00      0.00      0.00
                                0.00      0.00      0.00
                                0.00      0.00      0.00

     TS-vdW  stress (kbar)      0.00      0.00      0.00
                                0.00      0.00      0.00
                                0.00      0.00      0.00

     MDB     stress (kbar)      0.00      0.00      0.00
                                0.00      0.00      0.00
                                0.00      0.00      0.00

     3D-RISM stress (kbar)      0.00      0.00      0.00
                                0.00      0.00      0.00
                                0.00      0.00      0.00

     Energy error            =      7.1E-04 Ry
     Gradient error          =      8.2E-31 Ry/Bohr
     Cell gradient error     =      5.3E+00 kbar

     number of scf cycles    =   4
     number of bfgs steps    =   3

     enthalpy           old  =    -128.9818385000 Ry
     enthalpy           new  =    -128.9825470567 Ry

     CASE: enthalpy          _new < enthalpy          _old

     new trust radius        =       0.0200736231 bohr
     new conv_thr            =            1.0E-12 Ry

     new unit-cell volume =    490.38238 a.u.^3 (    72.66717 Ang^3 )
     density =      5.48463 g/cm^3

CELL_PARAMETERS (angstrom)
  -0.000000000   3.312094749   3.312094749
   3.312094749  -0.000000000   3.312094749
   3.312094749   3.312094749   0.000000000

ATOMIC_POSITIONS (crystal)
Cd               0.0000000000       -0.0000000000       -0.0000000000
Te               0.2500000000        0.2500000000        0.2500000000



     Writing config-only to output data dir /home/User/opencode_workspace/DFT/calculations/cdte/relax_soc/out/pwscf.save/ :
     XML data file
     NEW-OLD atomic charge density approx. for the potential
     New effective cutoffs (rho, wfc):  689.31  114.89

     total cpu time spent up to now is      965.0 secs

     per-process dynamical memory:   128.3 Mb

     Self-consistent Calculation

     iteration #  1     ecut=   120.00 Ry     beta= 0.30
     Davidson diagonalization with overlap

---- Real-time Memory Report at c_bands before calling an iterative solver
           420 MiB given to the printing process from OS
           125 MiB allocation reported by mallinfo(arena+hblkhd)
          7493 MiB available memory on the node where the printing process lives
------------------
     ethr =  1.00E-06,  avg # of iterations =  7.2

     Threshold (ethr) on eigenvalues was too large:
     Diagonalizing with lowered threshold

     Davidson diagonalization with overlap

---- Real-time Memory Report at c_bands before calling an iterative solver
           420 MiB given to the printing process from OS
           130 MiB allocation reported by mallinfo(arena+hblkhd)
          7396 MiB available memory on the node where the printing process lives
------------------
     ethr =  3.50E-08,  avg # of iterations =  6.5

     total cpu time spent up to now is      986.6 secs

     total energy              =    -128.98267340 Ry
     estimated scf accuracy    <       0.00000767 Ry

     iteration #  2     ecut=   120.00 Ry     beta= 0.30
     Davidson diagonalization with overlap

---- Real-time Memory Report at c_bands before calling an iterative solver
           420 MiB given to the printing process from OS
           139 MiB allocation reported by mallinfo(arena+hblkhd)
          7333 MiB available memory on the node where the printing process lives
------------------
     ethr =  4.26E-08,  avg # of iterations =  1.1

     total cpu time spent up to now is      993.0 secs

     total energy              =    -128.98267297 Ry
     estimated scf accuracy    <       0.00000273 Ry

     iteration #  3     ecut=   120.00 Ry     beta= 0.30
     Davidson diagonalization with overlap

---- Real-time Memory Report at c_bands before calling an iterative solver
           420 MiB given to the printing process from OS
           140 MiB allocation reported by mallinfo(arena+hblkhd)
          7303 MiB available memory on the node where the printing process lives
------------------
     ethr =  1.52E-08,  avg # of iterations =  2.2

     total cpu time spent up to now is     1000.2 secs

     total energy              =    -128.98267357 Ry
     estimated scf accuracy    <       0.00000022 Ry

     iteration #  4     ecut=   120.00 Ry     beta= 0.30
     Davidson diagonalization with overlap

---- Real-time Memory Report at c_bands before calling an iterative solver
           420 MiB given to the printing process from OS
           142 MiB allocation reported by mallinfo(arena+hblkhd)
          7500 MiB available memory on the node where the printing process lives
------------------
     ethr =  1.23E-09,  avg # of iterations =  7.4

     total cpu time spent up to now is     1009.0 secs

     total energy              =    -128.98267382 Ry
     estimated scf accuracy    <       0.00000006 Ry

     iteration #  5     ecut=   120.00 Ry     beta= 0.30
     Davidson diagonalization with overlap

---- Real-time Memory Report at c_bands before calling an iterative solver
           420 MiB given to the printing process from OS
           144 MiB allocation reported by mallinfo(arena+hblkhd)
          7302 MiB available memory on the node where the printing process lives
------------------
     ethr =  3.50E-10,  avg # of iterations =  2.7

     total cpu time spent up to now is     1015.4 secs

     total energy              =    -128.98267385 Ry
     estimated scf accuracy    <       0.00000004 Ry

     iteration #  6     ecut=   120.00 Ry     beta= 0.30
     Davidson diagonalization with overlap

---- Real-time Memory Report at c_bands before calling an iterative solver
           420 MiB given to the printing process from OS
           145 MiB allocation reported by mallinfo(arena+hblkhd)
          7469 MiB available memory on the node where the printing process lives
------------------
     ethr =  1.98E-10,  avg # of iterations =  4.8

     total cpu time spent up to now is     1025.3 secs

     total energy              =    -128.98267390 Ry
     estimated scf accuracy    <       0.00000002 Ry

     iteration #  7     ecut=   120.00 Ry     beta= 0.30
     Davidson diagonalization with overlap

---- Real-time Memory Report at c_bands before calling an iterative solver
           420 MiB given to the printing process from OS
           147 MiB allocation reported by mallinfo(arena+hblkhd)
          7482 MiB available memory on the node where the printing process lives
------------------
     ethr =  9.32E-11,  avg # of iterations =  3.2

     total cpu time spent up to now is     1032.2 secs

     total energy              =    -128.98267389 Ry
     estimated scf accuracy    <       0.00000004 Ry

     iteration #  8     ecut=   120.00 Ry     beta= 0.30
     Davidson diagonalization with overlap

---- Real-time Memory Report at c_bands before calling an iterative solver
           420 MiB given to the printing process from OS
           149 MiB allocation reported by mallinfo(arena+hblkhd)
          7466 MiB available memory on the node where the printing process lives
------------------
     ethr =  9.32E-11,  avg # of iterations =  4.0

     total cpu time spent up to now is     1039.3 secs

     total energy              =    -128.98267390 Ry
     estimated scf accuracy    <          9.3E-09 Ry

     iteration #  9     ecut=   120.00 Ry     beta= 0.30
     Davidson diagonalization with overlap

---- Real-time Memory Report at c_bands before calling an iterative solver
           420 MiB given to the printing process from OS
           150 MiB allocation reported by mallinfo(arena+hblkhd)
          7473 MiB available memory on the node where the printing process lives
------------------
     ethr =  5.16E-11,  avg # of iterations =  3.0

     total cpu time spent up to now is     1046.7 secs

     total energy              =    -128.98267390 Ry
     estimated scf accuracy    <          1.2E-09 Ry

     iteration # 10     ecut=   120.00 Ry     beta= 0.30
     Davidson diagonalization with overlap

---- Real-time Memory Report at c_bands before calling an iterative solver
           420 MiB given to the printing process from OS
           152 MiB allocation reported by mallinfo(arena+hblkhd)
          7256 MiB available memory on the node where the printing process lives
------------------
     ethr =  6.42E-12,  avg # of iterations =  5.0

     total cpu time spent up to now is     1055.6 secs

     total energy              =    -128.98267390 Ry
     estimated scf accuracy    <          1.0E-10 Ry

     iteration # 11     ecut=   120.00 Ry     beta= 0.30
     Davidson diagonalization with overlap

---- Real-time Memory Report at c_bands before calling an iterative solver
           420 MiB given to the printing process from OS
           152 MiB allocation reported by mallinfo(arena+hblkhd)
          7260 MiB available memory on the node where the printing process lives
------------------
     ethr =  5.54E-13,  avg # of iterations =  9.1

     total cpu time spent up to now is     1067.5 secs

     total energy              =    -128.98267390 Ry
     estimated scf accuracy    <          5.0E-10 Ry

     iteration # 12     ecut=   120.00 Ry     beta= 0.30
     Davidson diagonalization with overlap

---- Real-time Memory Report at c_bands before calling an iterative solver
           420 MiB given to the printing process from OS
           152 MiB allocation reported by mallinfo(arena+hblkhd)
          7267 MiB available memory on the node where the printing process lives
------------------
     ethr =  5.54E-13,  avg # of iterations =  6.2

     total cpu time spent up to now is     1076.7 secs

     total energy              =    -128.98267390 Ry
     estimated scf accuracy    <          1.3E-09 Ry

     iteration # 13     ecut=   120.00 Ry     beta= 0.30
     Davidson diagonalization with overlap

---- Real-time Memory Report at c_bands before calling an iterative solver
           420 MiB given to the printing process from OS
           152 MiB allocation reported by mallinfo(arena+hblkhd)
          7254 MiB available memory on the node where the printing process lives
------------------
     ethr =  5.54E-13,  avg # of iterations =  5.6

     total cpu time spent up to now is     1085.9 secs

     total energy              =    -128.98267390 Ry
     estimated scf accuracy    <          3.0E-10 Ry

     iteration # 14     ecut=   120.00 Ry     beta= 0.30
     Davidson diagonalization with overlap

---- Real-time Memory Report at c_bands before calling an iterative solver
           420 MiB given to the printing process from OS
           152 MiB allocation reported by mallinfo(arena+hblkhd)
          7256 MiB available memory on the node where the printing process lives
------------------
     ethr =  5.54E-13,  avg # of iterations =  1.2

     total cpu time spent up to now is     1091.9 secs

     total energy              =    -128.98267390 Ry
     estimated scf accuracy    <          2.9E-10 Ry

     iteration # 15     ecut=   120.00 Ry     beta= 0.30
     Davidson diagonalization with overlap

---- Real-time Memory Report at c_bands before calling an iterative solver
           420 MiB given to the printing process from OS
           152 MiB allocation reported by mallinfo(arena+hblkhd)
          7234 MiB available memory on the node where the printing process lives
------------------
     ethr =  5.54E-13,  avg # of iterations =  1.7

     total cpu time spent up to now is     1098.0 secs

     total energy              =    -128.98267390 Ry
     estimated scf accuracy    <          2.1E-10 Ry

     iteration # 16     ecut=   120.00 Ry     beta= 0.30
     Davidson diagonalization with overlap

---- Real-time Memory Report at c_bands before calling an iterative solver
           420 MiB given to the printing process from OS
           152 MiB allocation reported by mallinfo(arena+hblkhd)
          7240 MiB available memory on the node where the printing process lives
------------------
     ethr =  5.54E-13,  avg # of iterations =  4.3

     total cpu time spent up to now is     1105.3 secs

     total energy              =    -128.98267390 Ry
     estimated scf accuracy    <          1.6E-11 Ry

     iteration # 17     ecut=   120.00 Ry     beta= 0.30
     Davidson diagonalization with overlap

---- Real-time Memory Report at c_bands before calling an iterative solver
           420 MiB given to the printing process from OS
           152 MiB allocation reported by mallinfo(arena+hblkhd)
          7462 MiB available memory on the node where the printing process lives
------------------
     ethr =  1.00E-13,  avg # of iterations =  6.5

     total cpu time spent up to now is     1116.0 secs

     total energy              =    -128.98267390 Ry
     estimated scf accuracy    <          2.7E-11 Ry

     iteration # 18     ecut=   120.00 Ry     beta= 0.30
     Davidson diagonalization with overlap

---- Real-time Memory Report at c_bands before calling an iterative solver
           420 MiB given to the printing process from OS
           152 MiB allocation reported by mallinfo(arena+hblkhd)
          7252 MiB available memory on the node where the printing process lives
------------------
     ethr =  1.00E-13,  avg # of iterations =  2.1

     total cpu time spent up to now is     1122.5 secs

     total energy              =    -128.98267390 Ry
     estimated scf accuracy    <          2.3E-11 Ry

     iteration # 19     ecut=   120.00 Ry     beta= 0.30
     Davidson diagonalization with overlap

---- Real-time Memory Report at c_bands before calling an iterative solver
           420 MiB given to the printing process from OS
           152 MiB allocation reported by mallinfo(arena+hblkhd)
          7200 MiB available memory on the node where the printing process lives
------------------
     ethr =  1.00E-13,  avg # of iterations =  3.6

     total cpu time spent up to now is     1129.9 secs

     total energy              =    -128.98267390 Ry
     estimated scf accuracy    <          2.3E-12 Ry

     iteration # 20     ecut=   120.00 Ry     beta= 0.30
     Davidson diagonalization with overlap

---- Real-time Memory Report at c_bands before calling an iterative solver
           420 MiB given to the printing process from OS
           152 MiB allocation reported by mallinfo(arena+hblkhd)
          7237 MiB available memory on the node where the printing process lives
------------------
     ethr =  1.00E-13,  avg # of iterations =  2.1

     total cpu time spent up to now is     1136.2 secs

     End of self-consistent calculation

          k = 0.0000 0.0000 0.0000 ( 10177 PWs)   bands (ev):

    -6.4260  -6.4260  -4.0155  -4.0155  -4.0155  -4.0155  -3.4463  -3.4463
    -3.2718  -3.2718  -3.2718  -3.2718   3.8078   3.8078   4.6566   4.6566
     4.6566   4.6566

     occupation numbers 
     1.0000   1.0000   1.0000   1.0000   1.0000   1.0000   1.0000   1.0000
     1.0000   1.0000   1.0000   1.0000   1.0000   1.0000   1.0000   1.0000
     1.0000   1.0000

          k = 0.0692 0.0692-0.0692 ( 10168 PWs)   bands (ev):

    -6.3936  -6.3936  -4.0200  -4.0076  -3.9986  -3.9986  -3.4330  -3.4330
    -3.2756  -3.2693  -3.2693  -3.2598   3.3422   3.3422   4.1190   4.1190
     4.5684   4.5789

     occupation numbers 
     1.0000   1.0000   1.0000   1.0000   1.0000   1.0000   1.0000   1.0000
     1.0000   1.0000   1.0000   1.0000   1.0000   1.0000   1.0000   1.0000
     1.0000   1.0000

          k = 0.1384 0.1384-0.1384 ( 10141 PWs)   bands (ev):

    -6.3087  -6.3087  -4.0197  -3.9996  -3.9490  -3.9490  -3.3991  -3.3991
    -3.2693  -3.2516  -3.2516  -3.2437   2.3059   2.3059   3.8513   3.8513
     4.3681   4.3841

     occupation numbers 
     1.0000   1.0000   1.0000   1.0000   1.0000   1.0000   1.0000   1.0000
     1.0000   1.0000   1.0000   1.0000   1.0000   1.0000   1.0000   1.0000
     1.0000   1.0000

          k = 0.2076 0.2076-0.2076 ( 10180 PWs)   bands (ev):

    -6.2046  -6.2046  -4.0152  -3.9952  -3.8780  -3.8780  -3.3710  -3.3710
    -3.2545  -3.2288  -3.1829  -3.1829   1.3108   1.3108   3.6342   3.6342
     4.1538   4.1689

     occupation numbers 
     1.0000   1.0000   1.0000   1.0000   1.0000   1.0000   1.0000   1.0000
     1.0000   1.0000   1.0000   1.0000   1.0000   1.0000   1.0000   1.0000
     1.0000   1.0000

          k = 0.2768 0.2768-0.2768 ( 10197 PWs)   bands (ev):

    -6.1218  -6.1218  -4.0083  -3.9959  -3.8148  -3.8148  -3.3634  -3.3634
    -3.2368  -3.2209  -3.0630  -3.0630   0.5737   0.5737   3.4814   3.4814
     4.0006   4.0096

     occupation numbers 
     1.0000   1.0000   1.0000   1.0000   1.0000   1.0000   1.0000   1.0000
     1.0000   1.0000   1.0000   1.0000   1.0000   1.0000   1.0000   1.0000
     1.0000   1.0000

          k =-0.3460-0.3460 0.3460 ( 10200 PWs)   bands (ev):

    -6.0907  -6.0907  -4.0011  -4.0011  -3.7901  -3.7901  -3.3629  -3.3629
    -3.2238  -3.2238  -2.9951  -2.9951   0.2907   0.2907   3.4265   3.4265
     3.9488   3.9488

     occupation numbers 
     1.0000   1.0000   1.0000   1.0000   1.0000   1.0000   1.0000   1.0000
     1.0000   1.0000   1.0000   1.0000   1.0000   1.0000   1.0000   1.0000
     1.0000   1.0000

          k = 0.1384 0.0000 0.0000 ( 10161 PWs)   bands (ev):

    -6.3828  -6.3828  -4.0116  -4.0116  -3.9946  -3.9946  -3.4283  -3.4283
    -3.2762  -3.2762  -3.2590  -3.2590   3.2855   3.2855   4.0038   4.0038
     4.4121   4.4121

     occupation numbers 
     1.0000   1.0000   1.0000   1.0000   1.0000   1.0000   1.0000   1.0000
     1.0000   1.0000   1.0000   1.0000   1.0000   1.0000   1.0000   1.0000
     1.0000   1.0000

          k = 0.2076 0.0692-0.0692 ( 10180 PWs)   bands (ev):

    -6.3163  -6.3149  -4.0137  -3.9961  -3.9705  -3.9480  -3.4041  -3.3952
    -3.2736  -3.2719  -3.2461  -3.2390   2.5001   2.5548   3.6861   3.7868
     4.1936   4.2071

     occupation numbers 
     1.0000   1.0000   1.0000   1.0000   1.0000   1.0000   1.0000   1.0000
     1.0000   1.0000   1.0000   1.0000   1.0000   1.0000   1.0000   1.0000
     1.0000   1.0000

          k = 0.2768 0.1384-0.1384 ( 10192 PWs)   bands (ev):

    -6.2202  -6.2161  -4.0107  -3.9889  -3.9203  -3.8702  -3.3756  -3.3596
    -3.2596  -3.2506  -3.2014  -3.1904   1.5577   1.6175   3.4337   3.5580
     3.9545   3.9751

     occupation numbers 
     1.0000   1.0000   1.0000   1.0000   1.0000   1.0000   1.0000   1.0000
     1.0000   1.0000   1.0000   1.0000   1.0000   1.0000   1.0000   1.0000
     1.0000   1.0000

          k = 0.3460 0.2076-0.2076 ( 10195 PWs)   bands (ev):

    -6.1325  -6.1253  -4.0046  -3.9876  -3.8672  -3.7897  -3.3646  -3.3479
    -3.2418  -3.2295  -3.1106  -3.0687   0.7645   0.8247   3.2315   3.3694
     3.7593   3.7894

     occupation numbers 
     1.0000   1.0000   1.0000   1.0000   1.0000   1.0000   1.0000   1.0000
     1.0000   1.0000   1.0000   1.0000   1.0000   1.0000   1.0000   1.0000
     1.0000   1.0000

          k =-0.2768-0.4152 0.4152 ( 10176 PWs)   bands (ev):

    -6.0859  -6.0766  -3.9976  -3.9914  -3.8373  -3.7443  -3.3642  -3.3467
    -3.2276  -3.2243  -3.0206  -2.9630   0.3321   0.3941   3.1035   3.2494
     3.6903   3.7215

     occupation numbers 
     1.0000   1.0000   1.0000   1.0000   1.0000   1.0000   1.0000   1.0000
     1.0000   1.0000   1.0000   1.0000   1.0000   1.0000   1.0000   1.0000
     1.0000   1.0000

          k =-0.2076-0.3460 0.3460 ( 10191 PWs)   bands (ev):

    -6.0961  -6.0868  -3.9983  -3.9918  -3.8449  -3.7523  -3.3652  -3.3463
    -3.2318  -3.2229  -3.0454  -2.9854   0.4236   0.4891   3.0755   3.2275
     3.7644   3.7898

     occupation numbers 
     1.0000   1.0000   1.0000   1.0000   1.0000   1.0000   1.0000   1.0000
     1.0000   1.0000   1.0000   1.0000   1.0000   1.0000   1.0000   1.0000
     1.0000   1.0000

          k =-0.1384-0.2768 0.2768 ( 10197 PWs)   bands (ev):

    -6.1597  -6.1527  -4.0059  -3.9899  -3.8866  -3.8104  -3.3696  -3.3487
    -3.2473  -3.2303  -3.1560  -3.1063   0.9958   1.0680   3.1680   3.3310
     3.9478   3.9682

     occupation numbers 
     1.0000   1.0000   1.0000   1.0000   1.0000   1.0000   1.0000   1.0000
     1.0000   1.0000   1.0000   1.0000   1.0000   1.0000   1.0000   1.0000
     1.0000   1.0000

          k =-0.0692-0.2076 0.2076 ( 10181 PWs)   bands (ev):

    -6.2546  -6.2507  -4.0124  -3.9932  -3.9415  -3.8932  -3.3881  -3.3677
    -3.2638  -3.2484  -3.2384  -3.2055   1.8450   1.9285   3.3884   3.5667
     4.1812   4.2007

     occupation numbers 
     1.0000   1.0000   1.0000   1.0000   1.0000   1.0000   1.0000   1.0000
     1.0000   1.0000   1.0000   1.0000   1.0000   1.0000   1.0000   1.0000
     1.0000   1.0000

          k = 0.0000-0.1384 0.1384 ( 10145 PWs)   bands (ev):

    -6.3444  -6.3431  -4.0172  -4.0007  -3.9834  -3.9626  -3.4168  -3.4073
    -3.2742  -3.2656  -3.2631  -3.2448   2.7316   2.8112   3.7415   3.9012
     4.4010   4.4157

     occupation numbers 
     1.0000   1.0000   1.0000   1.0000   1.0000   1.0000   1.0000   1.0000
     1.0000   1.0000   1.0000   1.0000   1.0000   1.0000   1.0000   1.0000
     1.0000   1.0000

          k = 0.2768 0.0000 0.0000 ( 10197 PWs)   bands (ev):

    -6.2704  -6.2704  -3.9965  -3.9965  -3.9385  -3.9385  -3.3766  -3.3766
    -3.2781  -3.2781  -3.2250  -3.2250   2.2832   2.2832   3.4797   3.4797
     3.8889   3.8889

     occupation numbers 
     1.0000   1.0000   1.0000   1.0000   1.0000   1.0000   1.0000   1.0000
     1.0000   1.0000   1.0000   1.0000   1.0000   1.0000   1.0000   1.0000
     1.0000   1.0000

          k = 0.3460 0.0692-0.0692 ( 10207 PWs)   bands (ev):

    -6.1932  -6.1890  -3.9965  -3.9777  -3.9186  -3.8634  -3.3512  -3.3402
    -3.2744  -3.2649  -3.1855  -3.1779   1.6139   1.6875   3.1434   3.2885
     3.5993   3.6348

     occupation numbers 
     1.0000   1.0000   1.0000   1.0000   1.0000   1.0000   1.0000   1.0000
     1.0000   1.0000   1.0000   1.0000   1.0000   1.0000   1.0000   1.0000
     1.0000   1.0000

          k = 0.4152 0.1384-0.1384 ( 10199 PWs)   bands (ev):

    -6.1144  -6.1042  -3.9927  -3.9676  -3.8914  -3.7750  -3.3405  -3.3279
    -3.2533  -3.2441  -3.1128  -3.0617   0.9247   1.0346   2.8192   3.0416
     3.3723   3.4352

     occupation numbers 
     1.0000   1.0000   1.0000   1.0000   1.0000   1.0000   1.0000   1.0000
     1.0000   1.0000   1.0000   1.0000   1.0000   1.0000   1.0000   1.0000
     1.0000   1.0000

          k =-0.2076-0.4844 0.4844 ( 10212 PWs)   bands (ev):

    -6.0639  -6.0484  -3.9871  -3.9669  -3.8721  -3.7128  -3.3438  -3.3267
    -3.2351  -3.2295  -3.0237  -2.9329   0.4550   0.5867   2.5395   2.7759
     3.3343   3.3846

     occupation numbers 
     1.0000   1.0000   1.0000   1.0000   1.0000   1.0000   1.0000   1.0000
     1.0000   1.0000   1.0000   1.0000   1.0000   1.0000   1.0000   1.0000
     1.0000   1.0000

          k =-0.1384-0.4152 0.4152 ( 10205 PWs)   bands (ev):

    -6.0587  -6.0413  -3.9824  -3.9728  -3.8733  -3.6997  -3.3495  -3.3267
    -3.2309  -3.2242  -3.0116  -2.9029   0.3858   0.5357   2.3817   2.6272
     3.4551   3.4897

     occupation numbers 
     1.0000   1.0000   1.0000   1.0000   1.0000   1.0000   1.0000   1.0000
     1.0000   1.0000   1.0000   1.0000   1.0000   1.0000   1.0000   1.0000
     1.0000   1.0000

          k =-0.0692-0.3460 0.3460 ( 10196 PWs)   bands (ev):

    -6.1002  -6.0852  -3.9830  -3.9811  -3.8946  -3.7373  -3.3561  -3.3275
    -3.2382  -3.2298  -3.1003  -2.9963   0.7303   0.8950   2.4227   2.6852
     3.6828   3.7088

     occupation numbers 
     1.0000   1.0000   1.0000   1.0000   1.0000   1.0000   1.0000   1.0000
     1.0000   1.0000   1.0000   1.0000   1.0000   1.0000   1.0000   1.0000
     1.0000   1.0000

          k = 0.0000-0.2768 0.2768 ( 10157 PWs)   bands (ev):

    -6.1745  -6.1649  -3.9971  -3.9851  -3.9224  -3.8127  -3.3691  -3.3375
    -3.2518  -3.2416  -3.1939  -3.1213   1.2899   1.4423   2.7577   3.0156
     3.9483   3.9727

     occupation numbers 
     1.0000   1.0000   1.0000   1.0000   1.0000   1.0000   1.0000   1.0000
     1.0000   1.0000   1.0000   1.0000   1.0000   1.0000   1.0000   1.0000
     1.0000   1.0000

          k = 0.4152 0.0000 0.0000 ( 10213 PWs)   bands (ev):

    -6.1342  -6.1342  -3.9784  -3.9784  -3.8584  -3.8584  -3.3165  -3.3165
    -3.2724  -3.2724  -3.1401  -3.1401   1.3451   1.3451   2.9995   2.9995
     3.3739   3.3739

     occupation numbers 
     1.0000   1.0000   1.0000   1.0000   1.0000   1.0000   1.0000   1.0000
     1.0000   1.0000   1.0000   1.0000   1.0000   1.0000   1.0000   1.0000
     1.0000   1.0000

          k = 0.4844 0.0692-0.0692 ( 10197 PWs)   bands (ev):

    -6.0744  -6.0668  -3.9783  -3.9605  -3.8597  -3.7738  -3.3105  -3.2987
    -3.2738  -3.2446  -3.0739  -3.0365   0.8620   0.9458   2.6720   2.8372
     3.1181   3.1667

     occupation numbers 
     1.0000   1.0000   1.0000   1.0000   1.0000   1.0000   1.0000   1.0000
     1.0000   1.0000   1.0000   1.0000   1.0000   1.0000   1.0000   1.0000
     1.0000   1.0000

          k =-0.1384-0.5535 0.5535 ( 10221 PWs)   bands (ev):

    -6.0327  -6.0168  -3.9760  -3.9461  -3.8713  -3.7037  -3.3120  -3.3070
    -3.2541  -3.2270  -2.9958  -2.9075   0.4938   0.6522   2.2647   2.5248
     3.0286   3.0855

     occupation numbers 
     1.0000   1.0000   1.0000   1.0000   1.0000   1.0000   1.0000   1.0000
     1.0000   1.0000   1.0000   1.0000   1.0000   1.0000   1.0000   1.0000
     1.0000   1.0000

          k =-0.0692-0.4844 0.4844 ( 10211 PWs)   bands (ev):

    -6.0234  -6.0024  -3.9741  -3.9406  -3.8893  -3.6731  -3.3223  -3.3139
    -3.2380  -3.2213  -2.9653  -2.8423   0.3753   0.5986   1.9433   2.2558
     3.1476   3.1862

     occupation numbers 
     1.0000   1.0000   1.0000   1.0000   1.0000   1.0000   1.0000   1.0000
     1.0000   1.0000   1.0000   1.0000   1.0000   1.0000   1.0000   1.0000
     1.0000   1.0000

          k =-0.0000-0.4152 0.4152 ( 10221 PWs)   bands (ev):

    -6.0487  -6.0281  -3.9752  -3.9550  -3.8982  -3.6860  -3.3389  -3.3172
    -3.2331  -3.2244  -3.0181  -2.8867   0.5011   0.7416   1.9443   2.2737
     3.3904   3.4189

     occupation numbers 
     1.0000   1.0000   1.0000   1.0000   1.0000   1.0000   1.0000   1.0000
     1.0000   1.0000   1.0000   1.0000   1.0000   1.0000   1.0000   1.0000
     1.0000   1.0000

          k = 0.5535 0.0000 0.0000 ( 10218 PWs)   bands (ev):

    -6.0283  -6.0283  -3.9644  -3.9644  -3.7891  -3.7891  -3.2944  -3.2944
    -3.2505  -3.2505  -2.9925  -2.9925   0.6360   0.6360   2.6635   2.6635
     3.0189   3.0189

     occupation numbers 
     1.0000   1.0000   1.0000   1.0000   1.0000   1.0000   1.0000   1.0000
     1.0000   1.0000   1.0000   1.0000   1.0000   1.0000   1.0000   1.0000
     1.0000   1.0000

          k =-0.0692-0.6227 0.6227 ( 10234 PWs)   bands (ev):

    -6.0041  -5.9941  -3.9671  -3.9506  -3.8215  -3.7206  -3.3019  -3.2781
    -3.2640  -3.2271  -2.9474  -2.8939   0.3961   0.4852   2.4041   2.5728
     2.8630   2.9131

     occupation numbers 
     1.0000   1.0000   1.0000   1.0000   1.0000   1.0000   1.0000   1.0000
     1.0000   1.0000   1.0000   1.0000   1.0000   1.0000   1.0000   1.0000
     1.0000   1.0000

          k = 0.0000-0.5535 0.5535 ( 10215 PWs)   bands (ev):

    -6.0027  -5.9844  -3.9694  -3.9372  -3.8641  -3.6794  -3.3073  -3.2937
    -3.2531  -3.2193  -2.9345  -2.8340   0.3362   0.5179   2.0421   2.3167
     2.9153   2.9664

     occupation numbers 
     1.0000   1.0000   1.0000   1.0000   1.0000   1.0000   1.0000   1.0000
     1.0000   1.0000   1.0000   1.0000   1.0000   1.0000   1.0000   1.0000
     1.0000   1.0000

          k =-0.6919 0.0000 0.0000 ( 10190 PWs)   bands (ev):

    -5.9893  -5.9893  -3.9593  -3.9593  -3.7630  -3.7630  -3.2909  -3.2909
    -3.2391  -3.2391  -2.9061  -2.9061   0.3560   0.3560   2.5436   2.5436
     2.8936   2.8936

     occupation numbers 
     1.0000   1.0000   1.0000   1.0000   1.0000   1.0000   1.0000   1.0000
     1.0000   1.0000   1.0000   1.0000   1.0000   1.0000   1.0000   1.0000
     1.0000   1.0000

          k = 0.2768 0.1384 0.0000 ( 10192 PWs)   bands (ev):

    -6.2444  -6.2401  -4.0059  -3.9863  -3.9460  -3.8898  -3.3798  -3.3595
    -3.2678  -3.2659  -3.2239  -3.2016   1.8955   1.9970   3.2437   3.4570
     3.9241   4.0165

     occupation numbers 
     1.0000   1.0000   1.0000   1.0000   1.0000   1.0000   1.0000   1.0000
     1.0000   1.0000   1.0000   1.0000   1.0000   1.0000   1.0000   1.0000
     1.0000   1.0000

          k = 0.3460 0.2076-0.0692 ( 10186 PWs)   bands (ev):

    -6.1574  -6.1483  -3.9979  -3.9789  -3.9103  -3.8054  -3.3598  -3.3359
    -3.2507  -3.2479  -3.1663  -3.1104   1.1743   1.2952   2.8663   3.1036
     3.6915   3.7907

     occupation numbers 
     1.0000   1.0000   1.0000   1.0000   1.0000   1.0000   1.0000   1.0000
     1.0000   1.0000   1.0000   1.0000   1.0000   1.0000   1.0000   1.0000
     1.0000   1.0000

          k =-0.2768-0.4152 0.5535 ( 10192 PWs)   bands (ev):

    -6.0891  -6.0754  -3.9902  -3.9776  -3.8763  -3.7344  -3.3541  -3.3315
    -3.2353  -3.2310  -3.0660  -2.9803   0.5797   0.7003   2.6684   2.9006
     3.4939   3.5851

     occupation numbers 
     1.0000   1.0000   1.0000   1.0000   1.0000   1.0000   1.0000   1.0000
     1.0000   1.0000   1.0000   1.0000   1.0000   1.0000   1.0000   1.0000
     1.0000   1.0000

          k =-0.2076-0.3460 0.4844 ( 10210 PWs)   bands (ev):

    -6.0636  -6.0480  -3.9853  -3.9795  -3.8624  -3.7080  -3.3537  -3.3316
    -3.2284  -3.2260  -3.0080  -2.9130   0.3432   0.4630   2.6093   2.8388
     3.4160   3.5023

     occupation numbers 
     1.0000   1.0000   1.0000   1.0000   1.0000   1.0000   1.0000   1.0000
     1.0000   1.0000   1.0000   1.0000   1.0000   1.0000   1.0000   1.0000
     1.0000   1.0000

          k = 0.4152 0.1384-0.0000 ( 10195 PWs)   bands (ev):

    -6.1241  -6.1156  -3.9874  -3.9665  -3.8971  -3.7961  -3.3292  -3.3216
    -3.2687  -3.2499  -3.1347  -3.0922   1.1293   1.2430   2.7526   3.0046
     3.2939   3.4410

     occupation numbers 
     1.0000   1.0000   1.0000   1.0000   1.0000   1.0000   1.0000   1.0000
     1.0000   1.0000   1.0000   1.0000   1.0000   1.0000   1.0000   1.0000
     1.0000   1.0000

          k =-0.2076-0.4844 0.6227 ( 10199 PWs)   bands (ev):

    -6.0644  -6.0491  -3.9797  -3.9563  -3.8869  -3.7224  -3.3251  -3.3163
    -3.2511  -3.2332  -3.0505  -2.9636   0.6614   0.8218   2.3906   2.6855
     3.0944   3.2364

     occupation numbers 
     1.0000   1.0000   1.0000   1.0000   1.0000   1.0000   1.0000   1.0000
     1.0000   1.0000   1.0000   1.0000   1.0000   1.0000   1.0000   1.0000
     1.0000   1.0000

          k =-0.1384-0.4152 0.5535 ( 10200 PWs)   bands (ev):

    -6.0348  -6.0147  -3.9742  -3.9531  -3.8853  -3.6811  -3.3300  -3.3161
    -3.2366  -3.2251  -2.9824  -2.8671   0.3992   0.5925   2.1456   2.4488
     3.0637   3.1693

     occupation numbers 
     1.0000   1.0000   1.0000   1.0000   1.0000   1.0000   1.0000   1.0000
     1.0000   1.0000   1.0000   1.0000   1.0000   1.0000   1.0000   1.0000
     1.0000   1.0000

          k =-0.0692-0.3460 0.4844 ( 10204 PWs)   bands (ev):

    -6.0448  -6.0245  -3.9730  -3.9586  -3.8918  -3.6851  -3.3364  -3.3171
    -3.2334  -3.2266  -3.0052  -2.8826   0.4609   0.6717   2.0783   2.3911
     3.1992   3.2954

     occupation numbers 
     1.0000   1.0000   1.0000   1.0000   1.0000   1.0000   1.0000   1.0000
     1.0000   1.0000   1.0000   1.0000   1.0000   1.0000   1.0000   1.0000
     1.0000   1.0000

          k = 0.0000-0.2768 0.4152 ( 10208 PWs)   bands (ev):

    -6.0908  -6.0750  -3.9809  -3.9690  -3.9018  -3.7319  -3.3453  -3.3212
    -3.2409  -3.2358  -3.0941  -2.9912   0.7775   0.9686   2.3047   2.6052
     3.4415   3.5437

     occupation numbers 
     1.0000   1.0000   1.0000   1.0000   1.0000   1.0000   1.0000   1.0000
     1.0000   1.0000   1.0000   1.0000   1.0000   1.0000   1.0000   1.0000
     1.0000   1.0000

          k =-0.1384-0.5535 0.6919 ( 10195 PWs)   bands (ev):

    -6.0311  -6.0185  -3.9715  -3.9513  -3.8543  -3.7222  -3.3074  -3.2882
    -3.2686  -3.2301  -3.0020  -2.9348   0.5562   0.6780   2.4233   2.6804
     2.8434   2.9779

     occupation numbers 
     1.0000   1.0000   1.0000   1.0000   1.0000   1.0000   1.0000   1.0000
     1.0000   1.0000   1.0000   1.0000   1.0000   1.0000   1.0000   1.0000
     1.0000   1.0000

          k =-0.0692-0.4844 0.6227 ( 10207 PWs)   bands (ev):

    -6.0093  -5.9899  -3.9672  -3.9395  -3.8754  -3.6769  -3.3099  -3.2968
    -3.2523  -3.2214  -2.9467  -2.8425   0.3784   0.5698   2.1002   2.4046
     2.7738   2.8686

     occupation numbers 
     1.0000   1.0000   1.0000   1.0000   1.0000   1.0000   1.0000   1.0000
     1.0000   1.0000   1.0000   1.0000   1.0000   1.0000   1.0000   1.0000
     1.0000   1.0000

          k = 0.0000-0.4152 0.5535 ( 10193 PWs)   bands (ev):

    -6.0148  -5.9921  -3.9670  -3.9354  -3.8977  -3.6635  -3.3189  -3.3081
    -3.2383  -3.2219  -2.9495  -2.8227   0.3747   0.6222   1.8778   2.2209
     2.9248   3.0114

     occupation numbers 
     1.0000   1.0000   1.0000   1.0000   1.0000   1.0000   1.0000   1.0000
     1.0000   1.0000   1.0000   1.0000   1.0000   1.0000   1.0000   1.0000
     1.0000   1.0000

          k =-0.6919 0.1384 0.0000 ( 10224 PWs)   bands (ev):

    -5.9968  -5.9825  -3.9653  -3.9458  -3.8376  -3.6960  -3.3037  -3.2724
    -3.2688  -3.2215  -2.9273  -2.8529   0.3316   0.4567   2.3144   2.5363
     2.7392   2.7705

     occupation numbers 
     1.0000   1.0000   1.0000   1.0000   1.0000   1.0000   1.0000   1.0000
     1.0000   1.0000   1.0000   1.0000   1.0000   1.0000   1.0000   1.0000
     1.0000   1.0000

          k =-0.1384-0.4152 0.6919 ( 10230 PWs)   bands (ev):

    -6.0259  -6.0048  -3.9654  -3.9462  -3.8938  -3.6764  -3.3194  -3.3072
    -3.2438  -3.2254  -2.9774  -2.8613   0.4560   0.6764   2.0606   2.4150
     2.8061   2.9577

     occupation numbers 
     1.0000   1.0000   1.0000   1.0000   1.0000   1.0000   1.0000   1.0000
     1.0000   1.0000   1.0000   1.0000   1.0000   1.0000   1.0000   1.0000
     1.0000   1.0000

          k =-0.0692-0.3460 0.6227 ( 10214 PWs)   bands (ev):

    -6.0116  -5.9881  -3.9599  -3.9392  -3.9002  -3.6591  -3.3188  -3.3038
    -3.2387  -3.2242  -2.9411  -2.8161   0.3740   0.6187   1.9572   2.3294
     2.6846   2.8116

     occupation numbers 
     1.0000   1.0000   1.0000   1.0000   1.0000   1.0000   1.0000   1.0000
     1.0000   1.0000   1.0000   1.0000   1.0000   1.0000   1.0000   1.0000
     1.0000   1.0000

          k =-0.6919 0.2768 0.0000 ( 10200 PWs)   bands (ev):

    -6.0019  -5.9788  -3.9580  -3.9354  -3.8939  -3.6577  -3.3127  -3.2948
    -3.2465  -3.2218  -2.9236  -2.8054   0.3503   0.5812   2.0405   2.4580
     2.5391   2.5442

     occupation numbers 
     1.0000   1.0000   1.0000   1.0000   1.0000   1.0000   1.0000   1.0000
     1.0000   1.0000   1.0000   1.0000   1.0000   1.0000   1.0000   1.0000
     1.0000   1.0000

     highest occupied level (ev):     4.6566

!    total energy              =    -128.98267390 Ry
     estimated scf accuracy    <          4.2E-13 Ry

     The total energy is the sum of the following terms:
     one-electron contribution =     -51.30770647 Ry
     hartree contribution      =      36.94254443 Ry
     xc contribution           =     -39.46483800 Ry
     ewald contribution        =     -75.15267387 Ry

     convergence has been achieved in  20 iterations

     Forces acting on atoms (cartesian axes, Ry/au):

     atom    1 type  1   force =     0.00000000    0.00000000    0.00000000
     atom    2 type  2   force =     0.00000000    0.00000000    0.00000000
     The non-local contrib.  to forces
     atom    1 type  1   force =     0.00000000   -0.00000000    0.00000000
     atom    2 type  2   force =    -0.00000000    0.00000000   -0.00000000
     The ionic contribution  to forces
     atom    1 type  1   force =    -0.00000000    0.00000000   -0.00000000
     atom    2 type  2   force =     0.00000000    0.00000000    0.00000000
     The local contribution  to forces
     atom    1 type  1   force =     0.00000000   -0.00000000    0.00000000
     atom    2 type  2   force =     0.00000000   -0.00000000    0.00000000
     The core correction contribution to forces
     atom    1 type  1   force =     0.00000000   -0.00000000   -0.00000000
     atom    2 type  2   force =     0.00000000   -0.00000000   -0.00000000
     The Hubbard contrib.    to forces
     atom    1 type  1   force =     0.00000000    0.00000000    0.00000000
     atom    2 type  2   force =     0.00000000    0.00000000    0.00000000
     The SCF correction term to forces
     atom    1 type  1   force =    -0.00000000   -0.00000000    0.00000000
     atom    2 type  2   force =    -0.00000000   -0.00000000   -0.00000000

     Total force =     0.000000     Total SCF correction =     0.000000


     Computing stress (Cartesian axis) and pressure

          total   stress  (Ry/bohr**3)                   (kbar)     P=        0.36
   0.00000247  -0.00000000   0.00000000            0.36       -0.00        0.00
   0.00000000   0.00000247   0.00000000            0.00        0.36        0.00
   0.00000000   0.00000000   0.00000247            0.00        0.00        0.36

     kinetic stress (kbar)   8980.84      0.00     -0.00
                                0.00   8980.84      0.00
                               -0.00     -0.00   8980.84

     local   stress (kbar)    423.51      0.00      0.00
                                0.00    423.51      0.00
                                0.00      0.00    423.51

     nonloc. stress (kbar)  -3388.56     -0.00     -0.00
                               -0.00  -3388.56     -0.00
                                0.00     -0.00  -3388.56

     hartree stress (kbar)   3694.01     -0.00     -0.00
                               -0.00   3694.01     -0.00
                               -0.00     -0.00   3694.01

     exc-cor stress (kbar)   4211.07      0.00     -0.00
                                0.00   4211.07      0.00
                               -0.00      0.00   4211.07

     corecor stress (kbar)  -6405.74      0.00     -0.00
                                0.00  -6405.74     -0.00
                               -0.00     -0.00  -6405.74

     ewald   stress (kbar)  -7514.78     -0.00     -0.00
                               -0.00  -7514.78     -0.00
                               -0.00     -0.00  -7514.78

     hubbard stress (kbar)      0.00      0.00      0.00
                                0.00      0.00      0.00
                                0.00      0.00      0.00

     DFT-D   stress (kbar)      0.00      0.00      0.00
                                0.00      0.00      0.00
                                0.00      0.00      0.00

     XDM     stress (kbar)      0.00      0.00      0.00
                                0.00      0.00      0.00
                                0.00      0.00      0.00

     dft-nl  stress (kbar)      0.00      0.00      0.00
                                0.00      0.00      0.00
                                0.00      0.00      0.00

     TS-vdW  stress (kbar)      0.00      0.00      0.00
                                0.00      0.00      0.00
                                0.00      0.00      0.00

     MDB     stress (kbar)      0.00      0.00      0.00
                                0.00      0.00      0.00
                                0.00      0.00      0.00

     3D-RISM stress (kbar)      0.00      0.00      0.00
                                0.00      0.00      0.00
                                0.00      0.00      0.00

     Energy error            =      1.3E-04 Ry
     Gradient error          =      4.5E-32 Ry/Bohr
     Cell gradient error     =      3.6E-01 kbar

     number of scf cycles    =   5
     number of bfgs steps    =   4

     enthalpy           old  =    -128.9825470567 Ry
     enthalpy           new  =    -128.9826739025 Ry

     CASE: enthalpy          _new < enthalpy          _old

     new trust radius        =       0.0014903155 bohr
     new conv_thr            =            1.0E-12 Ry

     new unit-cell volume =    490.87758 a.u.^3 (    72.74055 Ang^3 )
     density =      5.47910 g/cm^3

CELL_PARAMETERS (angstrom)
  -0.000000000   3.313209258   3.313209258
   3.313209258  -0.000000000   3.313209258
   3.313209258   3.313209258   0.000000000

ATOMIC_POSITIONS (crystal)
Cd               0.0000000000       -0.0000000000       -0.0000000000
Te               0.2500000000        0.2500000000        0.2500000000



     Writing config-only to output data dir /home/User/opencode_workspace/DFT/calculations/cdte/relax_soc/out/pwscf.save/ :
     XML data file
     NEW-OLD atomic charge density approx. for the potential
     New effective cutoffs (rho, wfc):  688.84  114.82

     total cpu time spent up to now is     1145.0 secs

     per-process dynamical memory:   128.3 Mb

     Self-consistent Calculation

     iteration #  1     ecut=   120.00 Ry     beta= 0.30
     Davidson diagonalization with overlap

---- Real-time Memory Report at c_bands before calling an iterative solver
           420 MiB given to the printing process from OS
           125 MiB allocation reported by mallinfo(arena+hblkhd)
          7428 MiB available memory on the node where the printing process lives
------------------
     ethr =  1.00E-06,  avg # of iterations =  2.0

     Threshold (ethr) on eigenvalues was too large:
     Diagonalizing with lowered threshold

     Davidson diagonalization with overlap

---- Real-time Memory Report at c_bands before calling an iterative solver
           420 MiB given to the printing process from OS
           130 MiB allocation reported by mallinfo(arena+hblkhd)
          7425 MiB available memory on the node where the printing process lives
------------------
     ethr =  1.53E-09,  avg # of iterations =  6.7

     total cpu time spent up to now is     1163.2 secs

     total energy              =    -128.98267452 Ry
     estimated scf accuracy    <       0.00000004 Ry

     iteration #  2     ecut=   120.00 Ry     beta= 0.30
     Davidson diagonalization with overlap

---- Real-time Memory Report at c_bands before calling an iterative solver
           420 MiB given to the printing process from OS
           139 MiB allocation reported by mallinfo(arena+hblkhd)
          7513 MiB available memory on the node where the printing process lives
------------------
     ethr =  2.22E-10,  avg # of iterations =  2.6

     total cpu time spent up to now is     1169.8 secs

     total energy              =    -128.98267452 Ry
     estimated scf accuracy    <       0.00000001 Ry

     iteration #  3     ecut=   120.00 Ry     beta= 0.30
     Davidson diagonalization with overlap

---- Real-time Memory Report at c_bands before calling an iterative solver
           420 MiB given to the printing process from OS
           140 MiB allocation reported by mallinfo(arena+hblkhd)
          7380 MiB available memory on the node where the printing process lives
------------------
     ethr =  7.92E-11,  avg # of iterations =  3.1

     total cpu time spent up to now is     1177.5 secs

     total energy              =    -128.98267452 Ry
     estimated scf accuracy    <          7.6E-10 Ry

     iteration #  4     ecut=   120.00 Ry     beta= 0.30
     Davidson diagonalization with overlap

---- Real-time Memory Report at c_bands before calling an iterative solver
           420 MiB given to the printing process from OS
           142 MiB allocation reported by mallinfo(arena+hblkhd)
          7364 MiB available memory on the node where the printing process lives
------------------
     ethr =  4.23E-12,  avg # of iterations =  8.8

     total cpu time spent up to now is     1189.2 secs

     total energy              =    -128.98267452 Ry
     estimated scf accuracy    <          5.0E-10 Ry

     iteration #  5     ecut=   120.00 Ry     beta= 0.30
     Davidson diagonalization with overlap

---- Real-time Memory Report at c_bands before calling an iterative solver
           420 MiB given to the printing process from OS
           144 MiB allocation reported by mallinfo(arena+hblkhd)
          7478 MiB available memory on the node where the printing process lives
------------------
     ethr =  2.78E-12,  avg # of iterations =  1.5

     total cpu time spent up to now is     1195.6 secs

     total energy              =    -128.98267452 Ry
     estimated scf accuracy    <          3.2E-10 Ry

     iteration #  6     ecut=   120.00 Ry     beta= 0.30
     Davidson diagonalization with overlap

---- Real-time Memory Report at c_bands before calling an iterative solver
           420 MiB given to the printing process from OS
           145 MiB allocation reported by mallinfo(arena+hblkhd)
          7287 MiB available memory on the node where the printing process lives
------------------
     ethr =  1.77E-12,  avg # of iterations =  5.0

     total cpu time spent up to now is     1205.2 secs

     total energy              =    -128.98267452 Ry
     estimated scf accuracy    <          1.1E-10 Ry

     iteration #  7     ecut=   120.00 Ry     beta= 0.30
     Davidson diagonalization with overlap

---- Real-time Memory Report at c_bands before calling an iterative solver
           420 MiB given to the printing process from OS
           147 MiB allocation reported by mallinfo(arena+hblkhd)
          7481 MiB available memory on the node where the printing process lives
------------------
     ethr =  6.17E-13,  avg # of iterations =  1.4

     total cpu time spent up to now is     1211.3 secs

     total energy              =    -128.98267452 Ry
     estimated scf accuracy    <          1.0E-10 Ry

     iteration #  8     ecut=   120.00 Ry     beta= 0.30
     Davidson diagonalization with overlap

---- Real-time Memory Report at c_bands before calling an iterative solver
           420 MiB given to the printing process from OS
           149 MiB allocation reported by mallinfo(arena+hblkhd)
          7489 MiB available memory on the node where the printing process lives
------------------
     ethr =  5.79E-13,  avg # of iterations =  1.5

     total cpu time spent up to now is     1217.5 secs

     total energy              =    -128.98267452 Ry
     estimated scf accuracy    <          4.1E-11 Ry

     iteration #  9     ecut=   120.00 Ry     beta= 0.30
     Davidson diagonalization with overlap

---- Real-time Memory Report at c_bands before calling an iterative solver
           420 MiB given to the printing process from OS
           150 MiB allocation reported by mallinfo(arena+hblkhd)
          7270 MiB available memory on the node where the printing process lives
------------------
     ethr =  2.30E-13,  avg # of iterations =  7.7

     total cpu time spent up to now is     1228.7 secs

     total energy              =    -128.98267452 Ry
     estimated scf accuracy    <          4.4E-10 Ry

     iteration # 10     ecut=   120.00 Ry     beta= 0.30
     Davidson diagonalization with overlap

---- Real-time Memory Report at c_bands before calling an iterative solver
           420 MiB given to the printing process from OS
           152 MiB allocation reported by mallinfo(arena+hblkhd)
          7293 MiB available memory on the node where the printing process lives
------------------
     ethr =  2.30E-13,  avg # of iterations =  1.1

     total cpu time spent up to now is     1234.6 secs

     total energy              =    -128.98267452 Ry
     estimated scf accuracy    <          5.0E-10 Ry

     iteration # 11     ecut=   120.00 Ry     beta= 0.30
     Davidson diagonalization with overlap

---- Real-time Memory Report at c_bands before calling an iterative solver
           420 MiB given to the printing process from OS
           152 MiB allocation reported by mallinfo(arena+hblkhd)
          7267 MiB available memory on the node where the printing process lives
------------------
     ethr =  2.30E-13,  avg # of iterations =  4.6

     total cpu time spent up to now is     1242.8 secs

     total energy              =    -128.98267452 Ry
     estimated scf accuracy    <          1.5E-10 Ry

     iteration # 12     ecut=   120.00 Ry     beta= 0.30
     Davidson diagonalization with overlap

---- Real-time Memory Report at c_bands before calling an iterative solver
           420 MiB given to the printing process from OS
           152 MiB allocation reported by mallinfo(arena+hblkhd)
          7259 MiB available memory on the node where the printing process lives
------------------
     ethr =  2.30E-13,  avg # of iterations =  5.1

     total cpu time spent up to now is     1250.6 secs

     total energy              =    -128.98267452 Ry
     estimated scf accuracy    <          2.4E-11 Ry

     iteration # 13     ecut=   120.00 Ry     beta= 0.30
     Davidson diagonalization with overlap

---- Real-time Memory Report at c_bands before calling an iterative solver
           420 MiB given to the printing process from OS
           152 MiB allocation reported by mallinfo(arena+hblkhd)
          7253 MiB available memory on the node where the printing process lives
------------------
     ethr =  1.36E-13,  avg # of iterations =  4.7

     total cpu time spent up to now is     1259.0 secs

     End of self-consistent calculation

          k = 0.0000 0.0000 0.0000 ( 10177 PWs)   bands (ev):

    -6.4319  -6.4319  -4.0239  -4.0239  -4.0239  -4.0239  -3.4543  -3.4543
    -3.2804  -3.2804  -3.2804  -3.2804   3.7969   3.7969   4.6455   4.6455
     4.6455   4.6455

     occupation numbers 
     1.0000   1.0000   1.0000   1.0000   1.0000   1.0000   1.0000   1.0000
     1.0000   1.0000   1.0000   1.0000   1.0000   1.0000   1.0000   1.0000
     1.0000   1.0000

          k = 0.0692 0.0692-0.0692 ( 10168 PWs)   bands (ev):

    -6.3996  -6.3996  -4.0285  -4.0160  -4.0070  -4.0070  -3.4411  -3.4411
    -3.2842  -3.2780  -3.2780  -3.2684   3.3316   3.3316   4.1080   4.1080
     4.5575   4.5680

     occupation numbers 
     1.0000   1.0000   1.0000   1.0000   1.0000   1.0000   1.0000   1.0000
     1.0000   1.0000   1.0000   1.0000   1.0000   1.0000   1.0000   1.0000
     1.0000   1.0000

          k = 0.1383 0.1383-0.1383 ( 10141 PWs)   bands (ev):

    -6.3150  -6.3150  -4.0282  -4.0081  -3.9576  -3.9576  -3.4073  -3.4073
    -3.2780  -3.2602  -3.2602  -3.2524   2.2965   2.2965   3.8408   3.8408
     4.3576   4.3735

     occupation numbers 
     1.0000   1.0000   1.0000   1.0000   1.0000   1.0000   1.0000   1.0000
     1.0000   1.0000   1.0000   1.0000   1.0000   1.0000   1.0000   1.0000
     1.0000   1.0000

          k = 0.2075 0.2075-0.2075 ( 10180 PWs)   bands (ev):

    -6.2111  -6.2111  -4.0237  -4.0037  -3.8867  -3.8867  -3.3793  -3.3793
    -3.2632  -3.2376  -3.1916  -3.1916   1.3029   1.3029   3.6241   3.6241
     4.1437   4.1587

     occupation numbers 
     1.0000   1.0000   1.0000   1.0000   1.0000   1.0000   1.0000   1.0000
     1.0000   1.0000   1.0000   1.0000   1.0000   1.0000   1.0000   1.0000
     1.0000   1.0000

          k = 0.2767 0.2767-0.2767 ( 10197 PWs)   bands (ev):

    -6.1285  -6.1285  -4.0168  -4.0044  -3.8237  -3.8237  -3.3718  -3.3718
    -3.2455  -3.2297  -3.0721  -3.0721   0.5673   0.5673   3.4716   3.4716
     3.9908   3.9998

     occupation numbers 
     1.0000   1.0000   1.0000   1.0000   1.0000   1.0000   1.0000   1.0000
     1.0000   1.0000   1.0000   1.0000   1.0000   1.0000   1.0000   1.0000
     1.0000   1.0000

          k =-0.3458-0.3458 0.3458 ( 10200 PWs)   bands (ev):

    -6.0975  -6.0975  -4.0095  -4.0095  -3.7991  -3.7991  -3.3712  -3.3712
    -3.2325  -3.2325  -3.0045  -3.0045   0.2849   0.2849   3.4169   3.4169
     3.9390   3.9390

     occupation numbers 
     1.0000   1.0000   1.0000   1.0000   1.0000   1.0000   1.0000   1.0000
     1.0000   1.0000   1.0000   1.0000   1.0000   1.0000   1.0000   1.0000
     1.0000   1.0000

          k = 0.1383 0.0000 0.0000 ( 10161 PWs)   bands (ev):

    -6.3889  -6.3889  -4.0200  -4.0200  -4.0031  -4.0031  -3.4364  -3.4364
    -3.2848  -3.2848  -3.2676  -3.2676   3.2747   3.2747   3.9930   3.9930
     4.4015   4.4015

     occupation numbers 
     1.0000   1.0000   1.0000   1.0000   1.0000   1.0000   1.0000   1.0000
     1.0000   1.0000   1.0000   1.0000   1.0000   1.0000   1.0000   1.0000
     1.0000   1.0000

          k = 0.2075 0.0692-0.0692 ( 10180 PWs)   bands (ev):

    -6.3225  -6.3211  -4.0221  -4.0046  -3.9790  -3.9565  -3.4122  -3.4034
    -3.2823  -3.2805  -3.2548  -3.2477   2.4902   2.5449   3.6758   3.7766
     4.1835   4.1969

     occupation numbers 
     1.0000   1.0000   1.0000   1.0000   1.0000   1.0000   1.0000   1.0000
     1.0000   1.0000   1.0000   1.0000   1.0000   1.0000   1.0000   1.0000
     1.0000   1.0000

          k = 0.2767 0.1383-0.1383 ( 10192 PWs)   bands (ev):

    -6.2266  -6.2226  -4.0192  -3.9974  -3.9290  -3.8790  -3.3838  -3.3679
    -3.2682  -3.2592  -3.2101  -3.1991   1.5493   1.6091   3.4239   3.5483
     3.9448   3.9653

     occupation numbers 
     1.0000   1.0000   1.0000   1.0000   1.0000   1.0000   1.0000   1.0000
     1.0000   1.0000   1.0000   1.0000   1.0000   1.0000   1.0000   1.0000
     1.0000   1.0000

          k = 0.3458 0.2075-0.2075 ( 10195 PWs)   bands (ev):

    -6.1392  -6.1319  -4.0131  -3.9962  -3.8760  -3.7987  -3.3729  -3.3563
    -3.2505  -3.2382  -3.1196  -3.0778   0.7576   0.8178   3.2219   3.3601
     3.7498   3.7799

     occupation numbers 
     1.0000   1.0000   1.0000   1.0000   1.0000   1.0000   1.0000   1.0000
     1.0000   1.0000   1.0000   1.0000   1.0000   1.0000   1.0000   1.0000
     1.0000   1.0000

          k =-0.2767-0.4150 0.4150 ( 10176 PWs)   bands (ev):

    -6.0927  -6.0834  -4.0060  -3.9999  -3.8461  -3.7534  -3.3725  -3.3550
    -3.2364  -3.2331  -3.0299  -2.9725   0.3261   0.3882   3.0942   3.2404
     3.6809   3.7121

     occupation numbers 
     1.0000   1.0000   1.0000   1.0000   1.0000   1.0000   1.0000   1.0000
     1.0000   1.0000   1.0000   1.0000   1.0000   1.0000   1.0000   1.0000
     1.0000   1.0000

          k =-0.2075-0.3458 0.3458 ( 10191 PWs)   bands (ev):

    -6.1029  -6.0936  -4.0068  -4.0003  -3.8538  -3.7614  -3.3736  -3.3547
    -3.2406  -3.2317  -3.0546  -2.9947   0.4174   0.4829   3.0663   3.2185
     3.7548   3.7802

     occupation numbers 
     1.0000   1.0000   1.0000   1.0000   1.0000   1.0000   1.0000   1.0000
     1.0000   1.0000   1.0000   1.0000   1.0000   1.0000   1.0000   1.0000
     1.0000   1.0000

          k =-0.1383-0.2767 0.2767 ( 10197 PWs)   bands (ev):

    -6.1663  -6.1593  -4.0143  -3.9984  -3.8954  -3.8194  -3.3779  -3.3571
    -3.2560  -3.2391  -3.1648  -3.1152   0.9884   1.0606   3.1586   3.3219
     3.9378   3.9583

     occupation numbers 
     1.0000   1.0000   1.0000   1.0000   1.0000   1.0000   1.0000   1.0000
     1.0000   1.0000   1.0000   1.0000   1.0000   1.0000   1.0000   1.0000
     1.0000   1.0000

          k =-0.0692-0.2075 0.2075 ( 10181 PWs)   bands (ev):

    -6.2610  -6.2570  -4.0208  -4.0017  -3.9501  -3.9019  -3.3963  -3.3760
    -3.2725  -3.2570  -3.2470  -3.2142   1.8361   1.9196   3.3787   3.5572
     4.1708   4.1903

     occupation numbers 
     1.0000   1.0000   1.0000   1.0000   1.0000   1.0000   1.0000   1.0000
     1.0000   1.0000   1.0000   1.0000   1.0000   1.0000   1.0000   1.0000
     1.0000   1.0000

          k = 0.0000-0.1383 0.1383 ( 10145 PWs)   bands (ev):

    -6.3506  -6.3492  -4.0256  -4.0092  -3.9919  -3.9712  -3.4250  -3.4155
    -3.2828  -3.2742  -3.2717  -3.2535   2.7215   2.8011   3.7311   3.8910
     4.3903   4.4050

     occupation numbers 
     1.0000   1.0000   1.0000   1.0000   1.0000   1.0000   1.0000   1.0000
     1.0000   1.0000   1.0000   1.0000   1.0000   1.0000   1.0000   1.0000
     1.0000   1.0000

          k = 0.2767 0.0000 0.0000 ( 10197 PWs)   bands (ev):

    -6.2767  -6.2767  -4.0050  -4.0050  -3.9471  -3.9471  -3.3849  -3.3849
    -3.2867  -3.2867  -3.2337  -3.2337   2.2734   2.2734   3.4700   3.4700
     3.8794   3.8794

     occupation numbers 
     1.0000   1.0000   1.0000   1.0000   1.0000   1.0000   1.0000   1.0000
     1.0000   1.0000   1.0000   1.0000   1.0000   1.0000   1.0000   1.0000
     1.0000   1.0000

          k = 0.3458 0.0692-0.0692 ( 10207 PWs)   bands (ev):

    -6.1997  -6.1955  -4.0050  -3.9863  -3.9272  -3.8721  -3.3595  -3.3485
    -3.2829  -3.2736  -3.1943  -3.1867   1.6050   1.6787   3.1342   3.2793
     3.5902   3.6256

     occupation numbers 
     1.0000   1.0000   1.0000   1.0000   1.0000   1.0000   1.0000   1.0000
     1.0000   1.0000   1.0000   1.0000   1.0000   1.0000   1.0000   1.0000
     1.0000   1.0000

          k = 0.4150 0.1383-0.1383 ( 10199 PWs)   bands (ev):

    -6.1211  -6.1110  -4.0012  -3.9762  -3.9001  -3.7840  -3.3489  -3.3363
    -3.2620  -3.2528  -3.1218  -3.0707   0.9172   1.0270   2.8104   3.0331
     3.3634   3.4263

     occupation numbers 
     1.0000   1.0000   1.0000   1.0000   1.0000   1.0000   1.0000   1.0000
     1.0000   1.0000   1.0000   1.0000   1.0000   1.0000   1.0000   1.0000
     1.0000   1.0000

          k =-0.2075-0.4842 0.4842 ( 10212 PWs)   bands (ev):

    -6.0708  -6.0553  -3.9957  -3.9755  -3.8809  -3.7220  -3.3521  -3.3351
    -3.2439  -3.2382  -3.0330  -2.9424   0.4485   0.5802   2.5311   2.7679
     3.3253   3.3758

     occupation numbers 
     1.0000   1.0000   1.0000   1.0000   1.0000   1.0000   1.0000   1.0000
     1.0000   1.0000   1.0000   1.0000   1.0000   1.0000   1.0000   1.0000
     1.0000   1.0000

          k =-0.1383-0.4150 0.4150 ( 10205 PWs)   bands (ev):

    -6.0656  -6.0482  -3.9909  -3.9813  -3.8821  -3.7089  -3.3578  -3.3351
    -3.2396  -3.2330  -3.0210  -2.9125   0.3795   0.5294   2.3736   2.6194
     3.4459   3.4806

     occupation numbers 
     1.0000   1.0000   1.0000   1.0000   1.0000   1.0000   1.0000   1.0000
     1.0000   1.0000   1.0000   1.0000   1.0000   1.0000   1.0000   1.0000
     1.0000   1.0000

          k =-0.0692-0.3458 0.3458 ( 10196 PWs)   bands (ev):

    -6.1069  -6.0919  -3.9915  -3.9897  -3.9033  -3.7464  -3.3645  -3.3359
    -3.2469  -3.2385  -3.1093  -3.0056   0.7231   0.8879   2.4146   2.6775
     3.6732   3.6993

     occupation numbers 
     1.0000   1.0000   1.0000   1.0000   1.0000   1.0000   1.0000   1.0000
     1.0000   1.0000   1.0000   1.0000   1.0000   1.0000   1.0000   1.0000
     1.0000   1.0000

          k = 0.0000-0.2767 0.2767 ( 10157 PWs)   bands (ev):

    -6.1811  -6.1715  -4.0056  -3.9936  -3.9311  -3.8216  -3.3774  -3.3459
    -3.2605  -3.2503  -3.2026  -3.1302   1.2817   1.4341   2.7492   3.0074
     3.9382   3.9627

     occupation numbers 
     1.0000   1.0000   1.0000   1.0000   1.0000   1.0000   1.0000   1.0000
     1.0000   1.0000   1.0000   1.0000   1.0000   1.0000   1.0000   1.0000
     1.0000   1.0000

          k = 0.4150 0.0000 0.0000 ( 10213 PWs)   bands (ev):

    -6.1409  -6.1409  -3.9869  -3.9869  -3.8672  -3.8672  -3.3249  -3.3249
    -3.2810  -3.2810  -3.1490  -3.1490   1.3366   1.3366   2.9907   2.9907
     3.3652   3.3652

     occupation numbers 
     1.0000   1.0000   1.0000   1.0000   1.0000   1.0000   1.0000   1.0000
     1.0000   1.0000   1.0000   1.0000   1.0000   1.0000   1.0000   1.0000
     1.0000   1.0000

          k = 0.4842 0.0692-0.0692 ( 10197 PWs)   bands (ev):

    -6.0812  -6.0736  -3.9869  -3.9691  -3.8685  -3.7828  -3.3189  -3.3072
    -3.2823  -3.2533  -3.0829  -3.0456   0.8543   0.9381   2.6636   2.8289
     3.1098   3.1583

     occupation numbers 
     1.0000   1.0000   1.0000   1.0000   1.0000   1.0000   1.0000   1.0000
     1.0000   1.0000   1.0000   1.0000   1.0000   1.0000   1.0000   1.0000
     1.0000   1.0000

          k =-0.1383-0.5534 0.5534 ( 10221 PWs)   bands (ev):

    -6.0397  -6.0238  -3.9846  -3.9548  -3.8800  -3.7129  -3.3204  -3.3155
    -3.2627  -3.2358  -3.0052  -2.9171   0.4870   0.6453   2.2570   2.5174
     3.0202   3.0771

     occupation numbers 
     1.0000   1.0000   1.0000   1.0000   1.0000   1.0000   1.0000   1.0000
     1.0000   1.0000   1.0000   1.0000   1.0000   1.0000   1.0000   1.0000
     1.0000   1.0000

          k =-0.0692-0.4842 0.4842 ( 10211 PWs)   bands (ev):

    -6.0304  -6.0094  -3.9826  -3.9492  -3.8980  -3.6823  -3.3308  -3.3223
    -3.2467  -3.2301  -2.9749  -2.8521   0.3688   0.5920   1.9361   2.2489
     3.1389   3.1776

     occupation numbers 
     1.0000   1.0000   1.0000   1.0000   1.0000   1.0000   1.0000   1.0000
     1.0000   1.0000   1.0000   1.0000   1.0000   1.0000   1.0000   1.0000
     1.0000   1.0000

          k =-0.0000-0.4150 0.4150 ( 10221 PWs)   bands (ev):

    -6.0556  -6.0350  -3.9838  -3.9636  -3.9069  -3.6951  -3.3473  -3.3256
    -3.2418  -3.2332  -3.0274  -2.8963   0.4944   0.7348   1.9371   2.2668
     3.3813   3.4099

     occupation numbers 
     1.0000   1.0000   1.0000   1.0000   1.0000   1.0000   1.0000   1.0000
     1.0000   1.0000   1.0000   1.0000   1.0000   1.0000   1.0000   1.0000
     1.0000   1.0000

          k = 0.5534 0.0000 0.0000 ( 10218 PWs)   bands (ev):

    -6.0353  -6.0353  -3.9730  -3.9730  -3.7981  -3.7981  -3.3028  -3.3028
    -3.2592  -3.2592  -3.0018  -3.0018   0.6288   0.6288   2.6553   2.6553
     3.0108   3.0108

     occupation numbers 
     1.0000   1.0000   1.0000   1.0000   1.0000   1.0000   1.0000   1.0000
     1.0000   1.0000   1.0000   1.0000   1.0000   1.0000   1.0000   1.0000
     1.0000   1.0000

          k =-0.0692-0.6225 0.6225 ( 10234 PWs)   bands (ev):

    -6.0112  -6.0011  -3.9757  -3.9592  -3.8304  -3.7297  -3.3104  -3.2866
    -3.2726  -3.2359  -2.9570  -2.9035   0.3894   0.4785   2.3962   2.5650
     2.8551   2.9051

     occupation numbers 
     1.0000   1.0000   1.0000   1.0000   1.0000   1.0000   1.0000   1.0000
     1.0000   1.0000   1.0000   1.0000   1.0000   1.0000   1.0000   1.0000
     1.0000   1.0000

          k = 0.0000-0.5534 0.5534 ( 10215 PWs)   bands (ev):

    -6.0097  -5.9914  -3.9780  -3.9459  -3.8729  -3.6886  -3.3157  -3.3023
    -3.2618  -3.2281  -2.9442  -2.8438   0.3296   0.5113   2.0348   2.3097
     2.9071   2.9582

     occupation numbers 
     1.0000   1.0000   1.0000   1.0000   1.0000   1.0000   1.0000   1.0000
     1.0000   1.0000   1.0000   1.0000   1.0000   1.0000   1.0000   1.0000
     1.0000   1.0000

          k =-0.6917 0.0000 0.0000 ( 10190 PWs)   bands (ev):

    -5.9963  -5.9963  -3.9679  -3.9679  -3.7720  -3.7720  -3.2994  -3.2994
    -3.2478  -3.2478  -2.9157  -2.9157   0.3495   0.3495   2.5356   2.5356
     2.8857   2.8857

     occupation numbers 
     1.0000   1.0000   1.0000   1.0000   1.0000   1.0000   1.0000   1.0000
     1.0000   1.0000   1.0000   1.0000   1.0000   1.0000   1.0000   1.0000
     1.0000   1.0000

          k = 0.2767 0.1383 0.0000 ( 10192 PWs)   bands (ev):

    -6.2508  -6.2465  -4.0143  -3.9949  -3.9546  -3.8985  -3.3880  -3.3678
    -3.2764  -3.2746  -3.2325  -3.2103   1.8863   1.9879   3.2344   3.4478
     3.9141   4.0065

     occupation numbers 
     1.0000   1.0000   1.0000   1.0000   1.0000   1.0000   1.0000   1.0000
     1.0000   1.0000   1.0000   1.0000   1.0000   1.0000   1.0000   1.0000
     1.0000   1.0000

          k = 0.3458 0.2075-0.0692 ( 10186 PWs)   bands (ev):

    -6.1641  -6.1549  -4.0064  -3.9875  -3.9190  -3.8143  -3.3681  -3.3443
    -3.2594  -3.2565  -3.1751  -3.1193   1.1664   1.2872   2.8575   3.0951
     3.6819   3.7812

     occupation numbers 
     1.0000   1.0000   1.0000   1.0000   1.0000   1.0000   1.0000   1.0000
     1.0000   1.0000   1.0000   1.0000   1.0000   1.0000   1.0000   1.0000
     1.0000   1.0000

          k =-0.2767-0.4150 0.5534 ( 10192 PWs)   bands (ev):

    -6.0959  -6.0822  -3.9987  -3.9861  -3.8850  -3.7435  -3.3624  -3.3399
    -3.2440  -3.2397  -3.0752  -2.9896   0.5730   0.6936   2.6598   2.8924
     3.4846   3.5759

     occupation numbers 
     1.0000   1.0000   1.0000   1.0000   1.0000   1.0000   1.0000   1.0000
     1.0000   1.0000   1.0000   1.0000   1.0000   1.0000   1.0000   1.0000
     1.0000   1.0000

          k =-0.2075-0.3458 0.4842 ( 10210 PWs)   bands (ev):

    -6.0705  -6.0549  -3.9938  -3.9881  -3.8713  -3.7172  -3.3621  -3.3400
    -3.2371  -3.2348  -3.0174  -2.9226   0.3371   0.4569   2.6008   2.8306
     3.4069   3.4933

     occupation numbers 
     1.0000   1.0000   1.0000   1.0000   1.0000   1.0000   1.0000   1.0000
     1.0000   1.0000   1.0000   1.0000   1.0000   1.0000   1.0000   1.0000
     1.0000   1.0000

          k = 0.4150 0.1383-0.0000 ( 10195 PWs)   bands (ev):

    -6.1309  -6.1223  -3.9959  -3.9751  -3.9057  -3.8050  -3.3376  -3.3299
    -3.2773  -3.2586  -3.1436  -3.1011   1.1212   1.2348   2.7441   2.9962
     3.2851   3.4321

     occupation numbers 
     1.0000   1.0000   1.0000   1.0000   1.0000   1.0000   1.0000   1.0000
     1.0000   1.0000   1.0000   1.0000   1.0000   1.0000   1.0000   1.0000
     1.0000   1.0000

          k =-0.2075-0.4842 0.6225 ( 10199 PWs)   bands (ev):

    -6.0712  -6.0560  -3.9883  -3.9650  -3.8956  -3.7315  -3.3336  -3.3247
    -3.2598  -3.2419  -3.0597  -2.9730   0.6543   0.8146   2.3826   2.6777
     3.0858   3.2279

     occupation numbers 
     1.0000   1.0000   1.0000   1.0000   1.0000   1.0000   1.0000   1.0000
     1.0000   1.0000   1.0000   1.0000   1.0000   1.0000   1.0000   1.0000
     1.0000   1.0000

          k =-0.1383-0.4150 0.5534 ( 10200 PWs)   bands (ev):

    -6.0418  -6.0217  -3.9828  -3.9617  -3.8940  -3.6903  -3.3384  -3.3245
    -3.2453  -3.2338  -2.9920  -2.8768   0.3927   0.5860   2.1380   2.4414
     3.0551   3.1609

     occupation numbers 
     1.0000   1.0000   1.0000   1.0000   1.0000   1.0000   1.0000   1.0000
     1.0000   1.0000   1.0000   1.0000   1.0000   1.0000   1.0000   1.0000
     1.0000   1.0000

          k =-0.0692-0.3458 0.4842 ( 10204 PWs)   bands (ev):

    -6.0517  -6.0314  -3.9815  -3.9672  -3.9005  -3.6942  -3.3448  -3.3255
    -3.2422  -3.2354  -3.0146  -2.8923   0.4542   0.6651   2.0708   2.3839
     3.1904   3.2867

     occupation numbers 
     1.0000   1.0000   1.0000   1.0000   1.0000   1.0000   1.0000   1.0000
     1.0000   1.0000   1.0000   1.0000   1.0000   1.0000   1.0000   1.0000
     1.0000   1.0000

          k = 0.0000-0.2767 0.4150 ( 10208 PWs)   bands (ev):

    -6.0976  -6.0818  -3.9894  -3.9776  -3.9105  -3.7410  -3.3537  -3.3296
    -3.2496  -3.2445  -3.1031  -3.0004   0.7701   0.9612   2.2969   2.5977
     3.4323   3.5346

     occupation numbers 
     1.0000   1.0000   1.0000   1.0000   1.0000   1.0000   1.0000   1.0000
     1.0000   1.0000   1.0000   1.0000   1.0000   1.0000   1.0000   1.0000
     1.0000   1.0000

          k =-0.1383-0.5534 0.6917 ( 10195 PWs)   bands (ev):

    -6.0380  -6.0254  -3.9801  -3.9599  -3.8631  -3.7313  -3.3158  -3.2968
    -3.2772  -3.2389  -3.0113  -2.9443   0.5491   0.6709   2.4153   2.6725
     2.8356   2.9699

     occupation numbers 
     1.0000   1.0000   1.0000   1.0000   1.0000   1.0000   1.0000   1.0000
     1.0000   1.0000   1.0000   1.0000   1.0000   1.0000   1.0000   1.0000
     1.0000   1.0000

          k =-0.0692-0.4842 0.6225 ( 10207 PWs)   bands (ev):

    -6.0164  -5.9969  -3.9758  -3.9482  -3.8842  -3.6860  -3.3183  -3.3054
    -3.2610  -3.2302  -2.9564  -2.8523   0.3718   0.5631   2.0927   2.3974
     2.7658   2.8607

     occupation numbers 
     1.0000   1.0000   1.0000   1.0000   1.0000   1.0000   1.0000   1.0000
     1.0000   1.0000   1.0000   1.0000   1.0000   1.0000   1.0000   1.0000
     1.0000   1.0000

          k = 0.0000-0.4150 0.5534 ( 10193 PWs)   bands (ev):

    -6.0218  -5.9991  -3.9756  -3.9441  -3.9064  -3.6727  -3.3274  -3.3165
    -3.2470  -3.2307  -2.9591  -2.8326   0.3682   0.6155   1.8707   2.2141
     2.9166   3.0032

     occupation numbers 
     1.0000   1.0000   1.0000   1.0000   1.0000   1.0000   1.0000   1.0000
     1.0000   1.0000   1.0000   1.0000   1.0000   1.0000   1.0000   1.0000
     1.0000   1.0000

          k =-0.6917 0.1383 0.0000 ( 10224 PWs)   bands (ev):

    -6.0039  -5.9896  -3.9739  -3.9545  -3.8465  -3.7051  -3.3122  -3.2810
    -3.2774  -3.2303  -2.9370  -2.8627   0.3251   0.4501   2.3066   2.5285
     2.7316   2.7628

     occupation numbers 
     1.0000   1.0000   1.0000   1.0000   1.0000   1.0000   1.0000   1.0000
     1.0000   1.0000   1.0000   1.0000   1.0000   1.0000   1.0000   1.0000
     1.0000   1.0000

          k =-0.1383-0.4150 0.6917 ( 10230 PWs)   bands (ev):

    -6.0329  -6.0118  -3.9740  -3.9548  -3.9025  -3.6856  -3.3279  -3.3157
    -3.2525  -3.2342  -2.9869  -2.8711   0.4492   0.6695   2.0532   2.4078
     2.7980   2.9497

     occupation numbers 
     1.0000   1.0000   1.0000   1.0000   1.0000   1.0000   1.0000   1.0000
     1.0000   1.0000   1.0000   1.0000   1.0000   1.0000   1.0000   1.0000
     1.0000   1.0000

          k =-0.0692-0.3458 0.6225 ( 10214 PWs)   bands (ev):

    -6.0186  -5.9952  -3.9685  -3.9479  -3.9089  -3.6683  -3.3273  -3.3123
    -3.2474  -3.2329  -2.9508  -2.8261   0.3674   0.6121   1.9499   2.3224
     2.6768   2.8039

     occupation numbers 
     1.0000   1.0000   1.0000   1.0000   1.0000   1.0000   1.0000   1.0000
     1.0000   1.0000   1.0000   1.0000   1.0000   1.0000   1.0000   1.0000
     1.0000   1.0000

          k =-0.6917 0.2767 0.0000 ( 10200 PWs)   bands (ev):

    -6.0089  -5.9858  -3.9666  -3.9441  -3.9026  -3.6669  -3.3211  -3.3034
    -3.2552  -3.2305  -2.9334  -2.8154   0.3438   0.5746   2.0330   2.4507
     2.5317   2.5370

     occupation numbers 
     1.0000   1.0000   1.0000   1.0000   1.0000   1.0000   1.0000   1.0000
     1.0000   1.0000   1.0000   1.0000   1.0000   1.0000   1.0000   1.0000
     1.0000   1.0000

     highest occupied level (ev):     4.6455

!    total energy              =    -128.98267452 Ry
     estimated scf accuracy    <          9.0E-13 Ry

     The total energy is the sum of the following terms:
     one-electron contribution =     -51.34774627 Ry
     hartree contribution      =      36.95650419 Ry
     xc contribution           =     -39.46403869 Ry
     ewald contribution        =     -75.12739375 Ry

     convergence has been achieved in  13 iterations

     Forces acting on atoms (cartesian axes, Ry/au):

     atom    1 type  1   force =     0.00000000    0.00000000    0.00000000
     atom    2 type  2   force =     0.00000000    0.00000000    0.00000000
     The non-local contrib.  to forces
     atom    1 type  1   force =    -0.00000000   -0.00000000    0.00000000
     atom    2 type  2   force =     0.00000000   -0.00000000   -0.00000000
     The ionic contribution  to forces
     atom    1 type  1   force =     0.00000000   -0.00000000   -0.00000000
     atom    2 type  2   force =     0.00000000    0.00000000    0.00000000
     The local contribution  to forces
     atom    1 type  1   force =     0.00000000   -0.00000000   -0.00000000
     atom    2 type  2   force =     0.00000000   -0.00000000   -0.00000000
     The core correction contribution to forces
     atom    1 type  1   force =     0.00000000   -0.00000000   -0.00000000
     atom    2 type  2   force =    -0.00000000   -0.00000000   -0.00000000
     The Hubbard contrib.    to forces
     atom    1 type  1   force =     0.00000000    0.00000000    0.00000000
     atom    2 type  2   force =     0.00000000    0.00000000    0.00000000
     The SCF correction term to forces
     atom    1 type  1   force =    -0.00000000   -0.00000000    0.00000000
     atom    2 type  2   force =    -0.00000000   -0.00000000    0.00000000

     Total force =     0.000000     Total SCF correction =     0.000000


     Computing stress (Cartesian axis) and pressure

          total   stress  (Ry/bohr**3)                   (kbar)     P=        0.01
   0.00000007   0.00000000  -0.00000000            0.01        0.00       -0.00
  -0.00000000   0.00000007   0.00000000           -0.00        0.01        0.00
  -0.00000000  -0.00000000   0.00000007           -0.00       -0.00        0.01

     kinetic stress (kbar)   8971.66      0.00     -0.00
                                0.00   8971.66      0.00
                               -0.00      0.00   8971.66

     local   stress (kbar)    419.21      0.00     -0.00
                                0.00    419.21     -0.00
                               -0.00     -0.00    419.21

     nonloc. stress (kbar)  -3385.50     -0.00     -0.00
                               -0.00  -3385.50      0.00
                               -0.00      0.00  -3385.50

     hartree stress (kbar)   3691.68     -0.00     -0.00
                               -0.00   3691.68     -0.00
                               -0.00     -0.00   3691.68

     exc-cor stress (kbar)   4206.88     -0.00     -0.00
                               -0.00   4206.88     -0.00
                               -0.00     -0.00   4206.88

     corecor stress (kbar)  -6399.25     -0.00     -0.00
                               -0.00  -6399.25     -0.00
                               -0.00     -0.00  -6399.25

     ewald   stress (kbar)  -7504.67     -0.00     -0.00
                               -0.00  -7504.67     -0.00
                               -0.00     -0.00  -7504.67

     hubbard stress (kbar)      0.00      0.00      0.00
                                0.00      0.00      0.00
                                0.00      0.00      0.00

     DFT-D   stress (kbar)      0.00      0.00      0.00
                                0.00      0.00      0.00
                                0.00      0.00      0.00

     XDM     stress (kbar)      0.00      0.00      0.00
                                0.00      0.00      0.00
                                0.00      0.00      0.00

     dft-nl  stress (kbar)      0.00      0.00      0.00
                                0.00      0.00      0.00
                                0.00      0.00      0.00

     TS-vdW  stress (kbar)      0.00      0.00      0.00
                                0.00      0.00      0.00
                                0.00      0.00      0.00

     MDB     stress (kbar)      0.00      0.00      0.00
                                0.00      0.00      0.00
                                0.00      0.00      0.00

     3D-RISM stress (kbar)      0.00      0.00      0.00
                                0.00      0.00      0.00
                                0.00      0.00      0.00

     Energy error            =      6.2E-07 Ry
     Gradient error          =      0.0E+00 Ry/Bohr
     Cell gradient error     =      1.0E-02 kbar

     bfgs converged in   6 scf cycles and   5 bfgs steps
     (criteria: energy <  1.0E-04 Ry, force <  1.0E-03 Ry/Bohr, cell <  5.0E-01 kbar)

     End of BFGS Geometry Optimization

     Final enthalpy           =    -128.9826745228 Ry

     File /home/User/opencode_workspace/DFT/calculations/cdte/relax_soc/out/pwscf.bfgs deleted, as requested
Begin final coordinates
     new unit-cell volume =    490.87758 a.u.^3 (    72.74055 Ang^3 )
     density =      5.47910 g/cm^3

CELL_PARAMETERS (angstrom)
  -0.000000000   3.313209258   3.313209258
   3.313209258  -0.000000000   3.313209258
   3.313209258   3.313209258   0.000000000

ATOMIC_POSITIONS (crystal)
Cd               0.0000000000       -0.0000000000       -0.0000000000
Te               0.2500000000        0.2500000000        0.2500000000
End final coordinates



     Writing config-only to output data dir /home/User/opencode_workspace/DFT/calculations/cdte/relax_soc/out/pwscf.save/ :
     XML data file

     Final scf calculation at the relaxed structure.
     The G-vectors are recalculated for the final unit cell
     Results may differ from those at the preceding step.

     Parallelization info
     --------------------
     sticks:   dense  smooth     PW     G-vecs:    dense   smooth      PW
     Min         647     431    122                26742    14503    2156
     Max         649     432    123                26743    14506    2157
     Sum        3889    2587    733               160453    87027   12939

     Using Slab Decomposition



     bravais-lattice index     =            0
     lattice parameter (alat)  =       8.6615  a.u.
     unit-cell volume          =     490.8776 (a.u.)^3
     number of atoms/cell      =            2
     number of atomic types    =            2
     number of electrons       =        18.00
     number of Kohn-Sham states=           18
     kinetic-energy cutoff     =     120.0000  Ry
     charge density cutoff     =     720.0000  Ry
     scf convergence threshold =      1.0E-12
     mixing beta               =       0.3000
     number of iterations used =            8  plain     mixing
     press convergence thresh. =      5.0E-01
     Exchange-correlation= PBE
                           (   1   4   3   4   0   0   0)
     Non magnetic calculation with spin-orbit


     celldm(1)=   8.661496  celldm(2)=   0.000000  celldm(3)=   0.000000
     celldm(4)=   0.000000  celldm(5)=   0.000000  celldm(6)=   0.000000

     crystal axes: (cart. coord. in units of alat)
               a(1) = (  -0.000000   0.722861   0.722861 )  
               a(2) = (   0.722861  -0.000000   0.722861 )  
               a(3) = (   0.722861   0.722861   0.000000 )  

     reciprocal axes: (cart. coord. in units 2 pi/alat)
               b(1) = ( -0.691696  0.691696  0.691696 )  
               b(2) = (  0.691696 -0.691696  0.691696 )  
               b(3) = (  0.691696  0.691696 -0.691696 )  


     PseudoPot. # 1 for Cd read from file:
     /home/User/opencode_workspace/DFT/pseudopotentials/Cd.rel-pbe-n-rrkjus_psl.1.0.0.UPF
     MD5 check sum: f55a83cceeb01967e8d662641edf05f4
     Pseudo is Ultrasoft + core correction, Zval = 12.0
     Generated using &quot;atomic&quot; code by A. Dal Corso  v.6.3
     Using radial grid of 1239 points, 10 beta functions with: 
                l(1) =   0
                l(2) =   0
                l(3) =   1
                l(4) =   1
                l(5) =   1
                l(6) =   1
                l(7) =   2
                l(8) =   2
                l(9) =   2
               l(10) =   2
     Q(r) pseudized with 0 coefficients 


     PseudoPot. # 2 for Te read from file:
     /home/User/opencode_workspace/DFT/pseudopotentials/Te.rel-pbe-n-rrkjus_psl.1.0.0.UPF
     MD5 check sum: 7fd30b6833abd190471e4dcc2367351b
     Pseudo is Ultrasoft + core correction, Zval =  6.0
     Generated using &quot;atomic&quot; code by A. Dal Corso  v.6.3
     Using radial grid of 1245 points, 10 beta functions with: 
                l(1) =   0
                l(2) =   0
                l(3) =   1
                l(4) =   1
                l(5) =   1
                l(6) =   1
                l(7) =   2
                l(8) =   2
                l(9) =   2
               l(10) =   2
     Q(r) pseudized with 0 coefficients 


     atomic species   valence    mass     pseudopotential
     Cd               12.00   112.41400     Cd( 1.00)
     Te                6.00   127.60000     Te( 1.00)

     24 Sym. Ops. (no inversion) found


                                    s                        frac. trans.

      isym =  1     identity                                     

 cryst.   s( 1) = (     1          0          0      )
                  (     0          1          0      )
                  (     0          0          1      )

 cart.    s( 1) = (  1.0000000  0.0000000  0.0000000 )
                  (  0.0000000  1.0000000  0.0000000 )
                  (  0.0000000  0.0000000  1.0000000 )


      isym =  2     180 deg rotation - cart. axis [0,0,1]        

 cryst.   s( 2) = (     0          1         -1      )
                  (     1          0         -1      )
                  (     0          0         -1      )

 cart.    s( 2) = ( -1.0000000  0.0000000  0.0000000 )
                  (  0.0000000 -1.0000000  0.0000000 )
                  (  0.0000000  0.0000000  1.0000000 )


      isym =  3     180 deg rotation - cart. axis [0,1,0]        

 cryst.   s( 3) = (     0         -1          1      )
                  (     0         -1          0      )
                  (     1         -1          0      )

 cart.    s( 3) = ( -1.0000000  0.0000000  0.0000000 )
                  (  0.0000000  1.0000000  0.0000000 )
                  (  0.0000000  0.0000000 -1.0000000 )


      isym =  4     180 deg rotation - cart. axis [1,0,0]        

 cryst.   s( 4) = (    -1          0          0      )
                  (    -1          0          1      )
                  (    -1          1          0      )

 cart.    s( 4) = (  1.0000000  0.0000000  0.0000000 )
                  (  0.0000000 -1.0000000  0.0000000 )
                  (  0.0000000  0.0000000 -1.0000000 )


      isym =  5     120 deg rotation - cart. axis [-1,-1,-1]     

 cryst.   s( 5) = (     0          0          1      )
                  (     1          0          0      )
                  (     0          1          0      )

 cart.    s( 5) = (  0.0000000  1.0000000  0.0000000 )
                  (  0.0000000  0.0000000  1.0000000 )
                  (  1.0000000  0.0000000  0.0000000 )


      isym =  6     120 deg rotation - cart. axis [-1,1,1]       

 cryst.   s( 6) = (     1         -1          0      )
                  (     0         -1          1      )
                  (     0         -1          0      )

 cart.    s( 6) = (  0.0000000 -1.0000000  0.0000000 )
                  (  0.0000000  0.0000000  1.0000000 )
                  ( -1.0000000  0.0000000  0.0000000 )


      isym =  7     120 deg rotation - cart. axis [1,1,-1]       

 cryst.   s( 7) = (    -1          1          0      )
                  (    -1          0          0      )
                  (    -1          0          1      )

 cart.    s( 7) = (  0.0000000  1.0000000  0.0000000 )
                  (  0.0000000  0.0000000 -1.0000000 )
                  ( -1.0000000  0.0000000  0.0000000 )


      isym =  8     120 deg rotation - cart. axis [1,-1,1]       

 cryst.   s( 8) = (     0          0         -1      )
                  (     0          1         -1      )
                  (     1          0         -1      )

 cart.    s( 8) = (  0.0000000 -1.0000000  0.0000000 )
                  (  0.0000000  0.0000000 -1.0000000 )
                  (  1.0000000  0.0000000  0.0000000 )


      isym =  9     120 deg rotation - cart. axis [1,1,1]        

 cryst.   s( 9) = (     0          1          0      )
                  (     0          0          1      )
                  (     1          0          0      )

 cart.    s( 9) = (  0.0000000  0.0000000  1.0000000 )
                  (  1.0000000  0.0000000  0.0000000 )
                  (  0.0000000  1.0000000  0.0000000 )


      isym = 10     120 deg rotation - cart. axis [-1,1,-1]      

 cryst.   s(10) = (    -1          0          1      )
                  (    -1          1          0      )
                  (    -1          0          0      )

 cart.    s(10) = (  0.0000000  0.0000000  1.0000000 )
                  ( -1.0000000  0.0000000  0.0000000 )
                  (  0.0000000 -1.0000000  0.0000000 )


      isym = 11     120 deg rotation - cart. axis [1,-1,-1]      

 cryst.   s(11) = (     1          0         -1      )
                  (     0          0         -1      )
                  (     0          1         -1      )

 cart.    s(11) = (  0.0000000  0.0000000 -1.0000000 )
                  ( -1.0000000  0.0000000  0.0000000 )
                  (  0.0000000  1.0000000  0.0000000 )


      isym = 12     120 deg rotation - cart. axis [-1,-1,1]      

 cryst.   s(12) = (     0         -1          0      )
                  (     1         -1          0      )
                  (     0         -1          1      )

 cart.    s(12) = (  0.0000000  0.0000000 -1.0000000 )
                  (  1.0000000  0.0000000  0.0000000 )
                  (  0.0000000 -1.0000000  0.0000000 )


      isym = 13     inv. 180 deg rotation - cart. axis [1,1,0]   

 cryst.   s(13) = (     1          0         -1      )
                  (     0          1         -1      )
                  (     0          0         -1      )

 cart.    s(13) = (  0.0000000 -1.0000000  0.0000000 )
                  ( -1.0000000  0.0000000  0.0000000 )
                  (  0.0000000  0.0000000  1.0000000 )


      isym = 14     inv. 180 deg rotation - cart. axis [1,-1,0]  

 cryst.   s(14) = (     0          1          0      )
                  (     1          0          0      )
                  (     0          0          1      )

 cart.    s(14) = (  0.0000000  1.0000000  0.0000000 )
                  (  1.0000000  0.0000000  0.0000000 )
                  (  0.0000000  0.0000000  1.0000000 )


      isym = 15     inv.  90 deg rotation - cart. axis [0,0,-1]  

 cryst.   s(15) = (     0         -1          0      )
                  (     0         -1          1      )
                  (     1         -1          0      )

 cart.    s(15) = (  0.0000000 -1.0000000  0.0000000 )
                  (  1.0000000  0.0000000  0.0000000 )
                  (  0.0000000  0.0000000 -1.0000000 )


      isym = 16     inv.  90 deg rotation - cart. axis [0,0,1]   

 cryst.   s(16) = (    -1          0          1      )
                  (    -1          0          0      )
                  (    -1          1          0      )

 cart.    s(16) = (  0.0000000  1.0000000  0.0000000 )
                  ( -1.0000000  0.0000000  0.0000000 )
                  (  0.0000000  0.0000000 -1.0000000 )


      isym = 17     inv. 180 deg rotation - cart. axis [1,0,1]   

 cryst.   s(17) = (     1         -1          0      )
                  (     0         -1          0      )
                  (     0         -1          1      )

 cart.    s(17) = (  0.0000000  0.0000000 -1.0000000 )
                  (  0.0000000  1.0000000  0.0000000 )
                  ( -1.0000000  0.0000000  0.0000000 )


      isym = 18     inv. 180 deg rotation - cart. axis [-1,0,1]  

 cryst.   s(18) = (     0          0          1      )
                  (     0          1          0      )
                  (     1          0          0      )

 cart.    s(18) = (  0.0000000  0.0000000  1.0000000 )
                  (  0.0000000  1.0000000  0.0000000 )
                  (  1.0000000  0.0000000  0.0000000 )


      isym = 19     inv.  90 deg rotation - cart. axis [0,1,0]   

 cryst.   s(19) = (     0          0         -1      )
                  (     1          0         -1      )
                  (     0          1         -1      )

 cart.    s(19) = (  0.0000000  0.0000000 -1.0000000 )
                  (  0.0000000 -1.0000000  0.0000000 )
                  (  1.0000000  0.0000000  0.0000000 )


      isym = 20     inv.  90 deg rotation - cart. axis [0,-1,0]  

 cryst.   s(20) = (    -1          1          0      )
                  (    -1          0          1      )
                  (    -1          0          0      )

 cart.    s(20) = (  0.0000000  0.0000000  1.0000000 )
                  (  0.0000000 -1.0000000  0.0000000 )
                  ( -1.0000000  0.0000000  0.0000000 )


      isym = 21     inv. 180 deg rotation - cart. axis [0,1,1]   

 cryst.   s(21) = (    -1          0          0      )
                  (    -1          1          0      )
                  (    -1          0          1      )

 cart.    s(21) = (  1.0000000  0.0000000  0.0000000 )
                  (  0.0000000  0.0000000 -1.0000000 )
                  (  0.0000000 -1.0000000  0.0000000 )


      isym = 22     inv. 180 deg rotation - cart. axis [0,1,-1]  

 cryst.   s(22) = (     1          0          0      )
                  (     0          0          1      )
                  (     0          1          0      )

 cart.    s(22) = (  1.0000000  0.0000000  0.0000000 )
                  (  0.0000000  0.0000000  1.0000000 )
                  (  0.0000000  1.0000000  0.0000000 )


      isym = 23     inv.  90 deg rotation - cart. axis [-1,0,0]  

 cryst.   s(23) = (     0          1         -1      )
                  (     0          0         -1      )
                  (     1          0         -1      )

 cart.    s(23) = ( -1.0000000  0.0000000  0.0000000 )
                  (  0.0000000  0.0000000 -1.0000000 )
                  (  0.0000000  1.0000000  0.0000000 )


      isym = 24     inv.  90 deg rotation - cart. axis [1,0,0]   

 cryst.   s(24) = (     0         -1          1      )
                  (     1         -1          0      )
                  (     0         -1          0      )

 cart.    s(24) = ( -1.0000000  0.0000000  0.0000000 )
                  (  0.0000000  0.0000000  1.0000000 )
                  (  0.0000000 -1.0000000  0.0000000 )


   Cartesian axes

     site n.     atom                  positions (alat units)
         1        Cd     tau(   1) = (  -0.0000000   0.0000000   0.0000000  )
         2        Te     tau(   2) = (   0.3614305   0.3614305   0.3614305  )

   Crystallographic axes

     site n.     atom                  positions (cryst. coord.)
         1        Cd     tau(   1) = (  0.0000000 -0.0000000 -0.0000000  )
         2        Te     tau(   2) = (  0.2500000  0.2500000  0.2500000  )

     number of k points=    47
                       cart. coord. in units 2pi/alat
        k(    1) = (   0.0000000   0.0000000   0.0000000), wk =   0.0010000
        k(    2) = (   0.0691696   0.0691696  -0.0691696), wk =   0.0080000
        k(    3) = (   0.1383392   0.1383392  -0.1383392), wk =   0.0080000
        k(    4) = (   0.2075088   0.2075088  -0.2075088), wk =   0.0080000
        k(    5) = (   0.2766783   0.2766783  -0.2766783), wk =   0.0080000
        k(    6) = (  -0.3458479  -0.3458479   0.3458479), wk =   0.0040000
        k(    7) = (   0.1383392   0.0000000   0.0000000), wk =   0.0060000
        k(    8) = (   0.2075088   0.0691696  -0.0691696), wk =   0.0240000
        k(    9) = (   0.2766783   0.1383392  -0.1383392), wk =   0.0240000
        k(   10) = (   0.3458479   0.2075088  -0.2075088), wk =   0.0240000
        k(   11) = (  -0.2766783  -0.4150175   0.4150175), wk =   0.0240000
        k(   12) = (  -0.2075088  -0.3458479   0.3458479), wk =   0.0240000
        k(   13) = (  -0.1383392  -0.2766783   0.2766783), wk =   0.0240000
        k(   14) = (  -0.0691696  -0.2075088   0.2075088), wk =   0.0240000
        k(   15) = (   0.0000000  -0.1383392   0.1383392), wk =   0.0120000
        k(   16) = (   0.2766783   0.0000000   0.0000000), wk =   0.0060000
        k(   17) = (   0.3458479   0.0691696  -0.0691696), wk =   0.0240000
        k(   18) = (   0.4150175   0.1383392  -0.1383392), wk =   0.0240000
        k(   19) = (  -0.2075088  -0.4841871   0.4841871), wk =   0.0240000
        k(   20) = (  -0.1383392  -0.4150175   0.4150175), wk =   0.0240000
        k(   21) = (  -0.0691696  -0.3458479   0.3458479), wk =   0.0240000
        k(   22) = (   0.0000000  -0.2766783   0.2766783), wk =   0.0120000
        k(   23) = (   0.4150175   0.0000000   0.0000000), wk =   0.0060000
        k(   24) = (   0.4841871   0.0691696  -0.0691696), wk =   0.0240000
        k(   25) = (  -0.1383392  -0.5533567   0.5533567), wk =   0.0240000
        k(   26) = (  -0.0691696  -0.4841871   0.4841871), wk =   0.0240000
        k(   27) = (  -0.0000000  -0.4150175   0.4150175), wk =   0.0120000
        k(   28) = (   0.5533567   0.0000000   0.0000000), wk =   0.0060000
        k(   29) = (  -0.0691696  -0.6225263   0.6225263), wk =   0.0240000
        k(   30) = (   0.0000000  -0.5533567   0.5533567), wk =   0.0120000
        k(   31) = (  -0.6916958   0.0000000   0.0000000), wk =   0.0030000
        k(   32) = (   0.2766783   0.1383392   0.0000000), wk =   0.0240000
        k(   33) = (   0.3458479   0.2075088  -0.0691696), wk =   0.0480000
        k(   34) = (  -0.2766783  -0.4150175   0.5533567), wk =   0.0480000
        k(   35) = (  -0.2075088  -0.3458479   0.4841871), wk =   0.0240000
        k(   36) = (   0.4150175   0.1383392  -0.0000000), wk =   0.0240000
        k(   37) = (  -0.2075088  -0.4841871   0.6225263), wk =   0.0480000
        k(   38) = (  -0.1383392  -0.4150175   0.5533567), wk =   0.0480000
        k(   39) = (  -0.0691696  -0.3458479   0.4841871), wk =   0.0480000
        k(   40) = (   0.0000000  -0.2766783   0.4150175), wk =   0.0240000
        k(   41) = (  -0.1383392  -0.5533567   0.6916958), wk =   0.0240000
        k(   42) = (  -0.0691696  -0.4841871   0.6225263), wk =   0.0480000
        k(   43) = (   0.0000000  -0.4150175   0.5533567), wk =   0.0240000
        k(   44) = (  -0.6916958   0.1383392   0.0000000), wk =   0.0120000
        k(   45) = (  -0.1383392  -0.4150175   0.6916958), wk =   0.0240000
        k(   46) = (  -0.0691696  -0.3458479   0.6225263), wk =   0.0240000
        k(   47) = (  -0.6916958   0.2766783   0.0000000), wk =   0.0120000

                       cryst. coord.
        k(    1) = (   0.0000000   0.0000000   0.0000000), wk =   0.0010000
        k(    2) = (   0.0000000   0.0000000   0.1000000), wk =   0.0080000
        k(    3) = (   0.0000000   0.0000000   0.2000000), wk =   0.0080000
        k(    4) = (   0.0000000   0.0000000   0.3000000), wk =   0.0080000
        k(    5) = (   0.0000000   0.0000000   0.4000000), wk =   0.0080000
        k(    6) = (   0.0000000   0.0000000  -0.5000000), wk =   0.0040000
        k(    7) = (  -0.0000000   0.1000000   0.1000000), wk =   0.0060000
        k(    8) = (   0.0000000   0.1000000   0.2000000), wk =   0.0240000
        k(    9) = (   0.0000000   0.1000000   0.3000000), wk =   0.0240000
        k(   10) = (   0.0000000   0.1000000   0.4000000), wk =   0.0240000
        k(   11) = (   0.0000000   0.1000000  -0.5000000), wk =   0.0240000
        k(   12) = (   0.0000000   0.1000000  -0.4000000), wk =   0.0240000
        k(   13) = (   0.0000000   0.1000000  -0.3000000), wk =   0.0240000
        k(   14) = (   0.0000000   0.1000000  -0.2000000), wk =   0.0240000
        k(   15) = (   0.0000000   0.1000000  -0.1000000), wk =   0.0120000
        k(   16) = (  -0.0000000   0.2000000   0.2000000), wk =   0.0060000
        k(   17) = (   0.0000000   0.2000000   0.3000000), wk =   0.0240000
        k(   18) = (   0.0000000   0.2000000   0.4000000), wk =   0.0240000
        k(   19) = (   0.0000000   0.2000000  -0.5000000), wk =   0.0240000
        k(   20) = (   0.0000000   0.2000000  -0.4000000), wk =   0.0240000
        k(   21) = (   0.0000000   0.2000000  -0.3000000), wk =   0.0240000
        k(   22) = (   0.0000000   0.2000000  -0.2000000), wk =   0.0120000
        k(   23) = (  -0.0000000   0.3000000   0.3000000), wk =   0.0060000
        k(   24) = (   0.0000000   0.3000000   0.4000000), wk =   0.0240000
        k(   25) = (   0.0000000   0.3000000  -0.5000000), wk =   0.0240000
        k(   26) = (   0.0000000   0.3000000  -0.4000000), wk =   0.0240000
        k(   27) = (   0.0000000   0.3000000  -0.3000000), wk =   0.0120000
        k(   28) = (  -0.0000000   0.4000000   0.4000000), wk =   0.0060000
        k(   29) = (   0.0000000   0.4000000  -0.5000000), wk =   0.0240000
        k(   30) = (   0.0000000   0.4000000  -0.4000000), wk =   0.0120000
        k(   31) = (   0.0000000  -0.5000000  -0.5000000), wk =   0.0030000
        k(   32) = (   0.1000000   0.2000000   0.3000000), wk =   0.0240000
        k(   33) = (   0.1000000   0.2000000   0.4000000), wk =   0.0480000
        k(   34) = (   0.1000000   0.2000000  -0.5000000), wk =   0.0480000
        k(   35) = (   0.1000000   0.2000000  -0.4000000), wk =   0.0240000
        k(   36) = (   0.1000000   0.3000000   0.4000000), wk =   0.0240000
        k(   37) = (   0.1000000   0.3000000  -0.5000000), wk =   0.0480000
        k(   38) = (   0.1000000   0.3000000  -0.4000000), wk =   0.0480000
        k(   39) = (   0.1000000   0.3000000  -0.3000000), wk =   0.0480000
        k(   40) = (   0.1000000   0.3000000  -0.2000000), wk =   0.0240000
        k(   41) = (   0.1000000   0.4000000  -0.5000000), wk =   0.0240000
        k(   42) = (   0.1000000   0.4000000  -0.4000000), wk =   0.0480000
        k(   43) = (   0.1000000   0.4000000  -0.3000000), wk =   0.0240000
        k(   44) = (   0.1000000  -0.5000000  -0.4000000), wk =   0.0120000
        k(   45) = (   0.2000000   0.4000000  -0.4000000), wk =   0.0240000
        k(   46) = (   0.2000000   0.4000000  -0.3000000), wk =   0.0240000
        k(   47) = (   0.2000000  -0.5000000  -0.3000000), wk =   0.0120000

     Dense  grid:   160453 G-vectors     FFT dimensions: (  75,  75,  75)

     Smooth grid:    87027 G-vectors     FFT dimensions: (  64,  64,  64)

     Dynamical RAM for                 wfc:       1.00 MB

     Dynamical RAM for     wfc (w. buffer):      47.88 MB

     Dynamical RAM for           str. fact:       0.82 MB

     Dynamical RAM for           local pot:       0.38 MB

     Dynamical RAM for          nlocal pot:       1.88 MB

     Dynamical RAM for                qrad:      33.83 MB

     Dynamical RAM for          rho,v,vnew:      11.59 MB

     Dynamical RAM for               rhoin:       3.86 MB

     Dynamical RAM for            rho*nmix:      26.12 MB

     Dynamical RAM for           G-vectors:       1.64 MB

     Dynamical RAM for          h,s,v(r/c):       0.06 MB

     Dynamical RAM for          <psi|beta>:       0.04 MB

     Dynamical RAM for                 psi:       2.00 MB

     Dynamical RAM for                hpsi:       2.00 MB

     Dynamical RAM for                spsi:       2.00 MB

     Dynamical RAM for      wfcinit/wfcrot:       2.18 MB

     Dynamical RAM for           addusdens:     249.33 MB

     Dynamical RAM for          addusforce:     249.55 MB

     Dynamical RAM for         addusstress:     256.27 MB

     Estimated static dynamical RAM per process >     107.57 MB

     Estimated max dynamical RAM per process >     389.95 MB

     Estimated total dynamical RAM >       2.28 GB

     Initial potential from superposition of free atoms

     starting charge      17.9959, renormalised to      18.0000
     Starting wfcs are   26 randomized atomic wfcs

     total cpu time spent up to now is     1270.0 secs

     per-process dynamical memory:   129.1 Mb

     Self-consistent Calculation

     iteration #  1     ecut=   120.00 Ry     beta= 0.30
     Davidson diagonalization with overlap

---- Real-time Memory Report at c_bands before calling an iterative solver
           420 MiB given to the printing process from OS
           126 MiB allocation reported by mallinfo(arena+hblkhd)
          7647 MiB available memory on the node where the printing process lives
------------------
     c_bands:  4 eigenvalues not converged
     c_bands:  1 eigenvalues not converged
     c_bands:  4 eigenvalues not converged
     c_bands:  1 eigenvalues not converged
     ethr =  1.00E-06,  avg # of iterations = 17.4

     total cpu time spent up to now is     1296.3 secs

     total energy              =    -128.98167839 Ry
     estimated scf accuracy    <       0.03897339 Ry

     iteration #  2     ecut=   120.00 Ry     beta= 0.30
     Davidson diagonalization with overlap

---- Real-time Memory Report at c_bands before calling an iterative solver
           432 MiB given to the printing process from OS
           144 MiB allocation reported by mallinfo(arena+hblkhd)
          7343 MiB available memory on the node where the printing process lives
------------------
     ethr =  2.17E-04,  avg # of iterations =  1.0

     total cpu time spent up to now is     1302.5 secs

     total energy              =    -128.97844990 Ry
     estimated scf accuracy    <       0.01269510 Ry

     iteration #  3     ecut=   120.00 Ry     beta= 0.30
     Davidson diagonalization with overlap

---- Real-time Memory Report at c_bands before calling an iterative solver
           434 MiB given to the printing process from OS
           146 MiB allocation reported by mallinfo(arena+hblkhd)
          7166 MiB available memory on the node where the printing process lives
------------------
     ethr =  7.05E-05,  avg # of iterations =  2.1

     total cpu time spent up to now is     1310.0 secs

     total energy              =    -128.98181193 Ry
     estimated scf accuracy    <       0.00201167 Ry

     iteration #  4     ecut=   120.00 Ry     beta= 0.30
     Davidson diagonalization with overlap

---- Real-time Memory Report at c_bands before calling an iterative solver
           436 MiB given to the printing process from OS
           148 MiB allocation reported by mallinfo(arena+hblkhd)
          7158 MiB available memory on the node where the printing process lives
------------------
     ethr =  1.12E-05,  avg # of iterations =  4.4

     total cpu time spent up to now is     1318.9 secs

     total energy              =    -128.98256649 Ry
     estimated scf accuracy    <       0.00053257 Ry

     iteration #  5     ecut=   120.00 Ry     beta= 0.30
     Davidson diagonalization with overlap

---- Real-time Memory Report at c_bands before calling an iterative solver
           437 MiB given to the printing process from OS
           149 MiB allocation reported by mallinfo(arena+hblkhd)
          7119 MiB available memory on the node where the printing process lives
------------------
     ethr =  2.96E-06,  avg # of iterations =  3.7

     total cpu time spent up to now is     1329.5 secs

     total energy              =    -128.98266320 Ry
     estimated scf accuracy    <       0.00011503 Ry

     iteration #  6     ecut=   120.00 Ry     beta= 0.30
     Davidson diagonalization with overlap

---- Real-time Memory Report at c_bands before calling an iterative solver
           439 MiB given to the printing process from OS
           151 MiB allocation reported by mallinfo(arena+hblkhd)
          6926 MiB available memory on the node where the printing process lives
------------------
     ethr =  6.39E-07,  avg # of iterations =  6.7

     total cpu time spent up to now is     1338.8 secs

     total energy              =    -128.98279887 Ry
     estimated scf accuracy    <       0.00006731 Ry

     iteration #  7     ecut=   120.00 Ry     beta= 0.30
     Davidson diagonalization with overlap

---- Real-time Memory Report at c_bands before calling an iterative solver
           441 MiB given to the printing process from OS
           153 MiB allocation reported by mallinfo(arena+hblkhd)
          6958 MiB available memory on the node where the printing process lives
------------------
     ethr =  3.74E-07,  avg # of iterations =  5.3

     total cpu time spent up to now is     1348.3 secs

     total energy              =    -128.98261802 Ry
     estimated scf accuracy    <       0.00040454 Ry

     iteration #  8     ecut=   120.00 Ry     beta= 0.30
     Davidson diagonalization with overlap

---- Real-time Memory Report at c_bands before calling an iterative solver
           443 MiB given to the printing process from OS
           155 MiB allocation reported by mallinfo(arena+hblkhd)
          7111 MiB available memory on the node where the printing process lives
------------------
     ethr =  3.74E-07,  avg # of iterations =  4.5

     total cpu time spent up to now is     1358.2 secs

     total energy              =    -128.98270920 Ry
     estimated scf accuracy    <       0.00000073 Ry

     iteration #  9     ecut=   120.00 Ry     beta= 0.30
     Davidson diagonalization with overlap

---- Real-time Memory Report at c_bands before calling an iterative solver
           445 MiB given to the printing process from OS
           156 MiB allocation reported by mallinfo(arena+hblkhd)
          7086 MiB available memory on the node where the printing process lives
------------------
     c_bands:  2 eigenvalues not converged
     c_bands:  3 eigenvalues not converged
     ethr =  4.03E-09,  avg # of iterations = 11.6

     total cpu time spent up to now is     1375.2 secs

     total energy              =    -128.98271374 Ry
     estimated scf accuracy    <       0.00000505 Ry

     iteration # 10     ecut=   120.00 Ry     beta= 0.30
     Davidson diagonalization with overlap

---- Real-time Memory Report at c_bands before calling an iterative solver
           446 MiB given to the printing process from OS
           158 MiB allocation reported by mallinfo(arena+hblkhd)
          7082 MiB available memory on the node where the printing process lives
------------------
     ethr =  4.03E-09,  avg # of iterations =  1.6

     total cpu time spent up to now is     1382.3 secs

     total energy              =    -128.98271086 Ry
     estimated scf accuracy    <       0.00000585 Ry

     iteration # 11     ecut=   120.00 Ry     beta= 0.30
     Davidson diagonalization with overlap

---- Real-time Memory Report at c_bands before calling an iterative solver
           446 MiB given to the printing process from OS
           158 MiB allocation reported by mallinfo(arena+hblkhd)
          7088 MiB available memory on the node where the printing process lives
------------------
     c_bands:  2 eigenvalues not converged
     ethr =  4.03E-09,  avg # of iterations = 15.2

     total cpu time spent up to now is     1404.4 secs

     total energy              =    -128.98270916 Ry
     estimated scf accuracy    <       0.00005059 Ry

     iteration # 12     ecut=   120.00 Ry     beta= 0.30
     Davidson diagonalization with overlap

---- Real-time Memory Report at c_bands before calling an iterative solver
           446 MiB given to the printing process from OS
           158 MiB allocation reported by mallinfo(arena+hblkhd)
          6938 MiB available memory on the node where the printing process lives
------------------
     ethr =  4.03E-09,  avg # of iterations = 10.1

     total cpu time spent up to now is     1421.0 secs

     total energy              =    -128.98270868 Ry
     estimated scf accuracy    <       0.00000729 Ry

     iteration # 13     ecut=   120.00 Ry     beta= 0.30
     Davidson diagonalization with overlap

---- Real-time Memory Report at c_bands before calling an iterative solver
           446 MiB given to the printing process from OS
           158 MiB allocation reported by mallinfo(arena+hblkhd)
          6894 MiB available memory on the node where the printing process lives
------------------
     c_bands:  2 eigenvalues not converged
     c_bands:  1 eigenvalues not converged
     c_bands:  2 eigenvalues not converged
     c_bands:  1 eigenvalues not converged
     ethr =  4.03E-09,  avg # of iterations = 16.0

     total cpu time spent up to now is     1446.7 secs

     total energy              =    -128.98272248 Ry
     estimated scf accuracy    <       0.00004960 Ry

     iteration # 14     ecut=   120.00 Ry     beta= 0.30
     Davidson diagonalization with overlap

---- Real-time Memory Report at c_bands before calling an iterative solver
           446 MiB given to the printing process from OS
           158 MiB allocation reported by mallinfo(arena+hblkhd)
          6898 MiB available memory on the node where the printing process lives
------------------
     ethr =  4.03E-09,  avg # of iterations =  3.4

     total cpu time spent up to now is     1455.4 secs

     total energy              =    -128.98270890 Ry
     estimated scf accuracy    <       0.00003656 Ry

     iteration # 15     ecut=   120.00 Ry     beta= 0.30
     Davidson diagonalization with overlap

---- Real-time Memory Report at c_bands before calling an iterative solver
           446 MiB given to the printing process from OS
           158 MiB allocation reported by mallinfo(arena+hblkhd)
          7058 MiB available memory on the node where the printing process lives
------------------
     ethr =  4.03E-09,  avg # of iterations = 10.9

     total cpu time spent up to now is     1474.1 secs

     total energy              =    -128.98271101 Ry
     estimated scf accuracy    <       0.00000453 Ry

     iteration # 16     ecut=   120.00 Ry     beta= 0.30
     Davidson diagonalization with overlap

---- Real-time Memory Report at c_bands before calling an iterative solver
           446 MiB given to the printing process from OS
           158 MiB allocation reported by mallinfo(arena+hblkhd)
          6948 MiB available memory on the node where the printing process lives
------------------
     ethr =  4.03E-09,  avg # of iterations =  6.9

     total cpu time spent up to now is     1484.6 secs

     total energy              =    -128.98271140 Ry
     estimated scf accuracy    <       0.00000062 Ry

     iteration # 17     ecut=   120.00 Ry     beta= 0.30
     Davidson diagonalization with overlap

---- Real-time Memory Report at c_bands before calling an iterative solver
           446 MiB given to the printing process from OS
           158 MiB allocation reported by mallinfo(arena+hblkhd)
          6906 MiB available memory on the node where the printing process lives
------------------
     ethr =  3.45E-09,  avg # of iterations =  3.1

     total cpu time spent up to now is     1491.4 secs

     total energy              =    -128.98271127 Ry
     estimated scf accuracy    <       0.00000027 Ry

     iteration # 18     ecut=   120.00 Ry     beta= 0.30
     Davidson diagonalization with overlap

---- Real-time Memory Report at c_bands before calling an iterative solver
           446 MiB given to the printing process from OS
           158 MiB allocation reported by mallinfo(arena+hblkhd)
          7079 MiB available memory on the node where the printing process lives
------------------
     ethr =  1.51E-09,  avg # of iterations =  6.9

     total cpu time spent up to now is     1503.6 secs

     total energy              =    -128.98271149 Ry
     estimated scf accuracy    <       0.00000019 Ry

     iteration # 19     ecut=   120.00 Ry     beta= 0.30
     Davidson diagonalization with overlap

---- Real-time Memory Report at c_bands before calling an iterative solver
           446 MiB given to the printing process from OS
           158 MiB allocation reported by mallinfo(arena+hblkhd)
          6893 MiB available memory on the node where the printing process lives
------------------
     ethr =  1.07E-09,  avg # of iterations =  1.2

     total cpu time spent up to now is     1509.9 secs

     total energy              =    -128.98271144 Ry
     estimated scf accuracy    <       0.00000014 Ry

     iteration # 20     ecut=   120.00 Ry     beta= 0.30
     Davidson diagonalization with overlap

---- Real-time Memory Report at c_bands before calling an iterative solver
           446 MiB given to the printing process from OS
           158 MiB allocation reported by mallinfo(arena+hblkhd)
          6901 MiB available memory on the node where the printing process lives
------------------
     ethr =  7.64E-10,  avg # of iterations =  2.0

     total cpu time spent up to now is     1516.9 secs

     total energy              =    -128.98271142 Ry
     estimated scf accuracy    <       0.00000004 Ry

     iteration # 21     ecut=   120.00 Ry     beta= 0.30
     Davidson diagonalization with overlap

---- Real-time Memory Report at c_bands before calling an iterative solver
           446 MiB given to the printing process from OS
           158 MiB allocation reported by mallinfo(arena+hblkhd)
          6926 MiB available memory on the node where the printing process lives
------------------
     ethr =  2.31E-10,  avg # of iterations =  5.9

     total cpu time spent up to now is     1526.1 secs

     total energy              =    -128.98271144 Ry
     estimated scf accuracy    <          2.0E-09 Ry

     iteration # 22     ecut=   120.00 Ry     beta= 0.30
     Davidson diagonalization with overlap

---- Real-time Memory Report at c_bands before calling an iterative solver
           446 MiB given to the printing process from OS
           158 MiB allocation reported by mallinfo(arena+hblkhd)
          7109 MiB available memory on the node where the printing process lives
------------------
     ethr =  1.10E-11,  avg # of iterations =  8.1

     total cpu time spent up to now is     1537.8 secs

     total energy              =    -128.98271144 Ry
     estimated scf accuracy    <       0.00000001 Ry

     iteration # 23     ecut=   120.00 Ry     beta= 0.30
     Davidson diagonalization with overlap

---- Real-time Memory Report at c_bands before calling an iterative solver
           446 MiB given to the printing process from OS
           158 MiB allocation reported by mallinfo(arena+hblkhd)
          6931 MiB available memory on the node where the printing process lives
------------------
     ethr =  1.10E-11,  avg # of iterations =  3.4

     total cpu time spent up to now is     1546.4 secs

     total energy              =    -128.98271145 Ry
     estimated scf accuracy    <          3.9E-09 Ry

     iteration # 24     ecut=   120.00 Ry     beta= 0.30
     Davidson diagonalization with overlap

---- Real-time Memory Report at c_bands before calling an iterative solver
           446 MiB given to the printing process from OS
           158 MiB allocation reported by mallinfo(arena+hblkhd)
          7090 MiB available memory on the node where the printing process lives
------------------
     ethr =  1.10E-11,  avg # of iterations =  6.0

     total cpu time spent up to now is     1556.4 secs

     total energy              =    -128.98271143 Ry
     estimated scf accuracy    <       0.00000003 Ry

     iteration # 25     ecut=   120.00 Ry     beta= 0.30
     Davidson diagonalization with overlap

---- Real-time Memory Report at c_bands before calling an iterative solver
           446 MiB given to the printing process from OS
           158 MiB allocation reported by mallinfo(arena+hblkhd)
          7104 MiB available memory on the node where the printing process lives
------------------
     ethr =  1.10E-11,  avg # of iterations = 10.0

     total cpu time spent up to now is     1571.7 secs

     total energy              =    -128.98271145 Ry
     estimated scf accuracy    <          7.6E-09 Ry

     iteration # 26     ecut=   120.00 Ry     beta= 0.30
     Davidson diagonalization with overlap

---- Real-time Memory Report at c_bands before calling an iterative solver
           446 MiB given to the printing process from OS
           158 MiB allocation reported by mallinfo(arena+hblkhd)
          6911 MiB available memory on the node where the printing process lives
------------------
     ethr =  1.10E-11,  avg # of iterations =  1.4

     total cpu time spent up to now is     1578.3 secs

     total energy              =    -128.98271144 Ry
     estimated scf accuracy    <          5.0E-09 Ry

     iteration # 27     ecut=   120.00 Ry     beta= 0.30
     Davidson diagonalization with overlap

---- Real-time Memory Report at c_bands before calling an iterative solver
           446 MiB given to the printing process from OS
           158 MiB allocation reported by mallinfo(arena+hblkhd)
          7094 MiB available memory on the node where the printing process lives
------------------
     ethr =  1.10E-11,  avg # of iterations =  1.9

     total cpu time spent up to now is     1584.7 secs

     total energy              =    -128.98271145 Ry
     estimated scf accuracy    <          2.7E-09 Ry

     iteration # 28     ecut=   120.00 Ry     beta= 0.30
     Davidson diagonalization with overlap

---- Real-time Memory Report at c_bands before calling an iterative solver
           446 MiB given to the printing process from OS
           158 MiB allocation reported by mallinfo(arena+hblkhd)
          6915 MiB available memory on the node where the printing process lives
------------------
     ethr =  1.10E-11,  avg # of iterations =  5.5

     total cpu time spent up to now is     1593.7 secs

     total energy              =    -128.98271145 Ry
     estimated scf accuracy    <       0.00000001 Ry

     iteration # 29     ecut=   120.00 Ry     beta= 0.30
     Davidson diagonalization with overlap

---- Real-time Memory Report at c_bands before calling an iterative solver
           446 MiB given to the printing process from OS
           158 MiB allocation reported by mallinfo(arena+hblkhd)
          6908 MiB available memory on the node where the printing process lives
------------------
     ethr =  1.10E-11,  avg # of iterations =  1.1

     total cpu time spent up to now is     1599.9 secs

     total energy              =    -128.98271145 Ry
     estimated scf accuracy    <       0.00000001 Ry

     iteration # 30     ecut=   120.00 Ry     beta= 0.30
     Davidson diagonalization with overlap

---- Real-time Memory Report at c_bands before calling an iterative solver
           446 MiB given to the printing process from OS
           158 MiB allocation reported by mallinfo(arena+hblkhd)
          6793 MiB available memory on the node where the printing process lives
------------------
     ethr =  1.10E-11,  avg # of iterations =  2.3

     total cpu time spent up to now is     1607.1 secs

     total energy              =    -128.98271144 Ry
     estimated scf accuracy    <       0.00000002 Ry

     iteration # 31     ecut=   120.00 Ry     beta= 0.30
     Davidson diagonalization with overlap

---- Real-time Memory Report at c_bands before calling an iterative solver
           446 MiB given to the printing process from OS
           158 MiB allocation reported by mallinfo(arena+hblkhd)
          6919 MiB available memory on the node where the printing process lives
------------------
     ethr =  1.10E-11,  avg # of iterations =  7.3

     total cpu time spent up to now is     1620.2 secs

     total energy              =    -128.98271144 Ry
     estimated scf accuracy    <          1.7E-09 Ry

     iteration # 32     ecut=   120.00 Ry     beta= 0.30
     Davidson diagonalization with overlap

---- Real-time Memory Report at c_bands before calling an iterative solver
           446 MiB given to the printing process from OS
           158 MiB allocation reported by mallinfo(arena+hblkhd)
          7080 MiB available memory on the node where the printing process lives
------------------
     ethr =  9.67E-12,  avg # of iterations =  3.4

     total cpu time spent up to now is     1628.6 secs

     total energy              =    -128.98271144 Ry
     estimated scf accuracy    <          2.7E-10 Ry

     iteration # 33     ecut=   120.00 Ry     beta= 0.30
     Davidson diagonalization with overlap

---- Real-time Memory Report at c_bands before calling an iterative solver
           446 MiB given to the printing process from OS
           158 MiB allocation reported by mallinfo(arena+hblkhd)
          6905 MiB available memory on the node where the printing process lives
------------------
     ethr =  1.53E-12,  avg # of iterations =  3.5

     total cpu time spent up to now is     1637.3 secs

     total energy              =    -128.98271144 Ry
     estimated scf accuracy    <          3.5E-10 Ry

     iteration # 34     ecut=   120.00 Ry     beta= 0.30
     Davidson diagonalization with overlap

---- Real-time Memory Report at c_bands before calling an iterative solver
           446 MiB given to the printing process from OS
           158 MiB allocation reported by mallinfo(arena+hblkhd)
          7089 MiB available memory on the node where the printing process lives
------------------
     ethr =  1.53E-12,  avg # of iterations =  1.1

     total cpu time spent up to now is     1643.8 secs

     total energy              =    -128.98271144 Ry
     estimated scf accuracy    <          3.4E-10 Ry

     iteration # 35     ecut=   120.00 Ry     beta= 0.30
     Davidson diagonalization with overlap

---- Real-time Memory Report at c_bands before calling an iterative solver
           446 MiB given to the printing process from OS
           158 MiB allocation reported by mallinfo(arena+hblkhd)
          6962 MiB available memory on the node where the printing process lives
------------------
     ethr =  1.53E-12,  avg # of iterations =  1.3

     total cpu time spent up to now is     1650.1 secs

     total energy              =    -128.98271144 Ry
     estimated scf accuracy    <          3.5E-10 Ry

     iteration # 36     ecut=   120.00 Ry     beta= 0.30
     Davidson diagonalization with overlap

---- Real-time Memory Report at c_bands before calling an iterative solver
           446 MiB given to the printing process from OS
           158 MiB allocation reported by mallinfo(arena+hblkhd)
          7024 MiB available memory on the node where the printing process lives
------------------
     ethr =  1.53E-12,  avg # of iterations =  6.1

     total cpu time spent up to now is     1659.5 secs

     total energy              =    -128.98271144 Ry
     estimated scf accuracy    <          2.6E-10 Ry

     iteration # 37     ecut=   120.00 Ry     beta= 0.30
     Davidson diagonalization with overlap

---- Real-time Memory Report at c_bands before calling an iterative solver
           446 MiB given to the printing process from OS
           158 MiB allocation reported by mallinfo(arena+hblkhd)
          6899 MiB available memory on the node where the printing process lives
------------------
     ethr =  1.47E-12,  avg # of iterations =  1.0

     total cpu time spent up to now is     1666.1 secs

     total energy              =    -128.98271144 Ry
     estimated scf accuracy    <          3.0E-10 Ry

     iteration # 38     ecut=   120.00 Ry     beta= 0.30
     Davidson diagonalization with overlap

---- Real-time Memory Report at c_bands before calling an iterative solver
           446 MiB given to the printing process from OS
           158 MiB allocation reported by mallinfo(arena+hblkhd)
          6956 MiB available memory on the node where the printing process lives
------------------
     ethr =  1.47E-12,  avg # of iterations =  1.8

     total cpu time spent up to now is     1672.7 secs

     total energy              =    -128.98271144 Ry
     estimated scf accuracy    <          3.8E-10 Ry

     iteration # 39     ecut=   120.00 Ry     beta= 0.30
     Davidson diagonalization with overlap

---- Real-time Memory Report at c_bands before calling an iterative solver
           446 MiB given to the printing process from OS
           158 MiB allocation reported by mallinfo(arena+hblkhd)
          6925 MiB available memory on the node where the printing process lives
------------------
     ethr =  1.47E-12,  avg # of iterations =  1.0

     total cpu time spent up to now is     1680.3 secs

     total energy              =    -128.98271144 Ry
     estimated scf accuracy    <          2.6E-10 Ry

     iteration # 40     ecut=   120.00 Ry     beta= 0.30
     Davidson diagonalization with overlap

---- Real-time Memory Report at c_bands before calling an iterative solver
           446 MiB given to the printing process from OS
           158 MiB allocation reported by mallinfo(arena+hblkhd)
          7075 MiB available memory on the node where the printing process lives
------------------
     ethr =  1.45E-12,  avg # of iterations =  1.0

     total cpu time spent up to now is     1686.8 secs

     total energy              =    -128.98271144 Ry
     estimated scf accuracy    <          1.4E-10 Ry

     iteration # 41     ecut=   120.00 Ry     beta= 0.30
     Davidson diagonalization with overlap

---- Real-time Memory Report at c_bands before calling an iterative solver
           446 MiB given to the printing process from OS
           158 MiB allocation reported by mallinfo(arena+hblkhd)
          6915 MiB available memory on the node where the printing process lives
------------------
     ethr =  8.01E-13,  avg # of iterations =  1.5

     total cpu time spent up to now is     1693.4 secs

     total energy              =    -128.98271144 Ry
     estimated scf accuracy    <          1.1E-10 Ry

     iteration # 42     ecut=   120.00 Ry     beta= 0.30
     Davidson diagonalization with overlap

---- Real-time Memory Report at c_bands before calling an iterative solver
           446 MiB given to the printing process from OS
           158 MiB allocation reported by mallinfo(arena+hblkhd)
          7102 MiB available memory on the node where the printing process lives
------------------
     ethr =  6.09E-13,  avg # of iterations =  2.0

     total cpu time spent up to now is     1700.1 secs

     total energy              =    -128.98271144 Ry
     estimated scf accuracy    <          4.3E-11 Ry

     iteration # 43     ecut=   120.00 Ry     beta= 0.30
     Davidson diagonalization with overlap

---- Real-time Memory Report at c_bands before calling an iterative solver
           446 MiB given to the printing process from OS
           158 MiB allocation reported by mallinfo(arena+hblkhd)
          7068 MiB available memory on the node where the printing process lives
------------------
     ethr =  2.39E-13,  avg # of iterations =  4.9

     total cpu time spent up to now is     1709.2 secs

     total energy              =    -128.98271144 Ry
     estimated scf accuracy    <          1.0E-11 Ry

     iteration # 44     ecut=   120.00 Ry     beta= 0.30
     Davidson diagonalization with overlap

---- Real-time Memory Report at c_bands before calling an iterative solver
           446 MiB given to the printing process from OS
           158 MiB allocation reported by mallinfo(arena+hblkhd)
          7122 MiB available memory on the node where the printing process lives
------------------
     ethr =  1.00E-13,  avg # of iterations =  4.6

     total cpu time spent up to now is     1716.9 secs

     total energy              =    -128.98271144 Ry
     estimated scf accuracy    <          5.8E-12 Ry

     iteration # 45     ecut=   120.00 Ry     beta= 0.30
     Davidson diagonalization with overlap

---- Real-time Memory Report at c_bands before calling an iterative solver
           446 MiB given to the printing process from OS
           158 MiB allocation reported by mallinfo(arena+hblkhd)
          6965 MiB available memory on the node where the printing process lives
------------------
     ethr =  1.00E-13,  avg # of iterations =  1.5

     total cpu time spent up to now is     1723.1 secs

     total energy              =    -128.98271144 Ry
     estimated scf accuracy    <          7.4E-12 Ry

     iteration # 46     ecut=   120.00 Ry     beta= 0.30
     Davidson diagonalization with overlap

---- Real-time Memory Report at c_bands before calling an iterative solver
           446 MiB given to the printing process from OS
           158 MiB allocation reported by mallinfo(arena+hblkhd)
          7023 MiB available memory on the node where the printing process lives
------------------
     ethr =  1.00E-13,  avg # of iterations =  1.1

     total cpu time spent up to now is     1729.2 secs

     total energy              =    -128.98271144 Ry
     estimated scf accuracy    <          9.5E-12 Ry

     iteration # 47     ecut=   120.00 Ry     beta= 0.30
     Davidson diagonalization with overlap

---- Real-time Memory Report at c_bands before calling an iterative solver
           446 MiB given to the printing process from OS
           158 MiB allocation reported by mallinfo(arena+hblkhd)
          7057 MiB available memory on the node where the printing process lives
------------------
     ethr =  1.00E-13,  avg # of iterations =  1.0

     total cpu time spent up to now is     1735.2 secs

     total energy              =    -128.98271144 Ry
     estimated scf accuracy    <          1.1E-11 Ry

     iteration # 48     ecut=   120.00 Ry     beta= 0.30
     Davidson diagonalization with overlap

---- Real-time Memory Report at c_bands before calling an iterative solver
           446 MiB given to the printing process from OS
           158 MiB allocation reported by mallinfo(arena+hblkhd)
          7054 MiB available memory on the node where the printing process lives
------------------
     ethr =  1.00E-13,  avg # of iterations =  1.0

     total cpu time spent up to now is     1742.4 secs

     total energy              =    -128.98271144 Ry
     estimated scf accuracy    <          3.0E-12 Ry

     iteration # 49     ecut=   120.00 Ry     beta= 0.30
     Davidson diagonalization with overlap

---- Real-time Memory Report at c_bands before calling an iterative solver
           446 MiB given to the printing process from OS
           158 MiB allocation reported by mallinfo(arena+hblkhd)
          7073 MiB available memory on the node where the printing process lives
------------------
     ethr =  1.00E-13,  avg # of iterations =  1.0

     total cpu time spent up to now is     1748.8 secs

     End of self-consistent calculation

          k = 0.0000 0.0000 0.0000 ( 10969 PWs)   bands (ev):

    -6.4319  -6.4319  -4.0240  -4.0240  -4.0240  -4.0240  -3.4544  -3.4544
    -3.2804  -3.2804  -3.2804  -3.2804   3.7969   3.7969   4.6455   4.6455
     4.6455   4.6455

     occupation numbers 
     1.0000   1.0000   1.0000   1.0000   1.0000   1.0000   1.0000   1.0000
     1.0000   1.0000   1.0000   1.0000   1.0000   1.0000   1.0000   1.0000
     1.0000   1.0000

          k = 0.0692 0.0692-0.0692 ( 10927 PWs)   bands (ev):

    -6.3996  -6.3996  -4.0285  -4.0160  -4.0071  -4.0071  -3.4411  -3.4411
    -3.2842  -3.2780  -3.2780  -3.2684   3.3316   3.3316   4.1080   4.1080
     4.5575   4.5680

     occupation numbers 
     1.0000   1.0000   1.0000   1.0000   1.0000   1.0000   1.0000   1.0000
     1.0000   1.0000   1.0000   1.0000   1.0000   1.0000   1.0000   1.0000
     1.0000   1.0000

          k = 0.1383 0.1383-0.1383 ( 10897 PWs)   bands (ev):

    -6.3149  -6.3149  -4.0282  -4.0081  -3.9576  -3.9576  -3.4073  -3.4073
    -3.2780  -3.2602  -3.2602  -3.2524   2.2966   2.2966   3.8409   3.8409
     4.3577   4.3736

     occupation numbers 
     1.0000   1.0000   1.0000   1.0000   1.0000   1.0000   1.0000   1.0000
     1.0000   1.0000   1.0000   1.0000   1.0000   1.0000   1.0000   1.0000
     1.0000   1.0000

          k = 0.2075 0.2075-0.2075 ( 10897 PWs)   bands (ev):

    -6.2110  -6.2110  -4.0237  -4.0037  -3.8867  -3.8867  -3.3793  -3.3793
    -3.2632  -3.2376  -3.1916  -3.1916   1.3030   1.3030   3.6242   3.6242
     4.1438   4.1588

     occupation numbers 
     1.0000   1.0000   1.0000   1.0000   1.0000   1.0000   1.0000   1.0000
     1.0000   1.0000   1.0000   1.0000   1.0000   1.0000   1.0000   1.0000
     1.0000   1.0000

          k = 0.2767 0.2767-0.2767 ( 10931 PWs)   bands (ev):

    -6.1285  -6.1285  -4.0168  -4.0045  -3.8237  -3.8237  -3.3718  -3.3718
    -3.2455  -3.2297  -3.0721  -3.0721   0.5673   0.5673   3.4717   3.4717
     3.9908   3.9998

     occupation numbers 
     1.0000   1.0000   1.0000   1.0000   1.0000   1.0000   1.0000   1.0000
     1.0000   1.0000   1.0000   1.0000   1.0000   1.0000   1.0000   1.0000
     1.0000   1.0000

          k =-0.3458-0.3458 0.3458 ( 10880 PWs)   bands (ev):

    -6.0975  -6.0975  -4.0096  -4.0096  -3.7991  -3.7991  -3.3713  -3.3713
    -3.2325  -3.2325  -3.0045  -3.0045   0.2849   0.2849   3.4169   3.4169
     3.9391   3.9391

     occupation numbers 
     1.0000   1.0000   1.0000   1.0000   1.0000   1.0000   1.0000   1.0000
     1.0000   1.0000   1.0000   1.0000   1.0000   1.0000   1.0000   1.0000
     1.0000   1.0000

          k = 0.1383 0.0000 0.0000 ( 10922 PWs)   bands (ev):

    -6.3888  -6.3888  -4.0200  -4.0200  -4.0031  -4.0031  -3.4364  -3.4364
    -3.2849  -3.2849  -3.2676  -3.2676   3.2747   3.2747   3.9931   3.9931
     4.4016   4.4016

     occupation numbers 
     1.0000   1.0000   1.0000   1.0000   1.0000   1.0000   1.0000   1.0000
     1.0000   1.0000   1.0000   1.0000   1.0000   1.0000   1.0000   1.0000
     1.0000   1.0000

          k = 0.2075 0.0692-0.0692 ( 10917 PWs)   bands (ev):

    -6.3225  -6.3211  -4.0221  -4.0046  -3.9790  -3.9566  -3.4122  -3.4034
    -3.2823  -3.2806  -3.2548  -3.2477   2.4902   2.5450   3.6759   3.7766
     4.1835   4.1969

     occupation numbers 
     1.0000   1.0000   1.0000   1.0000   1.0000   1.0000   1.0000   1.0000
     1.0000   1.0000   1.0000   1.0000   1.0000   1.0000   1.0000   1.0000
     1.0000   1.0000

          k = 0.2767 0.1383-0.1383 ( 10896 PWs)   bands (ev):

    -6.2266  -6.2225  -4.0192  -3.9974  -3.9290  -3.8790  -3.3838  -3.3679
    -3.2683  -3.2593  -3.2101  -3.1991   1.5493   1.6092   3.4239   3.5483
     3.9448   3.9653

     occupation numbers 
     1.0000   1.0000   1.0000   1.0000   1.0000   1.0000   1.0000   1.0000
     1.0000   1.0000   1.0000   1.0000   1.0000   1.0000   1.0000   1.0000
     1.0000   1.0000

          k = 0.3458 0.2075-0.2075 ( 10901 PWs)   bands (ev):

    -6.1391  -6.1319  -4.0131  -3.9962  -3.8760  -3.7987  -3.3729  -3.3563
    -3.2505  -3.2383  -3.1196  -3.0778   0.7576   0.8179   3.2220   3.3601
     3.7499   3.7800

     occupation numbers 
     1.0000   1.0000   1.0000   1.0000   1.0000   1.0000   1.0000   1.0000
     1.0000   1.0000   1.0000   1.0000   1.0000   1.0000   1.0000   1.0000
     1.0000   1.0000

          k =-0.2767-0.4150 0.4150 ( 10894 PWs)   bands (ev):

    -6.0927  -6.0833  -4.0061  -3.9999  -3.8461  -3.7534  -3.3725  -3.3551
    -3.2364  -3.2331  -3.0299  -2.9725   0.3262   0.3882   3.0942   3.2404
     3.6809   3.7122

     occupation numbers 
     1.0000   1.0000   1.0000   1.0000   1.0000   1.0000   1.0000   1.0000
     1.0000   1.0000   1.0000   1.0000   1.0000   1.0000   1.0000   1.0000
     1.0000   1.0000

          k =-0.2075-0.3458 0.3458 ( 10911 PWs)   bands (ev):

    -6.1029  -6.0936  -4.0068  -4.0004  -3.8538  -3.7614  -3.3736  -3.3547
    -3.2406  -3.2317  -3.0546  -2.9947   0.4174   0.4830   3.0663   3.2185
     3.7548   3.7803

     occupation numbers 
     1.0000   1.0000   1.0000   1.0000   1.0000   1.0000   1.0000   1.0000
     1.0000   1.0000   1.0000   1.0000   1.0000   1.0000   1.0000   1.0000
     1.0000   1.0000

          k =-0.1383-0.2767 0.2767 ( 10903 PWs)   bands (ev):

    -6.1663  -6.1593  -4.0143  -3.9984  -3.8954  -3.8194  -3.3779  -3.3571
    -3.2560  -3.2391  -3.1648  -3.1152   0.9884   1.0607   3.1587   3.3219
     3.9378   3.9583

     occupation numbers 
     1.0000   1.0000   1.0000   1.0000   1.0000   1.0000   1.0000   1.0000
     1.0000   1.0000   1.0000   1.0000   1.0000   1.0000   1.0000   1.0000
     1.0000   1.0000

          k =-0.0692-0.2075 0.2075 ( 10927 PWs)   bands (ev):

    -6.2609  -6.2570  -4.0208  -4.0017  -3.9501  -3.9019  -3.3963  -3.3760
    -3.2725  -3.2571  -3.2471  -3.2142   1.8362   1.9196   3.3787   3.5573
     4.1708   4.1904

     occupation numbers 
     1.0000   1.0000   1.0000   1.0000   1.0000   1.0000   1.0000   1.0000
     1.0000   1.0000   1.0000   1.0000   1.0000   1.0000   1.0000   1.0000
     1.0000   1.0000

          k = 0.0000-0.1383 0.1383 ( 10923 PWs)   bands (ev):

    -6.3505  -6.3492  -4.0256  -4.0092  -3.9919  -3.9712  -3.4250  -3.4155
    -3.2828  -3.2742  -3.2718  -3.2535   2.7216   2.8011   3.7312   3.8910
     4.3903   4.4051

     occupation numbers 
     1.0000   1.0000   1.0000   1.0000   1.0000   1.0000   1.0000   1.0000
     1.0000   1.0000   1.0000   1.0000   1.0000   1.0000   1.0000   1.0000
     1.0000   1.0000

          k = 0.2767 0.0000 0.0000 ( 10930 PWs)   bands (ev):

    -6.2767  -6.2767  -4.0050  -4.0050  -3.9471  -3.9471  -3.3849  -3.3849
    -3.2867  -3.2867  -3.2337  -3.2337   2.2734   2.2734   3.4700   3.4700
     3.8794   3.8794

     occupation numbers 
     1.0000   1.0000   1.0000   1.0000   1.0000   1.0000   1.0000   1.0000
     1.0000   1.0000   1.0000   1.0000   1.0000   1.0000   1.0000   1.0000
     1.0000   1.0000

          k = 0.3458 0.0692-0.0692 ( 10920 PWs)   bands (ev):

    -6.1997  -6.1955  -4.0050  -3.9863  -3.9272  -3.8721  -3.3595  -3.3485
    -3.2829  -3.2736  -3.1943  -3.1867   1.6051   1.6787   3.1342   3.2793
     3.5902   3.6257

     occupation numbers 
     1.0000   1.0000   1.0000   1.0000   1.0000   1.0000   1.0000   1.0000
     1.0000   1.0000   1.0000   1.0000   1.0000   1.0000   1.0000   1.0000
     1.0000   1.0000

          k = 0.4150 0.1383-0.1383 ( 10893 PWs)   bands (ev):

    -6.1211  -6.1109  -4.0012  -3.9762  -3.9001  -3.7840  -3.3489  -3.3363
    -3.2620  -3.2528  -3.1218  -3.0707   0.9172   1.0271   2.8104   3.0331
     3.3635   3.4264

     occupation numbers 
     1.0000   1.0000   1.0000   1.0000   1.0000   1.0000   1.0000   1.0000
     1.0000   1.0000   1.0000   1.0000   1.0000   1.0000   1.0000   1.0000
     1.0000   1.0000

          k =-0.2075-0.4842 0.4842 ( 10895 PWs)   bands (ev):

    -6.0707  -6.0553  -3.9957  -3.9755  -3.8809  -3.7220  -3.3522  -3.3352
    -3.2439  -3.2382  -3.0330  -2.9424   0.4485   0.5803   2.5312   2.7679
     3.3253   3.3758

     occupation numbers 
     1.0000   1.0000   1.0000   1.0000   1.0000   1.0000   1.0000   1.0000
     1.0000   1.0000   1.0000   1.0000   1.0000   1.0000   1.0000   1.0000
     1.0000   1.0000

          k =-0.1383-0.4150 0.4150 ( 10891 PWs)   bands (ev):

    -6.0656  -6.0481  -3.9910  -3.9813  -3.8821  -3.7089  -3.3578  -3.3351
    -3.2396  -3.2330  -3.0210  -2.9125   0.3796   0.5295   2.3737   2.6195
     3.4460   3.4807

     occupation numbers 
     1.0000   1.0000   1.0000   1.0000   1.0000   1.0000   1.0000   1.0000
     1.0000   1.0000   1.0000   1.0000   1.0000   1.0000   1.0000   1.0000
     1.0000   1.0000

          k =-0.0692-0.3458 0.3458 ( 10901 PWs)   bands (ev):

    -6.1069  -6.0919  -3.9915  -3.9897  -3.9033  -3.7464  -3.3645  -3.3359
    -3.2469  -3.2385  -3.1093  -3.0056   0.7232   0.8880   2.4147   2.6775
     3.6732   3.6993

     occupation numbers 
     1.0000   1.0000   1.0000   1.0000   1.0000   1.0000   1.0000   1.0000
     1.0000   1.0000   1.0000   1.0000   1.0000   1.0000   1.0000   1.0000
     1.0000   1.0000

          k = 0.0000-0.2767 0.2767 ( 10891 PWs)   bands (ev):

    -6.1811  -6.1715  -4.0056  -3.9936  -3.9311  -3.8216  -3.3774  -3.3459
    -3.2605  -3.2503  -3.2026  -3.1302   1.2817   1.4342   2.7492   3.0074
     3.9382   3.9628

     occupation numbers 
     1.0000   1.0000   1.0000   1.0000   1.0000   1.0000   1.0000   1.0000
     1.0000   1.0000   1.0000   1.0000   1.0000   1.0000   1.0000   1.0000
     1.0000   1.0000

          k = 0.4150 0.0000 0.0000 ( 10922 PWs)   bands (ev):

    -6.1409  -6.1409  -3.9869  -3.9869  -3.8672  -3.8672  -3.3249  -3.3249
    -3.2810  -3.2810  -3.1490  -3.1490   1.3366   1.3366   2.9907   2.9907
     3.3652   3.3652

     occupation numbers 
     1.0000   1.0000   1.0000   1.0000   1.0000   1.0000   1.0000   1.0000
     1.0000   1.0000   1.0000   1.0000   1.0000   1.0000   1.0000   1.0000
     1.0000   1.0000

          k = 0.4842 0.0692-0.0692 ( 10898 PWs)   bands (ev):

    -6.0812  -6.0736  -3.9869  -3.9691  -3.8685  -3.7828  -3.3189  -3.3072
    -3.2823  -3.2533  -3.0829  -3.0456   0.8544   0.9382   2.6637   2.8289
     3.1098   3.1584

     occupation numbers 
     1.0000   1.0000   1.0000   1.0000   1.0000   1.0000   1.0000   1.0000
     1.0000   1.0000   1.0000   1.0000   1.0000   1.0000   1.0000   1.0000
     1.0000   1.0000

          k =-0.1383-0.5534 0.5534 ( 10893 PWs)   bands (ev):

    -6.0396  -6.0238  -3.9846  -3.9548  -3.8800  -3.7129  -3.3204  -3.3155
    -3.2627  -3.2358  -3.0052  -2.9171   0.4870   0.6454   2.2570   2.5174
     3.0202   3.0772

     occupation numbers 
     1.0000   1.0000   1.0000   1.0000   1.0000   1.0000   1.0000   1.0000
     1.0000   1.0000   1.0000   1.0000   1.0000   1.0000   1.0000   1.0000
     1.0000   1.0000

          k =-0.0692-0.4842 0.4842 ( 10894 PWs)   bands (ev):

    -6.0304  -6.0093  -3.9826  -3.9493  -3.8980  -3.6823  -3.3308  -3.3223
    -3.2467  -3.2301  -2.9749  -2.8521   0.3689   0.5921   1.9362   2.2490
     3.1390   3.1777

     occupation numbers 
     1.0000   1.0000   1.0000   1.0000   1.0000   1.0000   1.0000   1.0000
     1.0000   1.0000   1.0000   1.0000   1.0000   1.0000   1.0000   1.0000
     1.0000   1.0000

          k =-0.0000-0.4150 0.4150 ( 10900 PWs)   bands (ev):

    -6.0556  -6.0350  -3.9838  -3.9637  -3.9069  -3.6952  -3.3473  -3.3256
    -3.2418  -3.2332  -3.0274  -2.8964   0.4944   0.7348   1.9372   2.2669
     3.3813   3.4099

     occupation numbers 
     1.0000   1.0000   1.0000   1.0000   1.0000   1.0000   1.0000   1.0000
     1.0000   1.0000   1.0000   1.0000   1.0000   1.0000   1.0000   1.0000
     1.0000   1.0000

          k = 0.5534 0.0000 0.0000 ( 10878 PWs)   bands (ev):

    -6.0352  -6.0352  -3.9730  -3.9730  -3.7981  -3.7981  -3.3028  -3.3028
    -3.2592  -3.2592  -3.0018  -3.0018   0.6288   0.6288   2.6554   2.6554
     3.0108   3.0108

     occupation numbers 
     1.0000   1.0000   1.0000   1.0000   1.0000   1.0000   1.0000   1.0000
     1.0000   1.0000   1.0000   1.0000   1.0000   1.0000   1.0000   1.0000
     1.0000   1.0000

          k =-0.0692-0.6225 0.6225 ( 10880 PWs)   bands (ev):

    -6.0111  -6.0011  -3.9757  -3.9592  -3.8304  -3.7297  -3.3104  -3.2867
    -3.2726  -3.2359  -2.9570  -2.9035   0.3894   0.4785   2.3963   2.5650
     2.8551   2.9052

     occupation numbers 
     1.0000   1.0000   1.0000   1.0000   1.0000   1.0000   1.0000   1.0000
     1.0000   1.0000   1.0000   1.0000   1.0000   1.0000   1.0000   1.0000
     1.0000   1.0000

          k = 0.0000-0.5534 0.5534 ( 10908 PWs)   bands (ev):

    -6.0097  -5.9914  -3.9780  -3.9459  -3.8729  -3.6886  -3.3158  -3.3023
    -3.2618  -3.2281  -2.9442  -2.8438   0.3297   0.5113   2.0349   2.3097
     2.9071   2.9583

     occupation numbers 
     1.0000   1.0000   1.0000   1.0000   1.0000   1.0000   1.0000   1.0000
     1.0000   1.0000   1.0000   1.0000   1.0000   1.0000   1.0000   1.0000
     1.0000   1.0000

          k =-0.6917 0.0000 0.0000 ( 10846 PWs)   bands (ev):

    -5.9963  -5.9963  -3.9680  -3.9680  -3.7720  -3.7720  -3.2994  -3.2994
    -3.2478  -3.2478  -2.9157  -2.9157   0.3496   0.3496   2.5356   2.5356
     2.8857   2.8857

     occupation numbers 
     1.0000   1.0000   1.0000   1.0000   1.0000   1.0000   1.0000   1.0000
     1.0000   1.0000   1.0000   1.0000   1.0000   1.0000   1.0000   1.0000
     1.0000   1.0000

          k = 0.2767 0.1383 0.0000 ( 10919 PWs)   bands (ev):

    -6.2507  -6.2465  -4.0144  -3.9949  -3.9546  -3.8985  -3.3880  -3.3678
    -3.2764  -3.2746  -3.2325  -3.2103   1.8864   1.9879   3.2344   3.4479
     3.9142   4.0066

     occupation numbers 
     1.0000   1.0000   1.0000   1.0000   1.0000   1.0000   1.0000   1.0000
     1.0000   1.0000   1.0000   1.0000   1.0000   1.0000   1.0000   1.0000
     1.0000   1.0000

          k = 0.3458 0.2075-0.0692 ( 10898 PWs)   bands (ev):

    -6.1640  -6.1549  -4.0064  -3.9875  -3.9190  -3.8143  -3.3681  -3.3443
    -3.2594  -3.2566  -3.1751  -3.1193   1.1664   1.2873   2.8576   3.0952
     3.6819   3.7812

     occupation numbers 
     1.0000   1.0000   1.0000   1.0000   1.0000   1.0000   1.0000   1.0000
     1.0000   1.0000   1.0000   1.0000   1.0000   1.0000   1.0000   1.0000
     1.0000   1.0000

          k =-0.2767-0.4150 0.5534 ( 10900 PWs)   bands (ev):

    -6.0959  -6.0822  -3.9987  -3.9861  -3.8851  -3.7435  -3.3624  -3.3400
    -3.2440  -3.2397  -3.0752  -2.9896   0.5730   0.6936   2.6599   2.8925
     3.4847   3.5759

     occupation numbers 
     1.0000   1.0000   1.0000   1.0000   1.0000   1.0000   1.0000   1.0000
     1.0000   1.0000   1.0000   1.0000   1.0000   1.0000   1.0000   1.0000
     1.0000   1.0000

          k =-0.2075-0.3458 0.4842 ( 10900 PWs)   bands (ev):

    -6.0705  -6.0549  -3.9939  -3.9881  -3.8713  -3.7172  -3.3621  -3.3400
    -3.2371  -3.2348  -3.0174  -2.9226   0.3372   0.4570   2.6008   2.8306
     3.4069   3.4933

     occupation numbers 
     1.0000   1.0000   1.0000   1.0000   1.0000   1.0000   1.0000   1.0000
     1.0000   1.0000   1.0000   1.0000   1.0000   1.0000   1.0000   1.0000
     1.0000   1.0000

          k = 0.4150 0.1383-0.0000 ( 10909 PWs)   bands (ev):

    -6.1308  -6.1223  -3.9960  -3.9751  -3.9057  -3.8050  -3.3376  -3.3300
    -3.2773  -3.2586  -3.1436  -3.1011   1.1213   1.2349   2.7441   2.9962
     3.2852   3.4322

     occupation numbers 
     1.0000   1.0000   1.0000   1.0000   1.0000   1.0000   1.0000   1.0000
     1.0000   1.0000   1.0000   1.0000   1.0000   1.0000   1.0000   1.0000
     1.0000   1.0000

          k =-0.2075-0.4842 0.6225 ( 10903 PWs)   bands (ev):

    -6.0712  -6.0559  -3.9883  -3.9650  -3.8956  -3.7315  -3.3336  -3.3247
    -3.2598  -3.2420  -3.0597  -2.9730   0.6543   0.8147   2.3827   2.6778
     3.0858   3.2280

     occupation numbers 
     1.0000   1.0000   1.0000   1.0000   1.0000   1.0000   1.0000   1.0000
     1.0000   1.0000   1.0000   1.0000   1.0000   1.0000   1.0000   1.0000
     1.0000   1.0000

          k =-0.1383-0.4150 0.5534 ( 10885 PWs)   bands (ev):

    -6.0418  -6.0217  -3.9828  -3.9617  -3.8940  -3.6903  -3.3384  -3.3246
    -3.2453  -3.2339  -2.9920  -2.8768   0.3928   0.5861   2.1380   2.4415
     3.0552   3.1609

     occupation numbers 
     1.0000   1.0000   1.0000   1.0000   1.0000   1.0000   1.0000   1.0000
     1.0000   1.0000   1.0000   1.0000   1.0000   1.0000   1.0000   1.0000
     1.0000   1.0000

          k =-0.0692-0.3458 0.4842 ( 10882 PWs)   bands (ev):

    -6.0517  -6.0314  -3.9815  -3.9672  -3.9006  -3.6942  -3.3449  -3.3255
    -3.2422  -3.2354  -3.0146  -2.8923   0.4543   0.6651   2.0708   2.3839
     3.1904   3.2867

     occupation numbers 
     1.0000   1.0000   1.0000   1.0000   1.0000   1.0000   1.0000   1.0000
     1.0000   1.0000   1.0000   1.0000   1.0000   1.0000   1.0000   1.0000
     1.0000   1.0000

          k = 0.0000-0.2767 0.4150 ( 10910 PWs)   bands (ev):

    -6.0976  -6.0817  -3.9894  -3.9776  -3.9105  -3.7410  -3.3537  -3.3297
    -3.2496  -3.2446  -3.1031  -3.0004   0.7702   0.9612   2.2969   2.5977
     3.4323   3.5346

     occupation numbers 
     1.0000   1.0000   1.0000   1.0000   1.0000   1.0000   1.0000   1.0000
     1.0000   1.0000   1.0000   1.0000   1.0000   1.0000   1.0000   1.0000
     1.0000   1.0000

          k =-0.1383-0.5534 0.6917 ( 10878 PWs)   bands (ev):

    -6.0380  -6.0254  -3.9801  -3.9600  -3.8631  -3.7313  -3.3158  -3.2968
    -3.2772  -3.2389  -3.0113  -2.9443   0.5492   0.6709   2.4154   2.6725
     2.8357   2.9699

     occupation numbers 
     1.0000   1.0000   1.0000   1.0000   1.0000   1.0000   1.0000   1.0000
     1.0000   1.0000   1.0000   1.0000   1.0000   1.0000   1.0000   1.0000
     1.0000   1.0000

          k =-0.0692-0.4842 0.6225 ( 10887 PWs)   bands (ev):

    -6.0163  -5.9968  -3.9758  -3.9482  -3.8842  -3.6860  -3.3183  -3.3054
    -3.2610  -3.2302  -2.9564  -2.8523   0.3719   0.5632   2.0928   2.3974
     2.7659   2.8607

     occupation numbers 
     1.0000   1.0000   1.0000   1.0000   1.0000   1.0000   1.0000   1.0000
     1.0000   1.0000   1.0000   1.0000   1.0000   1.0000   1.0000   1.0000
     1.0000   1.0000

          k = 0.0000-0.4150 0.5534 ( 10886 PWs)   bands (ev):

    -6.0218  -5.9991  -3.9756  -3.9441  -3.9064  -3.6727  -3.3274  -3.3166
    -3.2470  -3.2307  -2.9591  -2.8326   0.3682   0.6156   1.8708   2.2141
     2.9166   3.0032

     occupation numbers 
     1.0000   1.0000   1.0000   1.0000   1.0000   1.0000   1.0000   1.0000
     1.0000   1.0000   1.0000   1.0000   1.0000   1.0000   1.0000   1.0000
     1.0000   1.0000

          k =-0.6917 0.1383 0.0000 ( 10860 PWs)   bands (ev):

    -6.0038  -5.9895  -3.9739  -3.9545  -3.8465  -3.7052  -3.3122  -3.2810
    -3.2774  -3.2303  -2.9370  -2.8627   0.3251   0.4501   2.3066   2.5286
     2.7316   2.7628

     occupation numbers 
     1.0000   1.0000   1.0000   1.0000   1.0000   1.0000   1.0000   1.0000
     1.0000   1.0000   1.0000   1.0000   1.0000   1.0000   1.0000   1.0000
     1.0000   1.0000

          k =-0.1383-0.4150 0.6917 ( 10900 PWs)   bands (ev):

    -6.0328  -6.0118  -3.9741  -3.9548  -3.9025  -3.6856  -3.3279  -3.3157
    -3.2525  -3.2342  -2.9869  -2.8711   0.4493   0.6696   2.0533   2.4079
     2.7981   2.9497

     occupation numbers 
     1.0000   1.0000   1.0000   1.0000   1.0000   1.0000   1.0000   1.0000
     1.0000   1.0000   1.0000   1.0000   1.0000   1.0000   1.0000   1.0000
     1.0000   1.0000

          k =-0.0692-0.3458 0.6225 ( 10878 PWs)   bands (ev):

    -6.0186  -5.9951  -3.9685  -3.9479  -3.9089  -3.6683  -3.3273  -3.3123
    -3.2474  -3.2329  -2.9508  -2.8261   0.3675   0.6121   1.9500   2.3225
     2.6769   2.8039

     occupation numbers 
     1.0000   1.0000   1.0000   1.0000   1.0000   1.0000   1.0000   1.0000
     1.0000   1.0000   1.0000   1.0000   1.0000   1.0000   1.0000   1.0000
     1.0000   1.0000

          k =-0.6917 0.2767 0.0000 ( 10870 PWs)   bands (ev):

    -6.0089  -5.9858  -3.9666  -3.9441  -3.9026  -3.6669  -3.3211  -3.3034
    -3.2552  -3.2305  -2.9334  -2.8154   0.3438   0.5747   2.0331   2.4507
     2.5318   2.5370

     occupation numbers 
     1.0000   1.0000   1.0000   1.0000   1.0000   1.0000   1.0000   1.0000
     1.0000   1.0000   1.0000   1.0000   1.0000   1.0000   1.0000   1.0000
     1.0000   1.0000

     highest occupied level (ev):     4.6455

!    total energy              =    -128.98271144 Ry
     estimated scf accuracy    <          9.6E-13 Ry

     The total energy is the sum of the following terms:
     one-electron contribution =     -51.34782383 Ry
     hartree contribution      =      36.95656399 Ry
     xc contribution           =     -39.46405785 Ry
     ewald contribution        =     -75.12739375 Ry

     convergence has been achieved in  49 iterations

     Forces acting on atoms (cartesian axes, Ry/au):

     atom    1 type  1   force =    -0.00000000    0.00000000   -0.00000000
     atom    2 type  2   force =     0.00000000   -0.00000000    0.00000000
     The non-local contrib.  to forces
     atom    1 type  1   force =     0.00000000    0.00000000    0.00000000
     atom    2 type  2   force =     0.00000000   -0.00000000   -0.00000000
     The ionic contribution  to forces
     atom    1 type  1   force =     0.00000000    0.00000000   -0.00000000
     atom    2 type  2   force =    -0.00000000   -0.00000000    0.00000000
     The local contribution  to forces
     atom    1 type  1   force =     0.00000000   -0.00000000   -0.00000000
     atom    2 type  2   force =     0.00000000    0.00000000   -0.00000000
     The core correction contribution to forces
     atom    1 type  1   force =     0.00000000   -0.00000000   -0.00000000
     atom    2 type  2   force =    -0.00000000    0.00000000    0.00000000
     The Hubbard contrib.    to forces
     atom    1 type  1   force =     0.00000000    0.00000000    0.00000000
     atom    2 type  2   force =     0.00000000    0.00000000    0.00000000
     The SCF correction term to forces
     atom    1 type  1   force =     0.00000000    0.00000000   -0.00000000
     atom    2 type  2   force =    -0.00000000   -0.00000000   -0.00000000

     Total force =     0.000000     Total SCF correction =     0.000000


     Computing stress (Cartesian axis) and pressure

          total   stress  (Ry/bohr**3)                   (kbar)     P=        0.03
   0.00000023  -0.00000000   0.00000000            0.03       -0.00        0.00
  -0.00000000   0.00000023  -0.00000000           -0.00        0.03       -0.00
   0.00000000  -0.00000000   0.00000023            0.00       -0.00        0.03

     kinetic stress (kbar)   8971.62      0.00      0.00
                                0.00   8971.62      0.00
                                0.00      0.00   8971.62

     local   stress (kbar)    419.20      0.00     -0.00
                                0.00    419.20     -0.00
                               -0.00     -0.00    419.20

     nonloc. stress (kbar)  -3385.44      0.00     -0.00
                                0.00  -3385.44      0.00
                               -0.00      0.00  -3385.44

     hartree stress (kbar)   3691.69     -0.00      0.00
                               -0.00   3691.69     -0.00
                                0.00     -0.00   3691.69

     exc-cor stress (kbar)   4206.88     -0.00      0.00
                               -0.00   4206.88     -0.00
                                0.00     -0.00   4206.88

     corecor stress (kbar)  -6399.25     -0.00      0.00
                               -0.00  -6399.25     -0.00
                                0.00     -0.00  -6399.25

     ewald   stress (kbar)  -7504.67     -0.00      0.00
                               -0.00  -7504.67      0.00
                                0.00      0.00  -7504.67

     hubbard stress (kbar)      0.00      0.00      0.00
                                0.00      0.00      0.00
                                0.00      0.00      0.00

     DFT-D   stress (kbar)      0.00      0.00      0.00
                                0.00      0.00      0.00
                                0.00      0.00      0.00

     XDM     stress (kbar)      0.00      0.00      0.00
                                0.00      0.00      0.00
                                0.00      0.00      0.00

     dft-nl  stress (kbar)      0.00      0.00      0.00
                                0.00      0.00      0.00
                                0.00      0.00      0.00

     TS-vdW  stress (kbar)      0.00      0.00      0.00
                                0.00      0.00      0.00
                                0.00      0.00      0.00

     MDB     stress (kbar)      0.00      0.00      0.00
                                0.00      0.00      0.00
                                0.00      0.00      0.00

     3D-RISM stress (kbar)      0.00      0.00      0.00
                                0.00      0.00      0.00
                                0.00      0.00      0.00


     Writing all to output data dir /home/User/opencode_workspace/DFT/calculations/cdte/relax_soc/out/pwscf.save/ :
     XML data file, charge density, pseudopotentials, collected wavefunctions

     init_run     :      7.40s CPU     11.42s WALL (       2 calls)
     electrons    :   1434.75s CPU   1684.56s WALL (       7 calls)
     update_pot   :      0.24s CPU      0.28s WALL (       5 calls)
     forces       :      6.40s CPU      8.75s WALL (       7 calls)
     stress       :     40.73s CPU     47.62s WALL (       7 calls)

     Called by init_run:
     wfcinit      :      4.75s CPU      5.20s WALL (       2 calls)
     wfcinit:atom :      0.06s CPU      0.06s WALL (      94 calls)
     wfcinit:wfcr :      4.28s CPU      4.72s WALL (      94 calls)
     potinit      :      0.29s CPU      0.32s WALL (       2 calls)
     hinit0       :      1.14s CPU      1.21s WALL (       2 calls)

     Called by electrons:
     c_bands      :   1099.14s CPU   1206.82s WALL (     195 calls)
     sum_band     :    242.66s CPU    324.80s WALL (     195 calls)
     v_of_rho     :      5.32s CPU      5.74s WALL (     197 calls)
     v_h          :      0.28s CPU      0.34s WALL (     197 calls)
     v_xc         :      5.48s CPU      5.96s WALL (     211 calls)
     newd         :     84.46s CPU    148.30s WALL (     197 calls)
     mix_rho      :      3.51s CPU      3.92s WALL (     195 calls)

     Called by c_bands:
     init_us_2    :     14.28s CPU     14.65s WALL (   19082 calls)
     cegterg      :    968.68s CPU   1075.70s WALL (    9165 calls)

     Called by sum_band:
     sum_band:wei :      0.00s CPU      0.00s WALL (     195 calls)
     sum_band:loo :    148.97s CPU    166.01s WALL (     195 calls)
     sum_band:buf :      0.85s CPU      0.88s WALL (    9165 calls)
     sum_band:ini :      7.18s CPU      7.30s WALL (    9165 calls)
     sum_band:cal :     12.00s CPU     13.01s WALL (    9165 calls)
     sum_band:bec :     10.91s CPU     11.03s WALL (    9165 calls)
     addusdens    :     83.53s CPU    148.18s WALL (     195 calls)
                                        0.00s GPU  (     195 calls)
     addusd:skk   :      0.03s CPU      0.03s WALL (     390 calls)
                                        0.00s GPU  (     390 calls)

     Called by *egterg:
     cdiaghg      :     14.87s CPU     15.15s WALL (   44848 calls)
     cegterg:over :     43.52s CPU     44.88s WALL (   36153 calls)
     cegterg:upda :     15.75s CPU     16.02s WALL (   36153 calls)
     cegterg:last :     31.63s CPU     31.90s WALL (   24953 calls)
     h_psi        :    805.21s CPU    909.49s WALL (   45412 calls)
     s_psi        :     29.16s CPU     29.68s WALL (   45412 calls)
     g_psi        :      7.16s CPU      7.28s WALL (   36153 calls)

     Called by h_psi:
     h_psi:calbec :     43.07s CPU     47.12s WALL (   45412 calls)
     vloc_psi     :    728.59s CPU    828.14s WALL (   45412 calls)
                                        0.00s GPU  (   45412 calls)
     add_vuspsi   :     30.31s CPU     30.96s WALL (   45412 calls)

     General routines
     calbec       :     61.95s CPU     67.43s WALL (   60170 calls)
     fft          :      6.20s CPU      7.35s WALL (    5048 calls)
     ffts         :      1.00s CPU      1.16s WALL (    1568 calls)
     fftw         :    772.75s CPU    878.56s WALL ( 2510564 calls)
     interpolate  :      1.58s CPU      1.83s WALL (     788 calls)

     Parallel routines

     PWSCF        :  24m52.26s CPU  29m17.95s WALL


   This run was terminated on:  21:22:22  22Sep2026            

=------------------------------------------------------------------------------=
   JOB DONE.
=------------------------------------------------------------------------------=
