
     Program PWSCF v.7.5 starts on 22Sep2026 at 19:18:29 

     This program is part of the open-source Quantum ESPRESSO suite
     for quantum simulation of materials; please cite
         "P. Giannozzi et al., J. Phys.:Condens. Matter 21 395502 (2009);
         "P. Giannozzi et al., J. Phys.:Condens. Matter 29 465901 (2017);
         "P. Giannozzi et al., J. Chem. Phys. 152 154105 (2020);
          URL http://www.quantum-espresso.org", 
     in publications or presentations arising from this work. More details at
     http://www.quantum-espresso.org/quote

     Parallel version (MPI & OpenMP), running on       6 processor cores
     Number of MPI processes:                 6
     Threads/MPI process:                     1

     MPI processes distributed on     1 nodes
     1389 MiB available memory on the printing compute node when the environment starts

     Reading input from pw.in

     Current dimensions of program PWSCF are:
     Max number of different atomic species (ntypx) = 10
     Max number of k-points (npk) =  40000
     Max angular momentum in pseudopotentials (lmaxx) =  4
     file Hg.pbe-spn-rrkjus_psl.1.0.0.UPF: wavefunction(s)  5P renormalized
     file Te.pbe-n-rrkjus_psl.1.0.0.UPF: wavefunction(s)  5S renormalized

     Atomic positions and unit cell read from directory:
     /home/User/opencode_workspace/DFT/calculations/hgte/conv_nscf_k10/out/pwscf.save/

     Message from routine setup:
     using ibrav=0 with symmetry is DISCOURAGED, use correct ibrav instead

     R & G space division:  proc/nbgrp/npool/nimage =       6
     Subspace diagonalization in iterative solution of the eigenvalue problem:
     a serial algorithm will be used


     Parallelization info
     --------------------
     sticks:   dense  smooth     PW     G-vecs:    dense   smooth      PW
     Min         408     273     79                13390     7315    1142
     Max         410     274     80                13393     7319    1145
     Sum        2455    1639    475                80347    43895    6855

     Using Slab Decomposition



     bravais-lattice index     =            0
     lattice parameter (alat)  =       8.6227  a.u.
     unit-cell volume          =     453.3375 (a.u.)^3
     number of atoms/cell      =            2
     number of atomic types    =            2
     number of electrons       =        26.00
     number of Kohn-Sham states=           17
     kinetic-energy cutoff     =      80.0000  Ry
     charge density cutoff     =     480.0000  Ry
     Exchange-correlation= PBE
                           (   1   4   3   4   0   0   0)

     celldm(1)=   8.622745  celldm(2)=   0.000000  celldm(3)=   0.000000
     celldm(4)=   0.000000  celldm(5)=   0.000000  celldm(6)=   0.000000

     crystal axes: (cart. coord. in units of alat)
               a(1) = (   0.000000   0.707107   0.707107 )  
               a(2) = (   0.707107   0.000000   0.707107 )  
               a(3) = (   0.707107   0.707107   0.000000 )  

     reciprocal axes: (cart. coord. in units 2 pi/alat)
               b(1) = ( -0.707107  0.707107  0.707107 )  
               b(2) = (  0.707107 -0.707107  0.707107 )  
               b(3) = (  0.707107  0.707107 -0.707107 )  


     PseudoPot. # 1 for Hg read from file:
     /home/User/opencode_workspace/DFT/pseudopotentials/Hg.pbe-spn-rrkjus_psl.1.0.0.UPF
     MD5 check sum: f568566075d917e14d67c96ef6763253
     Pseudo is Ultrasoft + core correction, Zval = 20.0
     Generated using &quot;atomic&quot; code by A. Dal Corso  v.6.3
     Using radial grid of 1279 points,  6 beta functions with: 
                l(1) =   0
                l(2) =   0
                l(3) =   1
                l(4) =   1
                l(5) =   2
                l(6) =   2
     Q(r) pseudized with 0 coefficients 


     PseudoPot. # 2 for Te read from file:
     /home/User/opencode_workspace/DFT/pseudopotentials/Te.pbe-n-rrkjus_psl.1.0.0.UPF
     MD5 check sum: 203a1e86ef55f0cd9de2762a27c58f54
     Pseudo is Ultrasoft + core correction, Zval =  6.0
     Generated using &quot;atomic&quot; code by A. Dal Corso  v.6.3
     Using radial grid of 1245 points,  6 beta functions with: 
                l(1) =   0
                l(2) =   0
                l(3) =   1
                l(4) =   1
                l(5) =   2
                l(6) =   2
     Q(r) pseudized with 0 coefficients 


     atomic species   valence    mass     pseudopotential
     Hg               20.00   200.59200     Hg( 1.00)
     Te                6.00   127.60000     Te( 1.00)

     24 Sym. Ops. (no inversion) found


                                    s                        frac. trans.

      isym =  1     identity                                     

 cryst.   s( 1) = (     1          0          0      )
                  (     0          1          0      )
                  (     0          0          1      )

 cart.    s( 1) = (  1.0000000  0.0000000  0.0000000 )
                  (  0.0000000  1.0000000  0.0000000 )
                  (  0.0000000  0.0000000  1.0000000 )


      isym =  2     180 deg rotation - cart. axis [0,0,1]        

 cryst.   s( 2) = (     0          1         -1      )
                  (     1          0         -1      )
                  (     0          0         -1      )

 cart.    s( 2) = ( -1.0000000  0.0000000  0.0000000 )
                  (  0.0000000 -1.0000000  0.0000000 )
                  (  0.0000000  0.0000000  1.0000000 )


      isym =  3     180 deg rotation - cart. axis [0,1,0]        

 cryst.   s( 3) = (     0         -1          1      )
                  (     0         -1          0      )
                  (     1         -1          0      )

 cart.    s( 3) = ( -1.0000000  0.0000000  0.0000000 )
                  (  0.0000000  1.0000000  0.0000000 )
                  (  0.0000000  0.0000000 -1.0000000 )


      isym =  4     180 deg rotation - cart. axis [1,0,0]        

 cryst.   s( 4) = (    -1          0          0      )
                  (    -1          0          1      )
                  (    -1          1          0      )

 cart.    s( 4) = (  1.0000000  0.0000000  0.0000000 )
                  (  0.0000000 -1.0000000  0.0000000 )
                  (  0.0000000  0.0000000 -1.0000000 )


      isym =  5     120 deg rotation - cart. axis [-1,-1,-1]     

 cryst.   s( 5) = (     0          0          1      )
                  (     1          0          0      )
                  (     0          1          0      )

 cart.    s( 5) = (  0.0000000  1.0000000  0.0000000 )
                  (  0.0000000  0.0000000  1.0000000 )
                  (  1.0000000  0.0000000  0.0000000 )


      isym =  6     120 deg rotation - cart. axis [-1,1,1]       

 cryst.   s( 6) = (     1         -1          0      )
                  (     0         -1          1      )
                  (     0         -1          0      )

 cart.    s( 6) = (  0.0000000 -1.0000000  0.0000000 )
                  (  0.0000000  0.0000000  1.0000000 )
                  ( -1.0000000  0.0000000  0.0000000 )


      isym =  7     120 deg rotation - cart. axis [1,1,-1]       

 cryst.   s( 7) = (    -1          1          0      )
                  (    -1          0          0      )
                  (    -1          0          1      )

 cart.    s( 7) = (  0.0000000  1.0000000  0.0000000 )
                  (  0.0000000  0.0000000 -1.0000000 )
                  ( -1.0000000  0.0000000  0.0000000 )


      isym =  8     120 deg rotation - cart. axis [1,-1,1]       

 cryst.   s( 8) = (     0          0         -1      )
                  (     0          1         -1      )
                  (     1          0         -1      )

 cart.    s( 8) = (  0.0000000 -1.0000000  0.0000000 )
                  (  0.0000000  0.0000000 -1.0000000 )
                  (  1.0000000  0.0000000  0.0000000 )


      isym =  9     120 deg rotation - cart. axis [1,1,1]        

 cryst.   s( 9) = (     0          1          0      )
                  (     0          0          1      )
                  (     1          0          0      )

 cart.    s( 9) = (  0.0000000  0.0000000  1.0000000 )
                  (  1.0000000  0.0000000  0.0000000 )
                  (  0.0000000  1.0000000  0.0000000 )


      isym = 10     120 deg rotation - cart. axis [-1,1,-1]      

 cryst.   s(10) = (    -1          0          1      )
                  (    -1          1          0      )
                  (    -1          0          0      )

 cart.    s(10) = (  0.0000000  0.0000000  1.0000000 )
                  ( -1.0000000  0.0000000  0.0000000 )
                  (  0.0000000 -1.0000000  0.0000000 )


      isym = 11     120 deg rotation - cart. axis [1,-1,-1]      

 cryst.   s(11) = (     1          0         -1      )
                  (     0          0         -1      )
                  (     0          1         -1      )

 cart.    s(11) = (  0.0000000  0.0000000 -1.0000000 )
                  ( -1.0000000  0.0000000  0.0000000 )
                  (  0.0000000  1.0000000  0.0000000 )


      isym = 12     120 deg rotation - cart. axis [-1,-1,1]      

 cryst.   s(12) = (     0         -1          0      )
                  (     1         -1          0      )
                  (     0         -1          1      )

 cart.    s(12) = (  0.0000000  0.0000000 -1.0000000 )
                  (  1.0000000  0.0000000  0.0000000 )
                  (  0.0000000 -1.0000000  0.0000000 )


      isym = 13     inv. 180 deg rotation - cart. axis [1,1,0]   

 cryst.   s(13) = (     1          0         -1      )
                  (     0          1         -1      )
                  (     0          0         -1      )

 cart.    s(13) = (  0.0000000 -1.0000000  0.0000000 )
                  ( -1.0000000  0.0000000  0.0000000 )
                  (  0.0000000  0.0000000  1.0000000 )


      isym = 14     inv. 180 deg rotation - cart. axis [1,-1,0]  

 cryst.   s(14) = (     0          1          0      )
                  (     1          0          0      )
                  (     0          0          1      )

 cart.    s(14) = (  0.0000000  1.0000000  0.0000000 )
                  (  1.0000000  0.0000000  0.0000000 )
                  (  0.0000000  0.0000000  1.0000000 )


      isym = 15     inv.  90 deg rotation - cart. axis [0,0,-1]  

 cryst.   s(15) = (     0         -1          0      )
                  (     0         -1          1      )
                  (     1         -1          0      )

 cart.    s(15) = (  0.0000000 -1.0000000  0.0000000 )
                  (  1.0000000  0.0000000  0.0000000 )
                  (  0.0000000  0.0000000 -1.0000000 )


      isym = 16     inv.  90 deg rotation - cart. axis [0,0,1]   

 cryst.   s(16) = (    -1          0          1      )
                  (    -1          0          0      )
                  (    -1          1          0      )

 cart.    s(16) = (  0.0000000  1.0000000  0.0000000 )
                  ( -1.0000000  0.0000000  0.0000000 )
                  (  0.0000000  0.0000000 -1.0000000 )


      isym = 17     inv. 180 deg rotation - cart. axis [1,0,1]   

 cryst.   s(17) = (     1         -1          0      )
                  (     0         -1          0      )
                  (     0         -1          1      )

 cart.    s(17) = (  0.0000000  0.0000000 -1.0000000 )
                  (  0.0000000  1.0000000  0.0000000 )
                  ( -1.0000000  0.0000000  0.0000000 )


      isym = 18     inv. 180 deg rotation - cart. axis [-1,0,1]  

 cryst.   s(18) = (     0          0          1      )
                  (     0          1          0      )
                  (     1          0          0      )

 cart.    s(18) = (  0.0000000  0.0000000  1.0000000 )
                  (  0.0000000  1.0000000  0.0000000 )
                  (  1.0000000  0.0000000  0.0000000 )


      isym = 19     inv.  90 deg rotation - cart. axis [0,1,0]   

 cryst.   s(19) = (     0          0         -1      )
                  (     1          0         -1      )
                  (     0          1         -1      )

 cart.    s(19) = (  0.0000000  0.0000000 -1.0000000 )
                  (  0.0000000 -1.0000000  0.0000000 )
                  (  1.0000000  0.0000000  0.0000000 )


      isym = 20     inv.  90 deg rotation - cart. axis [0,-1,0]  

 cryst.   s(20) = (    -1          1          0      )
                  (    -1          0          1      )
                  (    -1          0          0      )

 cart.    s(20) = (  0.0000000  0.0000000  1.0000000 )
                  (  0.0000000 -1.0000000  0.0000000 )
                  ( -1.0000000  0.0000000  0.0000000 )


      isym = 21     inv. 180 deg rotation - cart. axis [0,1,1]   

 cryst.   s(21) = (    -1          0          0      )
                  (    -1          1          0      )
                  (    -1          0          1      )

 cart.    s(21) = (  1.0000000  0.0000000  0.0000000 )
                  (  0.0000000  0.0000000 -1.0000000 )
                  (  0.0000000 -1.0000000  0.0000000 )


      isym = 22     inv. 180 deg rotation - cart. axis [0,1,-1]  

 cryst.   s(22) = (     1          0          0      )
                  (     0          0          1      )
                  (     0          1          0      )

 cart.    s(22) = (  1.0000000  0.0000000  0.0000000 )
                  (  0.0000000  0.0000000  1.0000000 )
                  (  0.0000000  1.0000000  0.0000000 )


      isym = 23     inv.  90 deg rotation - cart. axis [-1,0,0]  

 cryst.   s(23) = (     0          1         -1      )
                  (     0          0         -1      )
                  (     1          0         -1      )

 cart.    s(23) = ( -1.0000000  0.0000000  0.0000000 )
                  (  0.0000000  0.0000000 -1.0000000 )
                  (  0.0000000  1.0000000  0.0000000 )


      isym = 24     inv.  90 deg rotation - cart. axis [1,0,0]   

 cryst.   s(24) = (     0         -1          1      )
                  (     1         -1          0      )
                  (     0         -1          0      )

 cart.    s(24) = ( -1.0000000  0.0000000  0.0000000 )
                  (  0.0000000  0.0000000  1.0000000 )
                  (  0.0000000 -1.0000000  0.0000000 )


   Cartesian axes

     site n.     atom                  positions (alat units)
         1        Hg     tau(   1) = (   0.0000000   0.0000000   0.0000000  )
         2        Te     tau(   2) = (   0.3535534   0.3535534   0.3535534  )

   Crystallographic axes

     site n.     atom                  positions (cryst. coord.)
         1        Hg     tau(   1) = (  0.0000000  0.0000000  0.0000000  )
         2        Te     tau(   2) = (  0.2500000  0.2500000  0.2500000  )

     number of k points=    47 (tetrahedron method)
                       cart. coord. in units 2pi/alat
        k(    1) = (   0.0000000   0.0000000   0.0000000), wk =   0.0020000
        k(    2) = (   0.0707107   0.0707107  -0.0707107), wk =   0.0160000
        k(    3) = (   0.1414214   0.1414214  -0.1414214), wk =   0.0160000
        k(    4) = (   0.2121320   0.2121320  -0.2121320), wk =   0.0160000
        k(    5) = (   0.2828427   0.2828427  -0.2828427), wk =   0.0160000
        k(    6) = (  -0.3535534  -0.3535534   0.3535534), wk =   0.0080000
        k(    7) = (   0.1414214   0.0000000   0.0000000), wk =   0.0120000
        k(    8) = (   0.2121320   0.0707107  -0.0707107), wk =   0.0480000
        k(    9) = (   0.2828427   0.1414214  -0.1414214), wk =   0.0480000
        k(   10) = (   0.3535534   0.2121320  -0.2121320), wk =   0.0480000
        k(   11) = (  -0.2828427  -0.4242641   0.4242641), wk =   0.0480000
        k(   12) = (  -0.2121320  -0.3535534   0.3535534), wk =   0.0480000
        k(   13) = (  -0.1414214  -0.2828427   0.2828427), wk =   0.0480000
        k(   14) = (  -0.0707107  -0.2121320   0.2121320), wk =   0.0480000
        k(   15) = (   0.0000000  -0.1414214   0.1414214), wk =   0.0240000
        k(   16) = (   0.2828427   0.0000000   0.0000000), wk =   0.0120000
        k(   17) = (   0.3535534   0.0707107  -0.0707107), wk =   0.0480000
        k(   18) = (   0.4242641   0.1414214  -0.1414214), wk =   0.0480000
        k(   19) = (  -0.2121320  -0.4949747   0.4949747), wk =   0.0480000
        k(   20) = (  -0.1414214  -0.4242641   0.4242641), wk =   0.0480000
        k(   21) = (  -0.0707107  -0.3535534   0.3535534), wk =   0.0480000
        k(   22) = (   0.0000000  -0.2828427   0.2828427), wk =   0.0240000
        k(   23) = (   0.4242641   0.0000000   0.0000000), wk =   0.0120000
        k(   24) = (   0.4949747   0.0707107  -0.0707107), wk =   0.0480000
        k(   25) = (  -0.1414214  -0.5656854   0.5656854), wk =   0.0480000
        k(   26) = (  -0.0707107  -0.4949747   0.4949747), wk =   0.0480000
        k(   27) = (  -0.0000000  -0.4242641   0.4242641), wk =   0.0240000
        k(   28) = (   0.5656854   0.0000000   0.0000000), wk =   0.0120000
        k(   29) = (  -0.0707107  -0.6363961   0.6363961), wk =   0.0480000
        k(   30) = (   0.0000000  -0.5656854   0.5656854), wk =   0.0240000
        k(   31) = (  -0.7071068   0.0000000   0.0000000), wk =   0.0060000
        k(   32) = (   0.2828427   0.1414214   0.0000000), wk =   0.0480000
        k(   33) = (   0.3535534   0.2121320  -0.0707107), wk =   0.0960000
        k(   34) = (  -0.2828427  -0.4242641   0.5656854), wk =   0.0960000
        k(   35) = (  -0.2121320  -0.3535534   0.4949747), wk =   0.0480000
        k(   36) = (   0.4242641   0.1414214  -0.0000000), wk =   0.0480000
        k(   37) = (  -0.2121320  -0.4949747   0.6363961), wk =   0.0960000
        k(   38) = (  -0.1414214  -0.4242641   0.5656854), wk =   0.0960000
        k(   39) = (  -0.0707107  -0.3535534   0.4949747), wk =   0.0960000
        k(   40) = (   0.0000000  -0.2828427   0.4242641), wk =   0.0480000
        k(   41) = (  -0.1414214  -0.5656854   0.7071068), wk =   0.0480000
        k(   42) = (  -0.0707107  -0.4949747   0.6363961), wk =   0.0960000
        k(   43) = (   0.0000000  -0.4242641   0.5656854), wk =   0.0480000
        k(   44) = (  -0.7071068   0.1414214   0.0000000), wk =   0.0240000
        k(   45) = (  -0.1414214  -0.4242641   0.7071068), wk =   0.0480000
        k(   46) = (  -0.0707107  -0.3535534   0.6363961), wk =   0.0480000
        k(   47) = (  -0.7071068   0.2828427   0.0000000), wk =   0.0240000

                       cryst. coord.
        k(    1) = (   0.0000000   0.0000000   0.0000000), wk =   0.0020000
        k(    2) = (   0.0000000   0.0000000   0.1000000), wk =   0.0160000
        k(    3) = (   0.0000000   0.0000000   0.2000000), wk =   0.0160000
        k(    4) = (   0.0000000   0.0000000   0.3000000), wk =   0.0160000
        k(    5) = (   0.0000000   0.0000000   0.4000000), wk =   0.0160000
        k(    6) = (   0.0000000   0.0000000  -0.5000000), wk =   0.0080000
        k(    7) = (   0.0000000   0.1000000   0.1000000), wk =   0.0120000
        k(    8) = (   0.0000000   0.1000000   0.2000000), wk =   0.0480000
        k(    9) = (   0.0000000   0.1000000   0.3000000), wk =   0.0480000
        k(   10) = (   0.0000000   0.1000000   0.4000000), wk =   0.0480000
        k(   11) = (   0.0000000   0.1000000  -0.5000000), wk =   0.0480000
        k(   12) = (   0.0000000   0.1000000  -0.4000000), wk =   0.0480000
        k(   13) = (   0.0000000   0.1000000  -0.3000000), wk =   0.0480000
        k(   14) = (   0.0000000   0.1000000  -0.2000000), wk =   0.0480000
        k(   15) = (   0.0000000   0.1000000  -0.1000000), wk =   0.0240000
        k(   16) = (   0.0000000   0.2000000   0.2000000), wk =   0.0120000
        k(   17) = (   0.0000000   0.2000000   0.3000000), wk =   0.0480000
        k(   18) = (   0.0000000   0.2000000   0.4000000), wk =   0.0480000
        k(   19) = (   0.0000000   0.2000000  -0.5000000), wk =   0.0480000
        k(   20) = (   0.0000000   0.2000000  -0.4000000), wk =   0.0480000
        k(   21) = (   0.0000000   0.2000000  -0.3000000), wk =   0.0480000
        k(   22) = (   0.0000000   0.2000000  -0.2000000), wk =   0.0240000
        k(   23) = (   0.0000000   0.3000000   0.3000000), wk =   0.0120000
        k(   24) = (   0.0000000   0.3000000   0.4000000), wk =   0.0480000
        k(   25) = (   0.0000000   0.3000000  -0.5000000), wk =   0.0480000
        k(   26) = (   0.0000000   0.3000000  -0.4000000), wk =   0.0480000
        k(   27) = (   0.0000000   0.3000000  -0.3000000), wk =   0.0240000
        k(   28) = (   0.0000000   0.4000000   0.4000000), wk =   0.0120000
        k(   29) = (   0.0000000   0.4000000  -0.5000000), wk =   0.0480000
        k(   30) = (   0.0000000   0.4000000  -0.4000000), wk =   0.0240000
        k(   31) = (   0.0000000  -0.5000000  -0.5000000), wk =   0.0060000
        k(   32) = (   0.1000000   0.2000000   0.3000000), wk =   0.0480000
        k(   33) = (   0.1000000   0.2000000   0.4000000), wk =   0.0960000
        k(   34) = (   0.1000000   0.2000000  -0.5000000), wk =   0.0960000
        k(   35) = (   0.1000000   0.2000000  -0.4000000), wk =   0.0480000
        k(   36) = (   0.1000000   0.3000000   0.4000000), wk =   0.0480000
        k(   37) = (   0.1000000   0.3000000  -0.5000000), wk =   0.0960000
        k(   38) = (   0.1000000   0.3000000  -0.4000000), wk =   0.0960000
        k(   39) = (   0.1000000   0.3000000  -0.3000000), wk =   0.0960000
        k(   40) = (   0.1000000   0.3000000  -0.2000000), wk =   0.0480000
        k(   41) = (   0.1000000   0.4000000  -0.5000000), wk =   0.0480000
        k(   42) = (   0.1000000   0.4000000  -0.4000000), wk =   0.0960000
        k(   43) = (   0.1000000   0.4000000  -0.3000000), wk =   0.0480000
        k(   44) = (   0.1000000  -0.5000000  -0.4000000), wk =   0.0240000
        k(   45) = (   0.2000000   0.4000000  -0.4000000), wk =   0.0480000
        k(   46) = (   0.2000000   0.4000000  -0.3000000), wk =   0.0480000
        k(   47) = (   0.2000000  -0.5000000  -0.3000000), wk =   0.0240000

     Dense  grid:    80347 G-vectors     FFT dimensions: (  64,  64,  64)

     Smooth grid:    43895 G-vectors     FFT dimensions: (  50,  50,  50)

     Dynamical RAM for                 wfc:       0.24 MB

     Dynamical RAM for     wfc (w. buffer):       0.24 MB

     Dynamical RAM for           str. fact:       0.41 MB

     Dynamical RAM for           local pot:       0.00 MB

     Dynamical RAM for          nlocal pot:       0.50 MB

     Dynamical RAM for                qrad:       3.52 MB

     Dynamical RAM for          rho,v,vnew:       1.64 MB

     Dynamical RAM for           G-vectors:       0.82 MB

     Dynamical RAM for          h,s,v(r/c):       0.05 MB

     Dynamical RAM for          <psi|beta>:       0.01 MB

     Dynamical RAM for                 psi:       0.47 MB

     Dynamical RAM for                hpsi:       0.47 MB

     Dynamical RAM for                spsi:       0.47 MB

     Dynamical RAM for      wfcinit/wfcrot:       0.48 MB

     Dynamical RAM for           addusdens:      38.22 MB

     Estimated static dynamical RAM per process >       9.46 MB

     Estimated max dynamical RAM per process >      47.68 MB

     Estimated total dynamical RAM >     286.06 MB

     The potential is recalculated from file :
     /home/User/opencode_workspace/DFT/calculations/hgte/conv_nscf_k10/out/pwscf.save/charge-density

     Starting wfcs are   14 randomized atomic wfcs +    3 random wfcs

     Band Structure Calculation
     Davidson diagonalization with overlap

     Computing kpt #:     1  of    47
     total cpu time spent up to now is        1.4 secs

     Computing kpt #:     2  of    47
     total cpu time spent up to now is        1.8 secs

     Computing kpt #:     3  of    47
     total cpu time spent up to now is        2.1 secs

     Computing kpt #:     4  of    47
     total cpu time spent up to now is        2.4 secs

     Computing kpt #:     5  of    47
     total cpu time spent up to now is        2.6 secs

     Computing kpt #:     6  of    47
     total cpu time spent up to now is        2.9 secs

     Computing kpt #:     7  of    47
     total cpu time spent up to now is        3.1 secs

     Computing kpt #:     8  of    47
     total cpu time spent up to now is        3.5 secs

     Computing kpt #:     9  of    47
     total cpu time spent up to now is        3.8 secs

     Computing kpt #:    10  of    47
     total cpu time spent up to now is        4.1 secs

     Computing kpt #:    11  of    47
     total cpu time spent up to now is        4.4 secs

     Computing kpt #:    12  of    47
     total cpu time spent up to now is        4.7 secs

     Computing kpt #:    13  of    47
     total cpu time spent up to now is        4.9 secs

     Computing kpt #:    14  of    47
     total cpu time spent up to now is        5.2 secs

     Computing kpt #:    15  of    47
     total cpu time spent up to now is        5.5 secs

     Computing kpt #:    16  of    47
     total cpu time spent up to now is        5.8 secs

     Computing kpt #:    17  of    47
     total cpu time spent up to now is        6.1 secs

     Computing kpt #:    18  of    47
     total cpu time spent up to now is        6.5 secs

     Computing kpt #:    19  of    47
     total cpu time spent up to now is        6.9 secs

     Computing kpt #:    20  of    47
     total cpu time spent up to now is        7.2 secs

     Computing kpt #:    21  of    47
     total cpu time spent up to now is        7.5 secs

     Computing kpt #:    22  of    47
     total cpu time spent up to now is        7.7 secs

     Computing kpt #:    23  of    47
     total cpu time spent up to now is        8.1 secs

     Computing kpt #:    24  of    47
     total cpu time spent up to now is        8.4 secs

     Computing kpt #:    25  of    47
     total cpu time spent up to now is        8.8 secs

     Computing kpt #:    26  of    47
     total cpu time spent up to now is        9.4 secs

     Computing kpt #:    27  of    47
     total cpu time spent up to now is        9.7 secs

     Computing kpt #:    28  of    47
     total cpu time spent up to now is       10.0 secs

     Computing kpt #:    29  of    47
     total cpu time spent up to now is       10.4 secs

     Computing kpt #:    30  of    47
     total cpu time spent up to now is       10.8 secs

     Computing kpt #:    31  of    47
     total cpu time spent up to now is       11.1 secs

     Computing kpt #:    32  of    47
     total cpu time spent up to now is       11.5 secs

     Computing kpt #:    33  of    47
     total cpu time spent up to now is       11.8 secs

     Computing kpt #:    34  of    47
     total cpu time spent up to now is       12.2 secs

     Computing kpt #:    35  of    47
     total cpu time spent up to now is       12.5 secs

     Computing kpt #:    36  of    47
     total cpu time spent up to now is       12.9 secs

     Computing kpt #:    37  of    47
     total cpu time spent up to now is       13.2 secs

     Computing kpt #:    38  of    47
     total cpu time spent up to now is       13.6 secs

     Computing kpt #:    39  of    47
     total cpu time spent up to now is       13.9 secs

     Computing kpt #:    40  of    47
     total cpu time spent up to now is       14.2 secs

     Computing kpt #:    41  of    47
     total cpu time spent up to now is       14.6 secs

     Computing kpt #:    42  of    47
     total cpu time spent up to now is       15.0 secs

     Computing kpt #:    43  of    47
     total cpu time spent up to now is       15.4 secs

     Computing kpt #:    44  of    47
     total cpu time spent up to now is       15.8 secs

     Computing kpt #:    45  of    47
     total cpu time spent up to now is       16.1 secs

     Computing kpt #:    46  of    47
     total cpu time spent up to now is       16.4 secs

     Computing kpt #:    47  of    47
     total cpu time spent up to now is       16.7 secs

     ethr =  3.85E-13,  avg # of iterations = 39.7

     total cpu time spent up to now is       16.8 secs

     End of band structure calculation

          k = 0.0000 0.0000 0.0000 (  5577 PWs)   bands (ev):

  -107.6601 -55.9878 -55.9878 -55.9878  -4.5636   0.0905   0.0905   0.0905
     0.6271   0.6271   6.7455   7.4606   7.4606   7.4606  11.6935  11.6935
    11.6935

     occupation numbers 
     1.0000   1.0000   1.0000   1.0000   1.0000   1.0000   1.0000   1.0000
     1.0000   1.0000   1.0000   1.0000   1.0000   0.0000   0.0000   0.0000
     0.0000

          k = 0.0707 0.0707-0.0707 (  5495 PWs)   bands (ev):

  -107.6600 -55.9877 -55.9877 -55.9876  -4.5129   0.1048   0.1048   0.1080
     0.6257   0.6257   5.9086   7.3435   7.3435   8.0028  11.5996  11.8512
    11.8512

     occupation numbers 
     1.0000   1.0000   1.0000   1.0000   1.0000   1.0000   1.0000   1.0000
     1.0000   1.0000   1.0000   1.0000   1.0000   0.0000   0.0000   0.0000
     0.0000

          k = 0.1414 0.1414-0.1414 (  5498 PWs)   bands (ev):

  -107.6600 -55.9877 -55.9877 -55.9877  -4.3757   0.1405   0.1405   0.1791
     0.6248   0.6248   4.6919   7.0669   7.0669   8.3225  11.9434  12.1885
    12.1885

     occupation numbers 
     1.0000   1.0000   1.0000   1.0000   1.0000   1.0000   1.0000   1.0000
     1.0000   1.0000   1.0000   1.0000   1.0000   0.0000   0.0000   0.0000
     0.0000

          k = 0.2121 0.2121-0.2121 (  5471 PWs)   bands (ev):

  -107.6600 -55.9878 -55.9877 -55.9877  -4.1967   0.1799   0.1799   0.3510
     0.6311   0.6311   3.4922   6.7662   6.7662   8.2968  12.4379  12.4379
    12.9089

     occupation numbers 
     1.0000   1.0000   1.0000   1.0000   1.0000   1.0000   1.0000   1.0000
     1.0000   1.0000   1.0000   1.0000   1.0000   0.0000   0.0000   0.0000
     0.0000

          k = 0.2828 0.2828-0.2828 (  5486 PWs)   bands (ev):

  -107.6600 -55.9879 -55.9877 -55.9877  -4.0438   0.2066   0.2066   0.6437
     0.6437   0.6636   2.4691   6.5453   6.5453   8.2025  12.5070  12.5070
    13.9966

     occupation numbers 
     1.0000   1.0000   1.0000   1.0000   1.0000   1.0000   1.0000   1.0000
     1.0000   1.0000   1.0000   1.0000   1.0000   0.0000   0.0000   0.0000
     0.0000

          k =-0.3536-0.3536 0.3536 (  5480 PWs)   bands (ev):

  -107.6600 -55.9879 -55.9877 -55.9877  -3.9834   0.2153   0.2153   0.6505
     0.6505   0.9383   1.9404   6.4649   6.4649   8.1627  12.5082  12.5082
    14.3270

     occupation numbers 
     1.0000   1.0000   1.0000   1.0000   1.0000   1.0000   1.0000   1.0000
     1.0000   1.0000   1.0000   1.0000   1.0000   0.0000   0.0000   0.0000
     0.0000

          k = 0.1414 0.0000 0.0000 (  5493 PWs)   bands (ev):

  -107.6600 -55.9877 -55.9877 -55.9876  -4.4959   0.0966   0.1181   0.1181
     0.6167   0.6335   5.8222   7.1478   7.1478   8.3537  11.1847  12.1036
    12.1036

     occupation numbers 
     1.0000   1.0000   1.0000   1.0000   1.0000   1.0000   1.0000   1.0000
     1.0000   1.0000   1.0000   1.0000   1.0000   0.0000   0.0000   0.0000
     0.0000

          k = 0.2121 0.0707-0.0707 (  5491 PWs)   bands (ev):

  -107.6600 -55.9877 -55.9877 -55.9877  -4.3872   0.1217   0.1547   0.1660
     0.6092   0.6389   4.9379   6.8313   6.8666   8.7848  11.1088  12.4798
    12.5257

     occupation numbers 
     1.0000   1.0000   1.0000   1.0000   1.0000   1.0000   1.0000   1.0000
     1.0000   1.0000   1.0000   1.0000   1.0000   0.0000   0.0000   0.0000
     0.0000

          k = 0.2828 0.1414-0.1414 (  5479 PWs)   bands (ev):

  -107.6600 -55.9878 -55.9877 -55.9877  -4.2212   0.1663   0.1969   0.2887
     0.6142   0.6457   3.8272   6.5113   6.5323   8.8875  11.5993  12.8196
    12.8353

     occupation numbers 
     1.0000   1.0000   1.0000   1.0000   1.0000   1.0000   1.0000   1.0000
     1.0000   1.0000   1.0000   1.0000   1.0000   0.0000   0.0000   0.0000
     0.0000

          k = 0.3536 0.2121-0.2121 (  5486 PWs)   bands (ev):

  -107.6600 -55.9878 -55.9877 -55.9877  -4.0579   0.2022   0.2265   0.5175
     0.6533   0.6624   2.7830   6.1722   6.3444   8.8143  12.0418  12.8836
    13.4596

     occupation numbers 
     1.0000   1.0000   1.0000   1.0000   1.0000   1.0000   1.0000   1.0000
     1.0000   1.0000   1.0000   1.0000   1.0000   0.0000   0.0000   0.0000
     0.0000

          k =-0.2828-0.4243 0.4243 (  5484 PWs)   bands (ev):

  -107.6600 -55.9879 -55.9877 -55.9877  -3.9653   0.2209   0.2362   0.6225
     0.6524   0.9152   2.0535   5.9418   6.3171   8.7460  12.1732  12.7862
    14.3082

     occupation numbers 
     1.0000   1.0000   1.0000   1.0000   1.0000   1.0000   1.0000   1.0000
     1.0000   1.0000   1.0000   1.0000   1.0000   0.0000   0.0000   0.0000
     0.0000

          k =-0.2121-0.3536 0.3536 (  5484 PWs)   bands (ev):

  -107.6600 -55.9879 -55.9877 -55.9877  -3.9855   0.2233   0.2268   0.6304
     0.6374   0.8181   2.2368   5.8736   6.4579   8.7430  12.2817  12.6645
    14.1505

     occupation numbers 
     1.0000   1.0000   1.0000   1.0000   1.0000   1.0000   1.0000   1.0000
     1.0000   1.0000   1.0000   1.0000   1.0000   0.0000   0.0000   0.0000
     0.0000

          k =-0.1414-0.2828 0.2828 (  5468 PWs)   bands (ev):

  -107.6600 -55.9878 -55.9877 -55.9877  -4.1091   0.1992   0.2089   0.4459
     0.6186   0.6600   3.1125   5.9934   6.7304   8.7916  12.3543  12.5063
    13.1423

     occupation numbers 
     1.0000   1.0000   1.0000   1.0000   1.0000   1.0000   1.0000   1.0000
     1.0000   1.0000   1.0000   1.0000   1.0000   0.0000   0.0000   0.0000
     0.0000

          k =-0.0707-0.2121 0.2121 (  5471 PWs)   bands (ev):

  -107.6600 -55.9877 -55.9877 -55.9876  -4.2811   0.1584   0.1755   0.2384
     0.6109   0.6421   4.1871   6.3085   7.0537   8.7821  11.8617  12.2307
    12.6870

     occupation numbers 
     1.0000   1.0000   1.0000   1.0000   1.0000   1.0000   1.0000   1.0000
     1.0000   1.0000   1.0000   1.0000   1.0000   0.0000   0.0000   0.0000
     0.0000

          k = 0.0000-0.1414 0.1414 (  5489 PWs)   bands (ev):

  -107.6600 -55.9877 -55.9877 -55.9877  -4.4331   0.1209   0.1302   0.1446
     0.6159   0.6329   5.2204   6.8143   7.3029   8.4821  11.4744  11.9269
    12.3776

     occupation numbers 
     1.0000   1.0000   1.0000   1.0000   1.0000   1.0000   1.0000   1.0000
     1.0000   1.0000   1.0000   1.0000   1.0000   0.0000   0.0000   0.0000
     0.0000

          k = 0.2828 0.0000 0.0000 (  5469 PWs)   bands (ev):

  -107.6600 -55.9877 -55.9877 -55.9877  -4.3119   0.1283   0.1951   0.1951
     0.5980   0.6503   4.6473   6.4814   6.4814   9.2476  10.5737  13.0770
    13.0770

     occupation numbers 
     1.0000   1.0000   1.0000   1.0000   1.0000   1.0000   1.0000   1.0000
     1.0000   1.0000   1.0000   1.0000   1.0000   0.0000   0.0000   0.0000
     0.0000

          k = 0.3536 0.0707-0.0707 (  5475 PWs)   bands (ev):

  -107.6600 -55.9878 -55.9877 -55.9877  -4.1738   0.1714   0.2437   0.2699
     0.6072   0.6594   3.8931   6.0781   6.1629   9.4569  10.6752  13.2356
    13.5481

     occupation numbers 
     1.0000   1.0000   1.0000   1.0000   1.0000   1.0000   1.0000   1.0000
     1.0000   1.0000   1.0000   1.0000   1.0000   0.0000   0.0000   0.0000
     0.0000

          k = 0.4243 0.1414-0.1414 (  5484 PWs)   bands (ev):

  -107.6600 -55.9878 -55.9877 -55.9877  -4.0218   0.2168   0.2796   0.4145
     0.6648   0.6821   3.0110   5.6139   5.9732   9.5124  11.2476  13.1412
    13.6788

     occupation numbers 
     1.0000   1.0000   1.0000   1.0000   1.0000   1.0000   1.0000   1.0000
     1.0000   1.0000   1.0000   1.0000   1.0000   0.0000   0.0000   0.0000
     0.0000

          k =-0.2121-0.4950 0.4950 (  5472 PWs)   bands (ev):

  -107.6600 -55.9879 -55.9877 -55.9877  -3.9165   0.2402   0.2919   0.5443
     0.6586   0.9041   2.2671   5.2318   5.9629   9.4902  11.7617  13.5317
    13.6088

     occupation numbers 
     1.0000   1.0000   1.0000   1.0000   1.0000   1.0000   1.0000   1.0000
     1.0000   1.0000   1.0000   1.0000   1.0000   0.0000   0.0000   0.0000
     0.0000

          k =-0.1414-0.4243 0.4243 (  5463 PWs)   bands (ev):

  -107.6600 -55.9879 -55.9877 -55.9877  -3.9037   0.2475   0.2804   0.6008
     0.6375   0.9662   2.1289   5.0313   6.1359   9.4822  11.9935  13.2876
    14.1067

     occupation numbers 
     1.0000   1.0000   1.0000   1.0000   1.0000   1.0000   1.0000   1.0000
     1.0000   1.0000   1.0000   1.0000   1.0000   0.0000   0.0000   0.0000
     0.0000

          k =-0.0707-0.3536 0.3536 (  5480 PWs)   bands (ev):

  -107.6600 -55.9878 -55.9877 -55.9877  -3.9889   0.2423   0.2472   0.5544
     0.6143   0.7280   2.7399   5.0921   6.4468   9.4689  12.1903  12.9821
    13.2206

     occupation numbers 
     1.0000   1.0000   1.0000   1.0000   1.0000   1.0000   1.0000   1.0000
     1.0000   1.0000   1.0000   1.0000   1.0000   0.0000   0.0000   0.0000
     0.0000

          k = 0.0000-0.2828 0.2828 (  5494 PWs)   bands (ev):

  -107.6600 -55.9878 -55.9877 -55.9877  -4.1344   0.2003   0.2184   0.3614
     0.6048   0.6652   3.5187   5.5102   6.8004   9.2926  12.1135  12.5817
    12.6523

     occupation numbers 
     1.0000   1.0000   1.0000   1.0000   1.0000   1.0000   1.0000   1.0000
     1.0000   1.0000   1.0000   1.0000   1.0000   0.0000   0.0000   0.0000
     0.0000

          k = 0.4243 0.0000 0.0000 (  5473 PWs)   bands (ev):

  -107.6600 -55.9878 -55.9877 -55.9877  -4.0701   0.1996   0.3012   0.3012
     0.6269   0.6711   3.5190   5.8147   5.8147   9.4443  10.3474  14.3031
    14.3031

     occupation numbers 
     1.0000   1.0000   1.0000   1.0000   1.0000   1.0000   1.0000   1.0000
     1.0000   1.0000   1.0000   1.0000   1.0000   0.0000   0.0000   0.0000
     0.0000

          k = 0.4950 0.0707-0.0707 (  5494 PWs)   bands (ev):

  -107.6600 -55.9879 -55.9877 -55.9877  -3.9472   0.2421   0.3456   0.3731
     0.6776   0.7243   2.9125   5.4094   5.5973   9.5460  10.4592  13.9497
    14.6962

     occupation numbers 
     1.0000   1.0000   1.0000   1.0000   1.0000   1.0000   1.0000   1.0000
     1.0000   1.0000   1.0000   1.0000   1.0000   0.0000   0.0000   0.0000
     0.0000

          k =-0.1414-0.5657 0.5657 (  5479 PWs)   bands (ev):

  -107.6600 -55.9879 -55.9877 -55.9877  -3.8536   0.2682   0.3620   0.4634
     0.6705   0.9446   2.3221   4.9118   5.5705   9.6616  11.0909  13.8192
    14.5703

     occupation numbers 
     1.0000   1.0000   1.0000   1.0000   1.0000   1.0000   1.0000   1.0000
     1.0000   1.0000   1.0000   1.0000   1.0000   0.0000   0.0000   0.0000
     0.0000

          k =-0.0707-0.4950 0.4950 (  5469 PWs)   bands (ev):

  -107.6600 -55.9879 -55.9877 -55.9877  -3.8281   0.2725   0.3472   0.5465
     0.6479   1.1048   2.0460   4.5685   5.7427   9.7298  11.8115  14.1459
    14.1727

     occupation numbers 
     1.0000   1.0000   1.0000   1.0000   1.0000   1.0000   1.0000   1.0000
     1.0000   1.0000   1.0000   1.0000   1.0000   0.0000   0.0000   0.0000
     0.0000

          k =-0.0000-0.4243 0.4243 (  5466 PWs)   bands (ev):

  -107.6600 -55.9878 -55.9877 -55.9877  -3.8808   0.2642   0.3045   0.5907
     0.6243   0.9200   2.3315   4.5817   6.0678   9.7455  12.1290  13.6175
    13.7911

     occupation numbers 
     1.0000   1.0000   1.0000   1.0000   1.0000   1.0000   1.0000   1.0000
     1.0000   1.0000   1.0000   1.0000   1.0000   0.0000   0.0000   0.0000
     0.0000

          k = 0.5657 0.0000 0.0000 (  5498 PWs)   bands (ev):

  -107.6600 -55.9879 -55.9877 -55.9877  -3.8619   0.2560   0.3979   0.3979
     0.6881   0.8318   2.5318   5.3409   5.3409   9.3687  10.0977  15.1088
    15.5998

     occupation numbers 
     1.0000   1.0000   1.0000   1.0000   1.0000   1.0000   1.0000   1.0000
     1.0000   1.0000   1.0000   1.0000   1.0000   0.0000   0.0000   0.0000
     0.0000

          k =-0.0707-0.6364 0.6364 (  5480 PWs)   bands (ev):

  -107.6600 -55.9879 -55.9877 -55.9877  -3.8004   0.2742   0.4177   0.4347
     0.6863   1.0295   2.1356   5.0315   5.2773   9.5019  10.2519  14.9678
    15.7028

     occupation numbers 
     1.0000   1.0000   1.0000   1.0000   1.0000   1.0000   1.0000   1.0000
     1.0000   1.0000   1.0000   1.0000   1.0000   0.0000   0.0000   0.0000
     0.0000

          k = 0.0000-0.5657 0.5657 (  5478 PWs)   bands (ev):

  -107.6600 -55.9879 -55.9878 -55.9877  -3.7878   0.2850   0.3994   0.4818
     0.6683   1.1774   1.9547   4.6440   5.4247   9.6506  11.0270  14.6452
    15.0731

     occupation numbers 
     1.0000   1.0000   1.0000   1.0000   1.0000   1.0000   1.0000   1.0000
     1.0000   1.0000   1.0000   1.0000   1.0000   0.0000   0.0000   0.0000
     0.0000

          k =-0.7071 0.0000 0.0000 (  5466 PWs)   bands (ev):

  -107.6600 -55.9878 -55.9877 -55.9877  -3.7795   0.2665   0.4381   0.4381
     0.6946   1.0891   1.9996   5.1694   5.1694   9.3580   9.9424  15.6664
    16.3949

     occupation numbers 
     1.0000   1.0000   1.0000   1.0000   1.0000   1.0000   1.0000   1.0000
     1.0000   1.0000   1.0000   1.0000   1.0000   0.0000   0.0000   0.0000
     0.0000

          k = 0.2828 0.1414 0.0000 (  5480 PWs)   bands (ev):

  -107.6600 -55.9877 -55.9877 -55.9877  -4.2635   0.1538   0.1984   0.2316
     0.6042   0.6494   4.2492   6.1449   6.7465   9.2034  11.0780  12.7472
    12.9509

     occupation numbers 
     1.0000   1.0000   1.0000   1.0000   1.0000   1.0000   1.0000   1.0000
     1.0000   1.0000   1.0000   1.0000   1.0000   0.0000   0.0000   0.0000
     0.0000

          k = 0.3536 0.2121-0.0707 (  5474 PWs)   bands (ev):

  -107.6600 -55.9878 -55.9877 -55.9877  -4.1036   0.2007   0.2370   0.3782
     0.6204   0.6659   3.3577   5.6382   6.4731   9.3916  11.5593  12.6870
    13.3659

     occupation numbers 
     1.0000   1.0000   1.0000   1.0000   1.0000   1.0000   1.0000   1.0000
     1.0000   1.0000   1.0000   1.0000   1.0000   0.0000   0.0000   0.0000
     0.0000

          k =-0.2828-0.4243 0.5657 (  5474 PWs)   bands (ev):

  -107.6600 -55.9879 -55.9877 -55.9877  -3.9683   0.2327   0.2599   0.5537
     0.6472   0.7821   2.4977   5.3766   6.2078   9.3945  11.9290  12.8893
    13.8157

     occupation numbers 
     1.0000   1.0000   1.0000   1.0000   1.0000   1.0000   1.0000   1.0000
     1.0000   1.0000   1.0000   1.0000   1.0000   0.0000   0.0000   0.0000
     0.0000

          k =-0.2121-0.3536 0.4950 (  5478 PWs)   bands (ev):

  -107.6600 -55.9879 -55.9877 -55.9877  -3.9152   0.2419   0.2681   0.6049
     0.6421   0.9872   2.0486   5.3009   6.0993   9.3781  11.9518  13.0482
    14.3642

     occupation numbers 
     1.0000   1.0000   1.0000   1.0000   1.0000   1.0000   1.0000   1.0000
     1.0000   1.0000   1.0000   1.0000   1.0000   0.0000   0.0000   0.0000
     0.0000

          k = 0.4243 0.1414-0.0000 (  5478 PWs)   bands (ev):

  -107.6600 -55.9878 -55.9877 -55.9877  -4.0425   0.2176   0.2864   0.3539
     0.6463   0.6737   3.2898   5.5194   5.9649   9.6822  10.7555  13.1095
    14.2713

     occupation numbers 
     1.0000   1.0000   1.0000   1.0000   1.0000   1.0000   1.0000   1.0000
     1.0000   1.0000   1.0000   1.0000   1.0000   0.0000   0.0000   0.0000
     0.0000

          k =-0.2121-0.4950 0.6364 (  5484 PWs)   bands (ev):

  -107.6600 -55.9879 -55.9877 -55.9877  -3.9186   0.2589   0.3116   0.4675
     0.6616   0.8102   2.6164   5.0784   5.7367   9.8609  11.2859  12.9069
    14.5954

     occupation numbers 
     1.0000   1.0000   1.0000   1.0000   1.0000   1.0000   1.0000   1.0000
     1.0000   1.0000   1.0000   1.0000   1.0000   0.0000   0.0000   0.0000
     0.0000

          k =-0.1414-0.4243 0.5657 (  5478 PWs)   bands (ev):

  -107.6600 -55.9879 -55.9877 -55.9877  -3.8528   0.2721   0.3213   0.5546
     0.6418   1.0422   2.1163   4.7944   5.6853   9.9212  11.8118  13.0848
    14.6138

     occupation numbers 
     1.0000   1.0000   1.0000   1.0000   1.0000   1.0000   1.0000   1.0000
     1.0000   1.0000   1.0000   1.0000   1.0000   0.0000   0.0000   0.0000
     0.0000

          k =-0.0707-0.3536 0.4950 (  5473 PWs)   bands (ev):

  -107.6600 -55.9878 -55.9877 -55.9877  -3.8730   0.2726   0.3021   0.5773
     0.6288   0.9613   2.2513   4.7199   5.8640   9.9362  12.0297  12.8353
    14.6742

     occupation numbers 
     1.0000   1.0000   1.0000   1.0000   1.0000   1.0000   1.0000   1.0000
     1.0000   1.0000   1.0000   1.0000   1.0000   0.0000   0.0000   0.0000
     0.0000

          k = 0.0000-0.2828 0.4243 (  5480 PWs)   bands (ev):

  -107.6600 -55.9878 -55.9877 -55.9877  -3.9702   0.2538   0.2655   0.5024
     0.6353   0.7395   2.8063   4.9778   6.1822   9.8126  11.9816  12.3410
    14.0709

     occupation numbers 
     1.0000   1.0000   1.0000   1.0000   1.0000   1.0000   1.0000   1.0000
     1.0000   1.0000   1.0000   1.0000   1.0000   0.0000   0.0000   0.0000
     0.0000

          k =-0.1414-0.5657 0.7071 (  5481 PWs)   bands (ev):

  -107.6600 -55.9879 -55.9877 -55.9877  -3.8541   0.2745   0.3686   0.4330
     0.6771   0.8908   2.4389   5.1174   5.3448   9.7315  10.5268  13.9130
    15.5076

     occupation numbers 
     1.0000   1.0000   1.0000   1.0000   1.0000   1.0000   1.0000   1.0000
     1.0000   1.0000   1.0000   1.0000   1.0000   0.0000   0.0000   0.0000
     0.0000

          k =-0.0707-0.4950 0.6364 (  5489 PWs)   bands (ev):

  -107.6600 -55.9879 -55.9878 -55.9877  -3.8007   0.2936   0.3754   0.4941
     0.6580   1.1213   2.0512   4.7447   5.2869   9.9595  11.1446  13.7499
    14.8182

     occupation numbers 
     1.0000   1.0000   1.0000   1.0000   1.0000   1.0000   1.0000   1.0000
     1.0000   1.0000   1.0000   1.0000   1.0000   0.0000   0.0000   0.0000
     0.0000

          k = 0.0000-0.4243 0.5657 (  5474 PWs)   bands (ev):

  -107.6600 -55.9879 -55.9878 -55.9877  -3.8084   0.2904   0.3529   0.5580
     0.6283   1.1526   2.0135   4.5169   5.5023  10.0574  11.8847  13.4222
    14.3279

     occupation numbers 
     1.0000   1.0000   1.0000   1.0000   1.0000   1.0000   1.0000   1.0000
     1.0000   1.0000   1.0000   1.0000   1.0000   0.0000   0.0000   0.0000
     0.0000

          k =-0.7071 0.1414 0.0000 (  5480 PWs)   bands (ev):

  -107.6600 -55.9879 -55.9877 -55.9877  -3.7800   0.2872   0.4097   0.4608
     0.6785   1.1496   1.9684   5.0248   5.0655   9.7217  10.4065  14.8875
    15.1623

     occupation numbers 
     1.0000   1.0000   1.0000   1.0000   1.0000   1.0000   1.0000   1.0000
     1.0000   1.0000   1.0000   1.0000   1.0000   0.0000   0.0000   0.0000
     0.0000

          k =-0.1414-0.4243 0.7071 (  5486 PWs)   bands (ev):

  -107.6600 -55.9879 -55.9878 -55.9877  -3.8337   0.3022   0.3272   0.5287
     0.6389   1.0223   2.2182   4.7244   5.4043  10.2892  11.6971  12.6194
    14.8689

     occupation numbers 
     1.0000   1.0000   1.0000   1.0000   1.0000   1.0000   1.0000   1.0000
     1.0000   1.0000   1.0000   1.0000   1.0000   0.0000   0.0000   0.0000
     0.0000

          k =-0.0707-0.3536 0.6364 (  5474 PWs)   bands (ev):

  -107.6600 -55.9879 -55.9878 -55.9877  -3.8009   0.3068   0.3472   0.5750
     0.6027   1.1793   1.9916   4.6310   5.2361  10.4260  12.0585  12.6943
    14.1131

     occupation numbers 
     1.0000   1.0000   1.0000   1.0000   1.0000   1.0000   1.0000   1.0000
     1.0000   1.0000   1.0000   1.0000   1.0000   0.0000   0.0000   0.0000
     0.0000

          k =-0.7071 0.2828 0.0000 (  5478 PWs)   bands (ev):

  -107.6600 -55.9879 -55.9878 -55.9877  -3.7807   0.3133   0.3708   0.5351
     0.6248   1.2433   1.9147   4.8085   4.9170  10.4319  11.5741  13.3624
    13.8410

     occupation numbers 
     1.0000   1.0000   1.0000   1.0000   1.0000   1.0000   1.0000   1.0000
     1.0000   1.0000   1.0000   1.0000   1.0000   0.0000   0.0000   0.0000
     0.0000

     the Fermi energy is     7.4605 ev
     (compare with:     7.4605 eV, computed in scf)

     Writing all to output data dir /home/User/opencode_workspace/DFT/calculations/hgte/conv_nscf_k10/out/pwscf.save/ :
     XML data file, pseudopotentials, collected wavefunctions

     init_run     :      0.64s CPU      0.72s WALL (       1 calls)
     electrons    :     14.09s CPU     15.70s WALL (       1 calls)

     Called by init_run:
     wfcinit      :      0.00s CPU      0.00s WALL (       1 calls)
     wfcinit:atom :      0.01s CPU      0.01s WALL (      47 calls)
     wfcinit:wfcr :      0.48s CPU      0.54s WALL (      47 calls)
     potinit      :      0.13s CPU      0.13s WALL (       1 calls)
     hinit0       :      0.34s CPU      0.36s WALL (       1 calls)

     Called by electrons:
     c_bands      :     14.03s CPU     15.64s WALL (       1 calls)
     v_of_rho     :      0.02s CPU      0.03s WALL (       1 calls)
     v_h          :      0.00s CPU      0.00s WALL (       1 calls)
     v_xc         :      0.02s CPU      0.02s WALL (       1 calls)
     newd         :      0.06s CPU      0.13s WALL (       1 calls)

     Called by c_bands:
     init_us_2    :      0.01s CPU      0.01s WALL (      47 calls)
     cegterg      :     13.48s CPU     15.01s WALL (     110 calls)

     Called by sum_band:

     Called by *egterg:
     cdiaghg      :      0.64s CPU      0.68s WALL (    1914 calls)
     cegterg:over :      0.69s CPU      0.74s WALL (    1867 calls)
     cegterg:upda :      0.19s CPU      0.20s WALL (    1867 calls)
     cegterg:last :      0.48s CPU      0.49s WALL (    1213 calls)
     h_psi        :     11.30s CPU     12.75s WALL (    2024 calls)
     s_psi        :      0.17s CPU      0.18s WALL (    2024 calls)
     g_psi        :      0.10s CPU      0.10s WALL (    1867 calls)

     Called by h_psi:
     h_psi:calbec :      0.51s CPU      0.57s WALL (    2024 calls)
     vloc_psi     :     10.55s CPU     11.93s WALL (    2024 calls)
                                        0.00s GPU  (    2024 calls)
     add_vuspsi   :      0.19s CPU      0.21s WALL (    2024 calls)

     General routines
     calbec       :      0.50s CPU      0.56s WALL (    2024 calls)
     fft          :      0.15s CPU      0.15s WALL (      13 calls)
     ffts         :      0.10s CPU      0.10s WALL (       1 calls)
     fftw         :      9.89s CPU     11.19s WALL (   41652 calls)
     interpolate  :      0.10s CPU      0.10s WALL (       1 calls)
     davcio       :      0.01s CPU      0.01s WALL (      94 calls)

     Parallel routines

     PWSCF        :     15.19s CPU     17.00s WALL


   This run was terminated on:  19:18:46  22Sep2026            

=------------------------------------------------------------------------------=
   JOB DONE.
=------------------------------------------------------------------------------=
