
     Program PWSCF v.7.5 starts on 23Sep2026 at  0:16:19 

     This program is part of the open-source Quantum ESPRESSO suite
     for quantum simulation of materials; please cite
         "P. Giannozzi et al., J. Phys.:Condens. Matter 21 395502 (2009);
         "P. Giannozzi et al., J. Phys.:Condens. Matter 29 465901 (2017);
         "P. Giannozzi et al., J. Chem. Phys. 152 154105 (2020);
          URL http://www.quantum-espresso.org", 
     in publications or presentations arising from this work. More details at
     http://www.quantum-espresso.org/quote

     Parallel version (MPI & OpenMP), running on       6 processor cores
     Number of MPI processes:                 6
     Threads/MPI process:                     1

     MPI processes distributed on     1 nodes
     9256 MiB available memory on the printing compute node when the environment starts

     Reading input from pw_bands.in

     Current dimensions of program PWSCF are:
     Max number of different atomic species (ntypx) = 10
     Max number of k-points (npk) =  40000
     Max angular momentum in pseudopotentials (lmaxx) =  4
     file Hg.pbe-spn-rrkjus_psl.1.0.0.UPF: wavefunction(s)  5P renormalized
     file Te.pbe-n-rrkjus_psl.1.0.0.UPF: wavefunction(s)  5S renormalized

     Atomic positions and unit cell read from directory:
     /home/User/opencode_workspace/DFT/calculations/hgte/production_bands_nosoc/out/pwscf.save/

     Message from routine setup:
     using ibrav=0 with symmetry is DISCOURAGED, use correct ibrav instead

     R & G space division:  proc/nbgrp/npool/nimage =       6
     Subspace diagonalization in iterative solution of the eigenvalue problem:
     a serial algorithm will be used


     Parallelization info
     --------------------
     sticks:   dense  smooth     PW     G-vecs:    dense   smooth      PW
     Min         650     431    120                26941    14639    2112
     Max         651     432    121                26945    14644    2114
     Sum        3901    2587    721               161653    87843   12675

     Using Slab Decomposition



     bravais-lattice index     =            0
     lattice parameter (alat)  =       8.8860  a.u.
     unit-cell volume          =     496.1465 (a.u.)^3
     number of atoms/cell      =            2
     number of atomic types    =            2
     number of electrons       =        26.00
     number of Kohn-Sham states=           25
     kinetic-energy cutoff     =     120.0000  Ry
     charge density cutoff     =     720.0000  Ry
     Exchange-correlation= PBE
                           (   1   4   3   4   0   0   0)

     celldm(1)=   8.886041  celldm(2)=   0.000000  celldm(3)=   0.000000
     celldm(4)=   0.000000  celldm(5)=   0.000000  celldm(6)=   0.000000

     crystal axes: (cart. coord. in units of alat)
               a(1) = (   0.000000   0.707107   0.707107 )  
               a(2) = (   0.707107   0.000000   0.707107 )  
               a(3) = (   0.707107   0.707107   0.000000 )  

     reciprocal axes: (cart. coord. in units 2 pi/alat)
               b(1) = ( -0.707107  0.707107  0.707107 )  
               b(2) = (  0.707107 -0.707107  0.707107 )  
               b(3) = (  0.707107  0.707107 -0.707107 )  


     PseudoPot. # 1 for Hg read from file:
     /home/User/opencode_workspace/DFT/pseudopotentials/Hg.pbe-spn-rrkjus_psl.1.0.0.UPF
     MD5 check sum: f568566075d917e14d67c96ef6763253
     Pseudo is Ultrasoft + core correction, Zval = 20.0
     Generated using &quot;atomic&quot; code by A. Dal Corso  v.6.3
     Using radial grid of 1279 points,  6 beta functions with: 
                l(1) =   0
                l(2) =   0
                l(3) =   1
                l(4) =   1
                l(5) =   2
                l(6) =   2
     Q(r) pseudized with 0 coefficients 


     PseudoPot. # 2 for Te read from file:
     /home/User/opencode_workspace/DFT/pseudopotentials/Te.pbe-n-rrkjus_psl.1.0.0.UPF
     MD5 check sum: 203a1e86ef55f0cd9de2762a27c58f54
     Pseudo is Ultrasoft + core correction, Zval =  6.0
     Generated using &quot;atomic&quot; code by A. Dal Corso  v.6.3
     Using radial grid of 1245 points,  6 beta functions with: 
                l(1) =   0
                l(2) =   0
                l(3) =   1
                l(4) =   1
                l(5) =   2
                l(6) =   2
     Q(r) pseudized with 0 coefficients 


     atomic species   valence    mass     pseudopotential
     Hg               20.00   200.59200     Hg( 1.00)
     Te                6.00   127.60000     Te( 1.00)

     24 Sym. Ops. (no inversion) found


                                    s                        frac. trans.

      isym =  1     identity                                     

 cryst.   s( 1) = (     1          0          0      )
                  (     0          1          0      )
                  (     0          0          1      )

 cart.    s( 1) = (  1.0000000  0.0000000  0.0000000 )
                  (  0.0000000  1.0000000  0.0000000 )
                  (  0.0000000  0.0000000  1.0000000 )


      isym =  2     180 deg rotation - cart. axis [0,0,1]        

 cryst.   s( 2) = (     0          1         -1      )
                  (     1          0         -1      )
                  (     0          0         -1      )

 cart.    s( 2) = ( -1.0000000  0.0000000  0.0000000 )
                  (  0.0000000 -1.0000000  0.0000000 )
                  (  0.0000000  0.0000000  1.0000000 )


      isym =  3     180 deg rotation - cart. axis [0,1,0]        

 cryst.   s( 3) = (     0         -1          1      )
                  (     0         -1          0      )
                  (     1         -1          0      )

 cart.    s( 3) = ( -1.0000000  0.0000000  0.0000000 )
                  (  0.0000000  1.0000000  0.0000000 )
                  (  0.0000000  0.0000000 -1.0000000 )


      isym =  4     180 deg rotation - cart. axis [1,0,0]        

 cryst.   s( 4) = (    -1          0          0      )
                  (    -1          0          1      )
                  (    -1          1          0      )

 cart.    s( 4) = (  1.0000000  0.0000000  0.0000000 )
                  (  0.0000000 -1.0000000  0.0000000 )
                  (  0.0000000  0.0000000 -1.0000000 )


      isym =  5     120 deg rotation - cart. axis [-1,-1,-1]     

 cryst.   s( 5) = (     0          0          1      )
                  (     1          0          0      )
                  (     0          1          0      )

 cart.    s( 5) = (  0.0000000  1.0000000  0.0000000 )
                  (  0.0000000  0.0000000  1.0000000 )
                  (  1.0000000  0.0000000  0.0000000 )


      isym =  6     120 deg rotation - cart. axis [-1,1,1]       

 cryst.   s( 6) = (     1         -1          0      )
                  (     0         -1          1      )
                  (     0         -1          0      )

 cart.    s( 6) = (  0.0000000 -1.0000000  0.0000000 )
                  (  0.0000000  0.0000000  1.0000000 )
                  ( -1.0000000  0.0000000  0.0000000 )


      isym =  7     120 deg rotation - cart. axis [1,1,-1]       

 cryst.   s( 7) = (    -1          1          0      )
                  (    -1          0          0      )
                  (    -1          0          1      )

 cart.    s( 7) = (  0.0000000  1.0000000  0.0000000 )
                  (  0.0000000  0.0000000 -1.0000000 )
                  ( -1.0000000  0.0000000  0.0000000 )


      isym =  8     120 deg rotation - cart. axis [1,-1,1]       

 cryst.   s( 8) = (     0          0         -1      )
                  (     0          1         -1      )
                  (     1          0         -1      )

 cart.    s( 8) = (  0.0000000 -1.0000000  0.0000000 )
                  (  0.0000000  0.0000000 -1.0000000 )
                  (  1.0000000  0.0000000  0.0000000 )


      isym =  9     120 deg rotation - cart. axis [1,1,1]        

 cryst.   s( 9) = (     0          1          0      )
                  (     0          0          1      )
                  (     1          0          0      )

 cart.    s( 9) = (  0.0000000  0.0000000  1.0000000 )
                  (  1.0000000  0.0000000  0.0000000 )
                  (  0.0000000  1.0000000  0.0000000 )


      isym = 10     120 deg rotation - cart. axis [-1,1,-1]      

 cryst.   s(10) = (    -1          0          1      )
                  (    -1          1          0      )
                  (    -1          0          0      )

 cart.    s(10) = (  0.0000000  0.0000000  1.0000000 )
                  ( -1.0000000  0.0000000  0.0000000 )
                  (  0.0000000 -1.0000000  0.0000000 )


      isym = 11     120 deg rotation - cart. axis [1,-1,-1]      

 cryst.   s(11) = (     1          0         -1      )
                  (     0          0         -1      )
                  (     0          1         -1      )

 cart.    s(11) = (  0.0000000  0.0000000 -1.0000000 )
                  ( -1.0000000  0.0000000  0.0000000 )
                  (  0.0000000  1.0000000  0.0000000 )


      isym = 12     120 deg rotation - cart. axis [-1,-1,1]      

 cryst.   s(12) = (     0         -1          0      )
                  (     1         -1          0      )
                  (     0         -1          1      )

 cart.    s(12) = (  0.0000000  0.0000000 -1.0000000 )
                  (  1.0000000  0.0000000  0.0000000 )
                  (  0.0000000 -1.0000000  0.0000000 )


      isym = 13     inv. 180 deg rotation - cart. axis [1,1,0]   

 cryst.   s(13) = (     1          0         -1      )
                  (     0          1         -1      )
                  (     0          0         -1      )

 cart.    s(13) = (  0.0000000 -1.0000000  0.0000000 )
                  ( -1.0000000  0.0000000  0.0000000 )
                  (  0.0000000  0.0000000  1.0000000 )


      isym = 14     inv. 180 deg rotation - cart. axis [1,-1,0]  

 cryst.   s(14) = (     0          1          0      )
                  (     1          0          0      )
                  (     0          0          1      )

 cart.    s(14) = (  0.0000000  1.0000000  0.0000000 )
                  (  1.0000000  0.0000000  0.0000000 )
                  (  0.0000000  0.0000000  1.0000000 )


      isym = 15     inv.  90 deg rotation - cart. axis [0,0,-1]  

 cryst.   s(15) = (     0         -1          0      )
                  (     0         -1          1      )
                  (     1         -1          0      )

 cart.    s(15) = (  0.0000000 -1.0000000  0.0000000 )
                  (  1.0000000  0.0000000  0.0000000 )
                  (  0.0000000  0.0000000 -1.0000000 )


      isym = 16     inv.  90 deg rotation - cart. axis [0,0,1]   

 cryst.   s(16) = (    -1          0          1      )
                  (    -1          0          0      )
                  (    -1          1          0      )

 cart.    s(16) = (  0.0000000  1.0000000  0.0000000 )
                  ( -1.0000000  0.0000000  0.0000000 )
                  (  0.0000000  0.0000000 -1.0000000 )


      isym = 17     inv. 180 deg rotation - cart. axis [1,0,1]   

 cryst.   s(17) = (     1         -1          0      )
                  (     0         -1          0      )
                  (     0         -1          1      )

 cart.    s(17) = (  0.0000000  0.0000000 -1.0000000 )
                  (  0.0000000  1.0000000  0.0000000 )
                  ( -1.0000000  0.0000000  0.0000000 )


      isym = 18     inv. 180 deg rotation - cart. axis [-1,0,1]  

 cryst.   s(18) = (     0          0          1      )
                  (     0          1          0      )
                  (     1          0          0      )

 cart.    s(18) = (  0.0000000  0.0000000  1.0000000 )
                  (  0.0000000  1.0000000  0.0000000 )
                  (  1.0000000  0.0000000  0.0000000 )


      isym = 19     inv.  90 deg rotation - cart. axis [0,1,0]   

 cryst.   s(19) = (     0          0         -1      )
                  (     1          0         -1      )
                  (     0          1         -1      )

 cart.    s(19) = (  0.0000000  0.0000000 -1.0000000 )
                  (  0.0000000 -1.0000000  0.0000000 )
                  (  1.0000000  0.0000000  0.0000000 )


      isym = 20     inv.  90 deg rotation - cart. axis [0,-1,0]  

 cryst.   s(20) = (    -1          1          0      )
                  (    -1          0          1      )
                  (    -1          0          0      )

 cart.    s(20) = (  0.0000000  0.0000000  1.0000000 )
                  (  0.0000000 -1.0000000  0.0000000 )
                  ( -1.0000000  0.0000000  0.0000000 )


      isym = 21     inv. 180 deg rotation - cart. axis [0,1,1]   

 cryst.   s(21) = (    -1          0          0      )
                  (    -1          1          0      )
                  (    -1          0          1      )

 cart.    s(21) = (  1.0000000  0.0000000  0.0000000 )
                  (  0.0000000  0.0000000 -1.0000000 )
                  (  0.0000000 -1.0000000  0.0000000 )


      isym = 22     inv. 180 deg rotation - cart. axis [0,1,-1]  

 cryst.   s(22) = (     1          0          0      )
                  (     0          0          1      )
                  (     0          1          0      )

 cart.    s(22) = (  1.0000000  0.0000000  0.0000000 )
                  (  0.0000000  0.0000000  1.0000000 )
                  (  0.0000000  1.0000000  0.0000000 )


      isym = 23     inv.  90 deg rotation - cart. axis [-1,0,0]  

 cryst.   s(23) = (     0          1         -1      )
                  (     0          0         -1      )
                  (     1          0         -1      )

 cart.    s(23) = ( -1.0000000  0.0000000  0.0000000 )
                  (  0.0000000  0.0000000 -1.0000000 )
                  (  0.0000000  1.0000000  0.0000000 )


      isym = 24     inv.  90 deg rotation - cart. axis [1,0,0]   

 cryst.   s(24) = (     0         -1          1      )
                  (     1         -1          0      )
                  (     0         -1          0      )

 cart.    s(24) = ( -1.0000000  0.0000000  0.0000000 )
                  (  0.0000000  0.0000000  1.0000000 )
                  (  0.0000000 -1.0000000  0.0000000 )


   Cartesian axes

     site n.     atom                  positions (alat units)
         1        Hg     tau(   1) = (   0.0000000   0.0000000   0.0000000  )
         2        Te     tau(   2) = (   0.3535534   0.3535534   0.3535534  )

   Crystallographic axes

     site n.     atom                  positions (cryst. coord.)
         1        Hg     tau(   1) = (  0.0000000  0.0000000  0.0000000  )
         2        Te     tau(   2) = (  0.2500000  0.2500000  0.2500000  )

     number of k points=  1401
                       cart. coord. in units 2pi/alat
        k(    1) = (   0.0000000   0.0000000   0.0000000), wk =   0.0014276
        k(    2) = (   0.0000000   0.0022097   0.0000000), wk =   0.0014276
        k(    3) = (   0.0000000   0.0044194   0.0000000), wk =   0.0014276
        k(    4) = (   0.0000000   0.0066291   0.0000000), wk =   0.0014276
        k(    5) = (   0.0000000   0.0088388   0.0000000), wk =   0.0014276
        k(    6) = (   0.0000000   0.0110485   0.0000000), wk =   0.0014276
        k(    7) = (   0.0000000   0.0132583   0.0000000), wk =   0.0014276
        k(    8) = (   0.0000000   0.0154680   0.0000000), wk =   0.0014276
        k(    9) = (   0.0000000   0.0176777   0.0000000), wk =   0.0014276
        k(   10) = (   0.0000000   0.0198874   0.0000000), wk =   0.0014276
        k(   11) = (   0.0000000   0.0220971   0.0000000), wk =   0.0014276
        k(   12) = (   0.0000000   0.0243068   0.0000000), wk =   0.0014276
        k(   13) = (   0.0000000   0.0265165   0.0000000), wk =   0.0014276
        k(   14) = (   0.0000000   0.0287262   0.0000000), wk =   0.0014276
        k(   15) = (   0.0000000   0.0309359   0.0000000), wk =   0.0014276
        k(   16) = (   0.0000000   0.0331456   0.0000000), wk =   0.0014276
        k(   17) = (   0.0000000   0.0353553   0.0000000), wk =   0.0014276
        k(   18) = (   0.0000000   0.0375650   0.0000000), wk =   0.0014276
        k(   19) = (   0.0000000   0.0397748   0.0000000), wk =   0.0014276
        k(   20) = (   0.0000000   0.0419845   0.0000000), wk =   0.0014276
        k(   21) = (   0.0000000   0.0441942   0.0000000), wk =   0.0014276
        k(   22) = (   0.0000000   0.0464039   0.0000000), wk =   0.0014276
        k(   23) = (   0.0000000   0.0486136   0.0000000), wk =   0.0014276
        k(   24) = (   0.0000000   0.0508233   0.0000000), wk =   0.0014276
        k(   25) = (   0.0000000   0.0530330   0.0000000), wk =   0.0014276
        k(   26) = (   0.0000000   0.0552427   0.0000000), wk =   0.0014276
        k(   27) = (   0.0000000   0.0574524   0.0000000), wk =   0.0014276
        k(   28) = (   0.0000000   0.0596621   0.0000000), wk =   0.0014276
        k(   29) = (   0.0000000   0.0618718   0.0000000), wk =   0.0014276
        k(   30) = (   0.0000000   0.0640816   0.0000000), wk =   0.0014276
        k(   31) = (   0.0000000   0.0662913   0.0000000), wk =   0.0014276
        k(   32) = (   0.0000000   0.0685010   0.0000000), wk =   0.0014276
        k(   33) = (   0.0000000   0.0707107   0.0000000), wk =   0.0014276
        k(   34) = (   0.0000000   0.0729204   0.0000000), wk =   0.0014276
        k(   35) = (   0.0000000   0.0751301   0.0000000), wk =   0.0014276
        k(   36) = (   0.0000000   0.0773398   0.0000000), wk =   0.0014276
        k(   37) = (   0.0000000   0.0795495   0.0000000), wk =   0.0014276
        k(   38) = (   0.0000000   0.0817592   0.0000000), wk =   0.0014276
        k(   39) = (   0.0000000   0.0839689   0.0000000), wk =   0.0014276
        k(   40) = (   0.0000000   0.0861786   0.0000000), wk =   0.0014276
        k(   41) = (   0.0000000   0.0883883   0.0000000), wk =   0.0014276
        k(   42) = (   0.0000000   0.0905981   0.0000000), wk =   0.0014276
        k(   43) = (   0.0000000   0.0928078   0.0000000), wk =   0.0014276
        k(   44) = (   0.0000000   0.0950175   0.0000000), wk =   0.0014276
        k(   45) = (   0.0000000   0.0972272   0.0000000), wk =   0.0014276
        k(   46) = (   0.0000000   0.0994369   0.0000000), wk =   0.0014276
        k(   47) = (   0.0000000   0.1016466   0.0000000), wk =   0.0014276
        k(   48) = (   0.0000000   0.1038563   0.0000000), wk =   0.0014276
        k(   49) = (   0.0000000   0.1060660   0.0000000), wk =   0.0014276
        k(   50) = (   0.0000000   0.1082757   0.0000000), wk =   0.0014276
        k(   51) = (   0.0000000   0.1104854   0.0000000), wk =   0.0014276
        k(   52) = (   0.0000000   0.1126951   0.0000000), wk =   0.0014276
        k(   53) = (   0.0000000   0.1149049   0.0000000), wk =   0.0014276
        k(   54) = (   0.0000000   0.1171146   0.0000000), wk =   0.0014276
        k(   55) = (   0.0000000   0.1193243   0.0000000), wk =   0.0014276
        k(   56) = (   0.0000000   0.1215340   0.0000000), wk =   0.0014276
        k(   57) = (   0.0000000   0.1237437   0.0000000), wk =   0.0014276
        k(   58) = (   0.0000000   0.1259534   0.0000000), wk =   0.0014276
        k(   59) = (   0.0000000   0.1281631   0.0000000), wk =   0.0014276
        k(   60) = (   0.0000000   0.1303728   0.0000000), wk =   0.0014276
        k(   61) = (   0.0000000   0.1325825   0.0000000), wk =   0.0014276
        k(   62) = (   0.0000000   0.1347922   0.0000000), wk =   0.0014276
        k(   63) = (   0.0000000   0.1370019   0.0000000), wk =   0.0014276
        k(   64) = (   0.0000000   0.1392116   0.0000000), wk =   0.0014276
        k(   65) = (   0.0000000   0.1414214   0.0000000), wk =   0.0014276
        k(   66) = (   0.0000000   0.1436311   0.0000000), wk =   0.0014276
        k(   67) = (   0.0000000   0.1458408   0.0000000), wk =   0.0014276
        k(   68) = (   0.0000000   0.1480505   0.0000000), wk =   0.0014276
        k(   69) = (   0.0000000   0.1502602   0.0000000), wk =   0.0014276
        k(   70) = (   0.0000000   0.1524699   0.0000000), wk =   0.0014276
        k(   71) = (   0.0000000   0.1546796   0.0000000), wk =   0.0014276
        k(   72) = (   0.0000000   0.1568893   0.0000000), wk =   0.0014276
        k(   73) = (   0.0000000   0.1590990   0.0000000), wk =   0.0014276
        k(   74) = (   0.0000000   0.1613087   0.0000000), wk =   0.0014276
        k(   75) = (   0.0000000   0.1635184   0.0000000), wk =   0.0014276
        k(   76) = (   0.0000000   0.1657282   0.0000000), wk =   0.0014276
        k(   77) = (   0.0000000   0.1679379   0.0000000), wk =   0.0014276
        k(   78) = (   0.0000000   0.1701476   0.0000000), wk =   0.0014276
        k(   79) = (   0.0000000   0.1723573   0.0000000), wk =   0.0014276
        k(   80) = (   0.0000000   0.1745670   0.0000000), wk =   0.0014276
        k(   81) = (   0.0000000   0.1767767   0.0000000), wk =   0.0014276
        k(   82) = (   0.0000000   0.1789864   0.0000000), wk =   0.0014276
        k(   83) = (   0.0000000   0.1811961   0.0000000), wk =   0.0014276
        k(   84) = (   0.0000000   0.1834058   0.0000000), wk =   0.0014276
        k(   85) = (   0.0000000   0.1856155   0.0000000), wk =   0.0014276
        k(   86) = (   0.0000000   0.1878252   0.0000000), wk =   0.0014276
        k(   87) = (   0.0000000   0.1900349   0.0000000), wk =   0.0014276
        k(   88) = (   0.0000000   0.1922447   0.0000000), wk =   0.0014276
        k(   89) = (   0.0000000   0.1944544   0.0000000), wk =   0.0014276
        k(   90) = (   0.0000000   0.1966641   0.0000000), wk =   0.0014276
        k(   91) = (   0.0000000   0.1988738   0.0000000), wk =   0.0014276
        k(   92) = (   0.0000000   0.2010835   0.0000000), wk =   0.0014276
        k(   93) = (   0.0000000   0.2032932   0.0000000), wk =   0.0014276
        k(   94) = (   0.0000000   0.2055029   0.0000000), wk =   0.0014276
        k(   95) = (   0.0000000   0.2077126   0.0000000), wk =   0.0014276
        k(   96) = (   0.0000000   0.2099223   0.0000000), wk =   0.0014276
        k(   97) = (   0.0000000   0.2121320   0.0000000), wk =   0.0014276
        k(   98) = (   0.0000000   0.2143417   0.0000000), wk =   0.0014276
        k(   99) = (   0.0000000   0.2165515   0.0000000), wk =   0.0014276
        k(  100) = (   0.0000000   0.2187612   0.0000000), wk =   0.0014276
        k(  101) = (   0.0000000   0.2209709   0.0000000), wk =   0.0014276
        k(  102) = (   0.0000000   0.2231806   0.0000000), wk =   0.0014276
        k(  103) = (   0.0000000   0.2253903   0.0000000), wk =   0.0014276
        k(  104) = (   0.0000000   0.2276000   0.0000000), wk =   0.0014276
        k(  105) = (   0.0000000   0.2298097   0.0000000), wk =   0.0014276
        k(  106) = (   0.0000000   0.2320194   0.0000000), wk =   0.0014276
        k(  107) = (   0.0000000   0.2342291   0.0000000), wk =   0.0014276
        k(  108) = (   0.0000000   0.2364388   0.0000000), wk =   0.0014276
        k(  109) = (   0.0000000   0.2386485   0.0000000), wk =   0.0014276
        k(  110) = (   0.0000000   0.2408582   0.0000000), wk =   0.0014276
        k(  111) = (   0.0000000   0.2430680   0.0000000), wk =   0.0014276
        k(  112) = (   0.0000000   0.2452777   0.0000000), wk =   0.0014276
        k(  113) = (   0.0000000   0.2474874   0.0000000), wk =   0.0014276
        k(  114) = (   0.0000000   0.2496971   0.0000000), wk =   0.0014276
        k(  115) = (   0.0000000   0.2519068   0.0000000), wk =   0.0014276
        k(  116) = (   0.0000000   0.2541165   0.0000000), wk =   0.0014276
        k(  117) = (   0.0000000   0.2563262   0.0000000), wk =   0.0014276
        k(  118) = (   0.0000000   0.2585359   0.0000000), wk =   0.0014276
        k(  119) = (   0.0000000   0.2607456   0.0000000), wk =   0.0014276
        k(  120) = (   0.0000000   0.2629553   0.0000000), wk =   0.0014276
        k(  121) = (   0.0000000   0.2651650   0.0000000), wk =   0.0014276
        k(  122) = (   0.0000000   0.2673748   0.0000000), wk =   0.0014276
        k(  123) = (   0.0000000   0.2695845   0.0000000), wk =   0.0014276
        k(  124) = (   0.0000000   0.2717942   0.0000000), wk =   0.0014276
        k(  125) = (   0.0000000   0.2740039   0.0000000), wk =   0.0014276
        k(  126) = (   0.0000000   0.2762136   0.0000000), wk =   0.0014276
        k(  127) = (   0.0000000   0.2784233   0.0000000), wk =   0.0014276
        k(  128) = (   0.0000000   0.2806330   0.0000000), wk =   0.0014276
        k(  129) = (   0.0000000   0.2828427   0.0000000), wk =   0.0014276
        k(  130) = (   0.0000000   0.2850524   0.0000000), wk =   0.0014276
        k(  131) = (   0.0000000   0.2872621   0.0000000), wk =   0.0014276
        k(  132) = (   0.0000000   0.2894718   0.0000000), wk =   0.0014276
        k(  133) = (   0.0000000   0.2916815   0.0000000), wk =   0.0014276
        k(  134) = (   0.0000000   0.2938913   0.0000000), wk =   0.0014276
        k(  135) = (   0.0000000   0.2961010   0.0000000), wk =   0.0014276
        k(  136) = (   0.0000000   0.2983107   0.0000000), wk =   0.0014276
        k(  137) = (   0.0000000   0.3005204   0.0000000), wk =   0.0014276
        k(  138) = (   0.0000000   0.3027301   0.0000000), wk =   0.0014276
        k(  139) = (   0.0000000   0.3049398   0.0000000), wk =   0.0014276
        k(  140) = (   0.0000000   0.3071495   0.0000000), wk =   0.0014276
        k(  141) = (   0.0000000   0.3093592   0.0000000), wk =   0.0014276
        k(  142) = (   0.0000000   0.3115689   0.0000000), wk =   0.0014276
        k(  143) = (   0.0000000   0.3137786   0.0000000), wk =   0.0014276
        k(  144) = (   0.0000000   0.3159883   0.0000000), wk =   0.0014276
        k(  145) = (   0.0000000   0.3181981   0.0000000), wk =   0.0014276
        k(  146) = (   0.0000000   0.3204078   0.0000000), wk =   0.0014276
        k(  147) = (   0.0000000   0.3226175   0.0000000), wk =   0.0014276
        k(  148) = (   0.0000000   0.3248272   0.0000000), wk =   0.0014276
        k(  149) = (   0.0000000   0.3270369   0.0000000), wk =   0.0014276
        k(  150) = (   0.0000000   0.3292466   0.0000000), wk =   0.0014276
        k(  151) = (   0.0000000   0.3314563   0.0000000), wk =   0.0014276
        k(  152) = (   0.0000000   0.3336660   0.0000000), wk =   0.0014276
        k(  153) = (   0.0000000   0.3358757   0.0000000), wk =   0.0014276
        k(  154) = (   0.0000000   0.3380854   0.0000000), wk =   0.0014276
        k(  155) = (   0.0000000   0.3402951   0.0000000), wk =   0.0014276
        k(  156) = (   0.0000000   0.3425048   0.0000000), wk =   0.0014276
        k(  157) = (   0.0000000   0.3447146   0.0000000), wk =   0.0014276
        k(  158) = (   0.0000000   0.3469243   0.0000000), wk =   0.0014276
        k(  159) = (   0.0000000   0.3491340   0.0000000), wk =   0.0014276
        k(  160) = (   0.0000000   0.3513437   0.0000000), wk =   0.0014276
        k(  161) = (   0.0000000   0.3535534   0.0000000), wk =   0.0014276
        k(  162) = (   0.0000000   0.3557631   0.0000000), wk =   0.0014276
        k(  163) = (   0.0000000   0.3579728   0.0000000), wk =   0.0014276
        k(  164) = (   0.0000000   0.3601825   0.0000000), wk =   0.0014276
        k(  165) = (   0.0000000   0.3623922   0.0000000), wk =   0.0014276
        k(  166) = (   0.0000000   0.3646019   0.0000000), wk =   0.0014276
        k(  167) = (   0.0000000   0.3668116   0.0000000), wk =   0.0014276
        k(  168) = (   0.0000000   0.3690214   0.0000000), wk =   0.0014276
        k(  169) = (   0.0000000   0.3712311   0.0000000), wk =   0.0014276
        k(  170) = (   0.0000000   0.3734408   0.0000000), wk =   0.0014276
        k(  171) = (   0.0000000   0.3756505   0.0000000), wk =   0.0014276
        k(  172) = (   0.0000000   0.3778602   0.0000000), wk =   0.0014276
        k(  173) = (   0.0000000   0.3800699   0.0000000), wk =   0.0014276
        k(  174) = (   0.0000000   0.3822796   0.0000000), wk =   0.0014276
        k(  175) = (   0.0000000   0.3844893   0.0000000), wk =   0.0014276
        k(  176) = (   0.0000000   0.3866990   0.0000000), wk =   0.0014276
        k(  177) = (   0.0000000   0.3889087   0.0000000), wk =   0.0014276
        k(  178) = (   0.0000000   0.3911184   0.0000000), wk =   0.0014276
        k(  179) = (   0.0000000   0.3933281   0.0000000), wk =   0.0014276
        k(  180) = (   0.0000000   0.3955379   0.0000000), wk =   0.0014276
        k(  181) = (   0.0000000   0.3977476   0.0000000), wk =   0.0014276
        k(  182) = (   0.0000000   0.3999573   0.0000000), wk =   0.0014276
        k(  183) = (   0.0000000   0.4021670   0.0000000), wk =   0.0014276
        k(  184) = (   0.0000000   0.4043767   0.0000000), wk =   0.0014276
        k(  185) = (   0.0000000   0.4065864   0.0000000), wk =   0.0014276
        k(  186) = (   0.0000000   0.4087961   0.0000000), wk =   0.0014276
        k(  187) = (   0.0000000   0.4110058   0.0000000), wk =   0.0014276
        k(  188) = (   0.0000000   0.4132155   0.0000000), wk =   0.0014276
        k(  189) = (   0.0000000   0.4154252   0.0000000), wk =   0.0014276
        k(  190) = (   0.0000000   0.4176349   0.0000000), wk =   0.0014276
        k(  191) = (   0.0000000   0.4198447   0.0000000), wk =   0.0014276
        k(  192) = (   0.0000000   0.4220544   0.0000000), wk =   0.0014276
        k(  193) = (   0.0000000   0.4242641   0.0000000), wk =   0.0014276
        k(  194) = (   0.0000000   0.4264738   0.0000000), wk =   0.0014276
        k(  195) = (   0.0000000   0.4286835   0.0000000), wk =   0.0014276
        k(  196) = (   0.0000000   0.4308932   0.0000000), wk =   0.0014276
        k(  197) = (   0.0000000   0.4331029   0.0000000), wk =   0.0014276
        k(  198) = (   0.0000000   0.4353126   0.0000000), wk =   0.0014276
        k(  199) = (   0.0000000   0.4375223   0.0000000), wk =   0.0014276
        k(  200) = (   0.0000000   0.4397320   0.0000000), wk =   0.0014276
        k(  201) = (   0.0000000   0.4419417   0.0000000), wk =   0.0014276
        k(  202) = (   0.0000000   0.4441514   0.0000000), wk =   0.0014276
        k(  203) = (   0.0000000   0.4463612   0.0000000), wk =   0.0014276
        k(  204) = (   0.0000000   0.4485709   0.0000000), wk =   0.0014276
        k(  205) = (   0.0000000   0.4507806   0.0000000), wk =   0.0014276
        k(  206) = (   0.0000000   0.4529903   0.0000000), wk =   0.0014276
        k(  207) = (   0.0000000   0.4552000   0.0000000), wk =   0.0014276
        k(  208) = (   0.0000000   0.4574097   0.0000000), wk =   0.0014276
        k(  209) = (   0.0000000   0.4596194   0.0000000), wk =   0.0014276
        k(  210) = (   0.0000000   0.4618291   0.0000000), wk =   0.0014276
        k(  211) = (   0.0000000   0.4640388   0.0000000), wk =   0.0014276
        k(  212) = (   0.0000000   0.4662485   0.0000000), wk =   0.0014276
        k(  213) = (   0.0000000   0.4684582   0.0000000), wk =   0.0014276
        k(  214) = (   0.0000000   0.4706680   0.0000000), wk =   0.0014276
        k(  215) = (   0.0000000   0.4728777   0.0000000), wk =   0.0014276
        k(  216) = (   0.0000000   0.4750874   0.0000000), wk =   0.0014276
        k(  217) = (   0.0000000   0.4772971   0.0000000), wk =   0.0014276
        k(  218) = (   0.0000000   0.4795068   0.0000000), wk =   0.0014276
        k(  219) = (   0.0000000   0.4817165   0.0000000), wk =   0.0014276
        k(  220) = (   0.0000000   0.4839262   0.0000000), wk =   0.0014276
        k(  221) = (   0.0000000   0.4861359   0.0000000), wk =   0.0014276
        k(  222) = (   0.0000000   0.4883456   0.0000000), wk =   0.0014276
        k(  223) = (   0.0000000   0.4905553   0.0000000), wk =   0.0014276
        k(  224) = (   0.0000000   0.4927650   0.0000000), wk =   0.0014276
        k(  225) = (   0.0000000   0.4949747   0.0000000), wk =   0.0014276
        k(  226) = (   0.0000000   0.4971845   0.0000000), wk =   0.0014276
        k(  227) = (   0.0000000   0.4993942   0.0000000), wk =   0.0014276
        k(  228) = (   0.0000000   0.5016039   0.0000000), wk =   0.0014276
        k(  229) = (   0.0000000   0.5038136   0.0000000), wk =   0.0014276
        k(  230) = (   0.0000000   0.5060233   0.0000000), wk =   0.0014276
        k(  231) = (   0.0000000   0.5082330   0.0000000), wk =   0.0014276
        k(  232) = (   0.0000000   0.5104427   0.0000000), wk =   0.0014276
        k(  233) = (   0.0000000   0.5126524   0.0000000), wk =   0.0014276
        k(  234) = (   0.0000000   0.5148621   0.0000000), wk =   0.0014276
        k(  235) = (   0.0000000   0.5170718   0.0000000), wk =   0.0014276
        k(  236) = (   0.0000000   0.5192815   0.0000000), wk =   0.0014276
        k(  237) = (   0.0000000   0.5214913   0.0000000), wk =   0.0014276
        k(  238) = (   0.0000000   0.5237010   0.0000000), wk =   0.0014276
        k(  239) = (   0.0000000   0.5259107   0.0000000), wk =   0.0014276
        k(  240) = (   0.0000000   0.5281204   0.0000000), wk =   0.0014276
        k(  241) = (   0.0000000   0.5303301   0.0000000), wk =   0.0014276
        k(  242) = (   0.0000000   0.5325398   0.0000000), wk =   0.0014276
        k(  243) = (   0.0000000   0.5347495   0.0000000), wk =   0.0014276
        k(  244) = (   0.0000000   0.5369592   0.0000000), wk =   0.0014276
        k(  245) = (   0.0000000   0.5391689   0.0000000), wk =   0.0014276
        k(  246) = (   0.0000000   0.5413786   0.0000000), wk =   0.0014276
        k(  247) = (   0.0000000   0.5435883   0.0000000), wk =   0.0014276
        k(  248) = (   0.0000000   0.5457980   0.0000000), wk =   0.0014276
        k(  249) = (   0.0000000   0.5480078   0.0000000), wk =   0.0014276
        k(  250) = (   0.0000000   0.5502175   0.0000000), wk =   0.0014276
        k(  251) = (   0.0000000   0.5524272   0.0000000), wk =   0.0014276
        k(  252) = (   0.0000000   0.5546369   0.0000000), wk =   0.0014276
        k(  253) = (   0.0000000   0.5568466   0.0000000), wk =   0.0014276
        k(  254) = (   0.0000000   0.5590563   0.0000000), wk =   0.0014276
        k(  255) = (   0.0000000   0.5612660   0.0000000), wk =   0.0014276
        k(  256) = (   0.0000000   0.5634757   0.0000000), wk =   0.0014276
        k(  257) = (   0.0000000   0.5656854   0.0000000), wk =   0.0014276
        k(  258) = (   0.0000000   0.5678951   0.0000000), wk =   0.0014276
        k(  259) = (   0.0000000   0.5701048   0.0000000), wk =   0.0014276
        k(  260) = (   0.0000000   0.5723146   0.0000000), wk =   0.0014276
        k(  261) = (   0.0000000   0.5745243   0.0000000), wk =   0.0014276
        k(  262) = (   0.0000000   0.5767340   0.0000000), wk =   0.0014276
        k(  263) = (   0.0000000   0.5789437   0.0000000), wk =   0.0014276
        k(  264) = (   0.0000000   0.5811534   0.0000000), wk =   0.0014276
        k(  265) = (   0.0000000   0.5833631   0.0000000), wk =   0.0014276
        k(  266) = (   0.0000000   0.5855728   0.0000000), wk =   0.0014276
        k(  267) = (   0.0000000   0.5877825   0.0000000), wk =   0.0014276
        k(  268) = (   0.0000000   0.5899922   0.0000000), wk =   0.0014276
        k(  269) = (   0.0000000   0.5922019   0.0000000), wk =   0.0014276
        k(  270) = (   0.0000000   0.5944116   0.0000000), wk =   0.0014276
        k(  271) = (   0.0000000   0.5966213   0.0000000), wk =   0.0014276
        k(  272) = (   0.0000000   0.5988311   0.0000000), wk =   0.0014276
        k(  273) = (   0.0000000   0.6010408   0.0000000), wk =   0.0014276
        k(  274) = (   0.0000000   0.6032505   0.0000000), wk =   0.0014276
        k(  275) = (   0.0000000   0.6054602   0.0000000), wk =   0.0014276
        k(  276) = (   0.0000000   0.6076699   0.0000000), wk =   0.0014276
        k(  277) = (   0.0000000   0.6098796   0.0000000), wk =   0.0014276
        k(  278) = (   0.0000000   0.6120893   0.0000000), wk =   0.0014276
        k(  279) = (   0.0000000   0.6142990   0.0000000), wk =   0.0014276
        k(  280) = (   0.0000000   0.6165087   0.0000000), wk =   0.0014276
        k(  281) = (   0.0000000   0.6187184   0.0000000), wk =   0.0014276
        k(  282) = (   0.0000000   0.6209281   0.0000000), wk =   0.0014276
        k(  283) = (   0.0000000   0.6231379   0.0000000), wk =   0.0014276
        k(  284) = (   0.0000000   0.6253476   0.0000000), wk =   0.0014276
        k(  285) = (   0.0000000   0.6275573   0.0000000), wk =   0.0014276
        k(  286) = (   0.0000000   0.6297670   0.0000000), wk =   0.0014276
        k(  287) = (   0.0000000   0.6319767   0.0000000), wk =   0.0014276
        k(  288) = (   0.0000000   0.6341864   0.0000000), wk =   0.0014276
        k(  289) = (   0.0000000   0.6363961   0.0000000), wk =   0.0014276
        k(  290) = (   0.0000000   0.6386058   0.0000000), wk =   0.0014276
        k(  291) = (   0.0000000   0.6408155   0.0000000), wk =   0.0014276
        k(  292) = (   0.0000000   0.6430252   0.0000000), wk =   0.0014276
        k(  293) = (   0.0000000   0.6452349   0.0000000), wk =   0.0014276
        k(  294) = (   0.0000000   0.6474446   0.0000000), wk =   0.0014276
        k(  295) = (   0.0000000   0.6496544   0.0000000), wk =   0.0014276
        k(  296) = (   0.0000000   0.6518641   0.0000000), wk =   0.0014276
        k(  297) = (   0.0000000   0.6540738   0.0000000), wk =   0.0014276
        k(  298) = (   0.0000000   0.6562835   0.0000000), wk =   0.0014276
        k(  299) = (   0.0000000   0.6584932   0.0000000), wk =   0.0014276
        k(  300) = (   0.0000000   0.6607029   0.0000000), wk =   0.0014276
        k(  301) = (   0.0000000   0.6629126   0.0000000), wk =   0.0014276
        k(  302) = (   0.0000000   0.6651223   0.0000000), wk =   0.0014276
        k(  303) = (   0.0000000   0.6673320   0.0000000), wk =   0.0014276
        k(  304) = (   0.0000000   0.6695417   0.0000000), wk =   0.0014276
        k(  305) = (   0.0000000   0.6717514   0.0000000), wk =   0.0014276
        k(  306) = (   0.0000000   0.6739612   0.0000000), wk =   0.0014276
        k(  307) = (   0.0000000   0.6761709   0.0000000), wk =   0.0014276
        k(  308) = (   0.0000000   0.6783806   0.0000000), wk =   0.0014276
        k(  309) = (   0.0000000   0.6805903   0.0000000), wk =   0.0014276
        k(  310) = (   0.0000000   0.6828000   0.0000000), wk =   0.0014276
        k(  311) = (   0.0000000   0.6850097   0.0000000), wk =   0.0014276
        k(  312) = (   0.0000000   0.6872194   0.0000000), wk =   0.0014276
        k(  313) = (   0.0000000   0.6894291   0.0000000), wk =   0.0014276
        k(  314) = (   0.0000000   0.6916388   0.0000000), wk =   0.0014276
        k(  315) = (   0.0000000   0.6938485   0.0000000), wk =   0.0014276
        k(  316) = (   0.0000000   0.6960582   0.0000000), wk =   0.0014276
        k(  317) = (   0.0000000   0.6982679   0.0000000), wk =   0.0014276
        k(  318) = (   0.0000000   0.7004777   0.0000000), wk =   0.0014276
        k(  319) = (   0.0000000   0.7026874   0.0000000), wk =   0.0014276
        k(  320) = (   0.0000000   0.7048971   0.0000000), wk =   0.0014276
        k(  321) = (   0.0000000   0.7071068   0.0000000), wk =   0.0014276
        k(  322) = (   0.0022097   0.7071068   0.0022097), wk =   0.0014276
        k(  323) = (   0.0044194   0.7071068   0.0044194), wk =   0.0014276
        k(  324) = (   0.0066291   0.7071068   0.0066291), wk =   0.0014276
        k(  325) = (   0.0088388   0.7071068   0.0088388), wk =   0.0014276
        k(  326) = (   0.0110485   0.7071068   0.0110485), wk =   0.0014276
        k(  327) = (   0.0132583   0.7071068   0.0132583), wk =   0.0014276
        k(  328) = (   0.0154680   0.7071068   0.0154680), wk =   0.0014276
        k(  329) = (   0.0176777   0.7071068   0.0176777), wk =   0.0014276
        k(  330) = (   0.0198874   0.7071068   0.0198874), wk =   0.0014276
        k(  331) = (   0.0220971   0.7071068   0.0220971), wk =   0.0014276
        k(  332) = (   0.0243068   0.7071068   0.0243068), wk =   0.0014276
        k(  333) = (   0.0265165   0.7071068   0.0265165), wk =   0.0014276
        k(  334) = (   0.0287262   0.7071068   0.0287262), wk =   0.0014276
        k(  335) = (   0.0309359   0.7071068   0.0309359), wk =   0.0014276
        k(  336) = (   0.0331456   0.7071068   0.0331456), wk =   0.0014276
        k(  337) = (   0.0353553   0.7071068   0.0353553), wk =   0.0014276
        k(  338) = (   0.0375650   0.7071068   0.0375650), wk =   0.0014276
        k(  339) = (   0.0397748   0.7071068   0.0397748), wk =   0.0014276
        k(  340) = (   0.0419845   0.7071068   0.0419845), wk =   0.0014276
        k(  341) = (   0.0441942   0.7071068   0.0441942), wk =   0.0014276
        k(  342) = (   0.0464039   0.7071068   0.0464039), wk =   0.0014276
        k(  343) = (   0.0486136   0.7071068   0.0486136), wk =   0.0014276
        k(  344) = (   0.0508233   0.7071068   0.0508233), wk =   0.0014276
        k(  345) = (   0.0530330   0.7071068   0.0530330), wk =   0.0014276
        k(  346) = (   0.0552427   0.7071068   0.0552427), wk =   0.0014276
        k(  347) = (   0.0574524   0.7071068   0.0574524), wk =   0.0014276
        k(  348) = (   0.0596621   0.7071068   0.0596621), wk =   0.0014276
        k(  349) = (   0.0618718   0.7071068   0.0618718), wk =   0.0014276
        k(  350) = (   0.0640816   0.7071068   0.0640816), wk =   0.0014276
        k(  351) = (   0.0662913   0.7071068   0.0662913), wk =   0.0014276
        k(  352) = (   0.0685010   0.7071068   0.0685010), wk =   0.0014276
        k(  353) = (   0.0707107   0.7071068   0.0707107), wk =   0.0014276
        k(  354) = (   0.0729204   0.7071068   0.0729204), wk =   0.0014276
        k(  355) = (   0.0751301   0.7071068   0.0751301), wk =   0.0014276
        k(  356) = (   0.0773398   0.7071068   0.0773398), wk =   0.0014276
        k(  357) = (   0.0795495   0.7071068   0.0795495), wk =   0.0014276
        k(  358) = (   0.0817592   0.7071068   0.0817592), wk =   0.0014276
        k(  359) = (   0.0839689   0.7071068   0.0839689), wk =   0.0014276
        k(  360) = (   0.0861786   0.7071068   0.0861786), wk =   0.0014276
        k(  361) = (   0.0883883   0.7071068   0.0883883), wk =   0.0014276
        k(  362) = (   0.0905981   0.7071068   0.0905981), wk =   0.0014276
        k(  363) = (   0.0928078   0.7071068   0.0928078), wk =   0.0014276
        k(  364) = (   0.0950175   0.7071068   0.0950175), wk =   0.0014276
        k(  365) = (   0.0972272   0.7071068   0.0972272), wk =   0.0014276
        k(  366) = (   0.0994369   0.7071068   0.0994369), wk =   0.0014276
        k(  367) = (   0.1016466   0.7071068   0.1016466), wk =   0.0014276
        k(  368) = (   0.1038563   0.7071068   0.1038563), wk =   0.0014276
        k(  369) = (   0.1060660   0.7071068   0.1060660), wk =   0.0014276
        k(  370) = (   0.1082757   0.7071068   0.1082757), wk =   0.0014276
        k(  371) = (   0.1104854   0.7071068   0.1104854), wk =   0.0014276
        k(  372) = (   0.1126951   0.7071068   0.1126951), wk =   0.0014276
        k(  373) = (   0.1149049   0.7071068   0.1149049), wk =   0.0014276
        k(  374) = (   0.1171146   0.7071068   0.1171146), wk =   0.0014276
        k(  375) = (   0.1193243   0.7071068   0.1193243), wk =   0.0014276
        k(  376) = (   0.1215340   0.7071068   0.1215340), wk =   0.0014276
        k(  377) = (   0.1237437   0.7071068   0.1237437), wk =   0.0014276
        k(  378) = (   0.1259534   0.7071068   0.1259534), wk =   0.0014276
        k(  379) = (   0.1281631   0.7071068   0.1281631), wk =   0.0014276
        k(  380) = (   0.1303728   0.7071068   0.1303728), wk =   0.0014276
        k(  381) = (   0.1325825   0.7071068   0.1325825), wk =   0.0014276
        k(  382) = (   0.1347922   0.7071068   0.1347922), wk =   0.0014276
        k(  383) = (   0.1370019   0.7071068   0.1370019), wk =   0.0014276
        k(  384) = (   0.1392116   0.7071068   0.1392116), wk =   0.0014276
        k(  385) = (   0.1414214   0.7071068   0.1414214), wk =   0.0014276
        k(  386) = (   0.1436311   0.7071068   0.1436311), wk =   0.0014276
        k(  387) = (   0.1458408   0.7071068   0.1458408), wk =   0.0014276
        k(  388) = (   0.1480505   0.7071068   0.1480505), wk =   0.0014276
        k(  389) = (   0.1502602   0.7071068   0.1502602), wk =   0.0014276
        k(  390) = (   0.1524699   0.7071068   0.1524699), wk =   0.0014276
        k(  391) = (   0.1546796   0.7071068   0.1546796), wk =   0.0014276
        k(  392) = (   0.1568893   0.7071068   0.1568893), wk =   0.0014276
        k(  393) = (   0.1590990   0.7071068   0.1590990), wk =   0.0014276
        k(  394) = (   0.1613087   0.7071068   0.1613087), wk =   0.0014276
        k(  395) = (   0.1635184   0.7071068   0.1635184), wk =   0.0014276
        k(  396) = (   0.1657282   0.7071068   0.1657282), wk =   0.0014276
        k(  397) = (   0.1679379   0.7071068   0.1679379), wk =   0.0014276
        k(  398) = (   0.1701476   0.7071068   0.1701476), wk =   0.0014276
        k(  399) = (   0.1723573   0.7071068   0.1723573), wk =   0.0014276
        k(  400) = (   0.1745670   0.7071068   0.1745670), wk =   0.0014276
        k(  401) = (   0.1767767   0.7071068   0.1767767), wk =   0.0014276
        k(  402) = (   0.1856155   0.7026874   0.1723573), wk =   0.0014276
        k(  403) = (   0.1944544   0.6982679   0.1679379), wk =   0.0014276
        k(  404) = (   0.2032932   0.6938485   0.1635184), wk =   0.0014276
        k(  405) = (   0.2121320   0.6894291   0.1590990), wk =   0.0014276
        k(  406) = (   0.2209709   0.6850097   0.1546796), wk =   0.0014276
        k(  407) = (   0.2298097   0.6805903   0.1502602), wk =   0.0014276
        k(  408) = (   0.2386485   0.6761709   0.1458408), wk =   0.0014276
        k(  409) = (   0.2474874   0.6717514   0.1414214), wk =   0.0014276
        k(  410) = (   0.2563262   0.6673320   0.1370019), wk =   0.0014276
        k(  411) = (   0.2651650   0.6629126   0.1325825), wk =   0.0014276
        k(  412) = (   0.2740039   0.6584932   0.1281631), wk =   0.0014276
        k(  413) = (   0.2828427   0.6540738   0.1237437), wk =   0.0014276
        k(  414) = (   0.2916815   0.6496544   0.1193243), wk =   0.0014276
        k(  415) = (   0.3005204   0.6452349   0.1149049), wk =   0.0014276
        k(  416) = (   0.3093592   0.6408155   0.1104854), wk =   0.0014276
        k(  417) = (   0.3181981   0.6363961   0.1060660), wk =   0.0014276
        k(  418) = (   0.3270369   0.6319767   0.1016466), wk =   0.0014276
        k(  419) = (   0.3358757   0.6275573   0.0972272), wk =   0.0014276
        k(  420) = (   0.3447146   0.6231379   0.0928078), wk =   0.0014276
        k(  421) = (   0.3535534   0.6187184   0.0883883), wk =   0.0014276
        k(  422) = (   0.3623922   0.6142990   0.0839689), wk =   0.0014276
        k(  423) = (   0.3712311   0.6098796   0.0795495), wk =   0.0014276
        k(  424) = (   0.3800699   0.6054602   0.0751301), wk =   0.0014276
        k(  425) = (   0.3889087   0.6010408   0.0707107), wk =   0.0014276
        k(  426) = (   0.3977476   0.5966213   0.0662913), wk =   0.0014276
        k(  427) = (   0.4065864   0.5922019   0.0618718), wk =   0.0014276
        k(  428) = (   0.4154252   0.5877825   0.0574524), wk =   0.0014276
        k(  429) = (   0.4242641   0.5833631   0.0530330), wk =   0.0014276
        k(  430) = (   0.4331029   0.5789437   0.0486136), wk =   0.0014276
        k(  431) = (   0.4419417   0.5745243   0.0441942), wk =   0.0014276
        k(  432) = (   0.4507806   0.5701048   0.0397748), wk =   0.0014276
        k(  433) = (   0.4596194   0.5656854   0.0353553), wk =   0.0014276
        k(  434) = (   0.4684582   0.5612660   0.0309359), wk =   0.0014276
        k(  435) = (   0.4772971   0.5568466   0.0265165), wk =   0.0014276
        k(  436) = (   0.4861359   0.5524272   0.0220971), wk =   0.0014276
        k(  437) = (   0.4949747   0.5480078   0.0176777), wk =   0.0014276
        k(  438) = (   0.5038136   0.5435883   0.0132583), wk =   0.0014276
        k(  439) = (   0.5126524   0.5391689   0.0088388), wk =   0.0014276
        k(  440) = (   0.5214913   0.5347495   0.0044194), wk =   0.0014276
        k(  441) = (   0.5303301   0.5303301   0.0000000), wk =   0.0014276
        k(  442) = (   0.5288569   0.5288569  -0.0000000), wk =   0.0014276
        k(  443) = (   0.5273838   0.5273838   0.0000000), wk =   0.0014276
        k(  444) = (   0.5259107   0.5259107   0.0000000), wk =   0.0014276
        k(  445) = (   0.5244375   0.5244375  -0.0000000), wk =   0.0014276
        k(  446) = (   0.5229644   0.5229644   0.0000000), wk =   0.0014276
        k(  447) = (   0.5214913   0.5214913   0.0000000), wk =   0.0014276
        k(  448) = (   0.5200181   0.5200181  -0.0000000), wk =   0.0014276
        k(  449) = (   0.5185450   0.5185450   0.0000000), wk =   0.0014276
        k(  450) = (   0.5170718   0.5170718   0.0000000), wk =   0.0014276
        k(  451) = (   0.5155987   0.5155987  -0.0000000), wk =   0.0014276
        k(  452) = (   0.5141256   0.5141256   0.0000000), wk =   0.0014276
        k(  453) = (   0.5126524   0.5126524   0.0000000), wk =   0.0014276
        k(  454) = (   0.5111793   0.5111793  -0.0000000), wk =   0.0014276
        k(  455) = (   0.5097061   0.5097061   0.0000000), wk =   0.0014276
        k(  456) = (   0.5082330   0.5082330   0.0000000), wk =   0.0014276
        k(  457) = (   0.5067599   0.5067599  -0.0000000), wk =   0.0014276
        k(  458) = (   0.5052867   0.5052867   0.0000000), wk =   0.0014276
        k(  459) = (   0.5038136   0.5038136   0.0000000), wk =   0.0014276
        k(  460) = (   0.5023404   0.5023404  -0.0000000), wk =   0.0014276
        k(  461) = (   0.5008673   0.5008673   0.0000000), wk =   0.0014276
        k(  462) = (   0.4993942   0.4993942   0.0000000), wk =   0.0014276
        k(  463) = (   0.4979210   0.4979210  -0.0000000), wk =   0.0014276
        k(  464) = (   0.4964479   0.4964479   0.0000000), wk =   0.0014276
        k(  465) = (   0.4949747   0.4949747   0.0000000), wk =   0.0014276
        k(  466) = (   0.4935016   0.4935016  -0.0000000), wk =   0.0014276
        k(  467) = (   0.4920285   0.4920285   0.0000000), wk =   0.0014276
        k(  468) = (   0.4905553   0.4905553   0.0000000), wk =   0.0014276
        k(  469) = (   0.4890822   0.4890822  -0.0000000), wk =   0.0014276
        k(  470) = (   0.4876091   0.4876091   0.0000000), wk =   0.0014276
        k(  471) = (   0.4861359   0.4861359   0.0000000), wk =   0.0014276
        k(  472) = (   0.4846628   0.4846628  -0.0000000), wk =   0.0014276
        k(  473) = (   0.4831896   0.4831896   0.0000000), wk =   0.0014276
        k(  474) = (   0.4817165   0.4817165   0.0000000), wk =   0.0014276
        k(  475) = (   0.4802434   0.4802434  -0.0000000), wk =   0.0014276
        k(  476) = (   0.4787702   0.4787702   0.0000000), wk =   0.0014276
        k(  477) = (   0.4772971   0.4772971   0.0000000), wk =   0.0014276
        k(  478) = (   0.4758239   0.4758239  -0.0000000), wk =   0.0014276
        k(  479) = (   0.4743508   0.4743508   0.0000000), wk =   0.0014276
        k(  480) = (   0.4728777   0.4728777   0.0000000), wk =   0.0014276
        k(  481) = (   0.4714045   0.4714045  -0.0000000), wk =   0.0014276
        k(  482) = (   0.4699314   0.4699314   0.0000000), wk =   0.0014276
        k(  483) = (   0.4684582   0.4684582   0.0000000), wk =   0.0014276
        k(  484) = (   0.4669851   0.4669851  -0.0000000), wk =   0.0014276
        k(  485) = (   0.4655120   0.4655120   0.0000000), wk =   0.0014276
        k(  486) = (   0.4640388   0.4640388   0.0000000), wk =   0.0014276
        k(  487) = (   0.4625657   0.4625657  -0.0000000), wk =   0.0014276
        k(  488) = (   0.4610925   0.4610925   0.0000000), wk =   0.0014276
        k(  489) = (   0.4596194   0.4596194   0.0000000), wk =   0.0014276
        k(  490) = (   0.4581463   0.4581463  -0.0000000), wk =   0.0014276
        k(  491) = (   0.4566731   0.4566731   0.0000000), wk =   0.0014276
        k(  492) = (   0.4552000   0.4552000   0.0000000), wk =   0.0014276
        k(  493) = (   0.4537269   0.4537269  -0.0000000), wk =   0.0014276
        k(  494) = (   0.4522537   0.4522537   0.0000000), wk =   0.0014276
        k(  495) = (   0.4507806   0.4507806   0.0000000), wk =   0.0014276
        k(  496) = (   0.4493074   0.4493074  -0.0000000), wk =   0.0014276
        k(  497) = (   0.4478343   0.4478343   0.0000000), wk =   0.0014276
        k(  498) = (   0.4463612   0.4463612   0.0000000), wk =   0.0014276
        k(  499) = (   0.4448880   0.4448880  -0.0000000), wk =   0.0014276
        k(  500) = (   0.4434149   0.4434149   0.0000000), wk =   0.0014276
        k(  501) = (   0.4419417   0.4419417   0.0000000), wk =   0.0014276
        k(  502) = (   0.4404686   0.4404686  -0.0000000), wk =   0.0014276
        k(  503) = (   0.4389955   0.4389955   0.0000000), wk =   0.0014276
        k(  504) = (   0.4375223   0.4375223   0.0000000), wk =   0.0014276
        k(  505) = (   0.4360492   0.4360492  -0.0000000), wk =   0.0014276
        k(  506) = (   0.4345760   0.4345760   0.0000000), wk =   0.0014276
        k(  507) = (   0.4331029   0.4331029   0.0000000), wk =   0.0014276
        k(  508) = (   0.4316298   0.4316298  -0.0000000), wk =   0.0014276
        k(  509) = (   0.4301566   0.4301566   0.0000000), wk =   0.0014276
        k(  510) = (   0.4286835   0.4286835   0.0000000), wk =   0.0014276
        k(  511) = (   0.4272103   0.4272103  -0.0000000), wk =   0.0014276
        k(  512) = (   0.4257372   0.4257372   0.0000000), wk =   0.0014276
        k(  513) = (   0.4242641   0.4242641   0.0000000), wk =   0.0014276
        k(  514) = (   0.4227909   0.4227909  -0.0000000), wk =   0.0014276
        k(  515) = (   0.4213178   0.4213178   0.0000000), wk =   0.0014276
        k(  516) = (   0.4198447   0.4198447   0.0000000), wk =   0.0014276
        k(  517) = (   0.4183715   0.4183715  -0.0000000), wk =   0.0014276
        k(  518) = (   0.4168984   0.4168984   0.0000000), wk =   0.0014276
        k(  519) = (   0.4154252   0.4154252   0.0000000), wk =   0.0014276
        k(  520) = (   0.4139521   0.4139521  -0.0000000), wk =   0.0014276
        k(  521) = (   0.4124790   0.4124790   0.0000000), wk =   0.0014276
        k(  522) = (   0.4110058   0.4110058   0.0000000), wk =   0.0014276
        k(  523) = (   0.4095327   0.4095327  -0.0000000), wk =   0.0014276
        k(  524) = (   0.4080595   0.4080595   0.0000000), wk =   0.0014276
        k(  525) = (   0.4065864   0.4065864   0.0000000), wk =   0.0014276
        k(  526) = (   0.4051133   0.4051133  -0.0000000), wk =   0.0014276
        k(  527) = (   0.4036401   0.4036401   0.0000000), wk =   0.0014276
        k(  528) = (   0.4021670   0.4021670   0.0000000), wk =   0.0014276
        k(  529) = (   0.4006938   0.4006938  -0.0000000), wk =   0.0014276
        k(  530) = (   0.3992207   0.3992207   0.0000000), wk =   0.0014276
        k(  531) = (   0.3977476   0.3977476   0.0000000), wk =   0.0014276
        k(  532) = (   0.3962744   0.3962744  -0.0000000), wk =   0.0014276
        k(  533) = (   0.3948013   0.3948013   0.0000000), wk =   0.0014276
        k(  534) = (   0.3933281   0.3933281   0.0000000), wk =   0.0014276
        k(  535) = (   0.3918550   0.3918550  -0.0000000), wk =   0.0014276
        k(  536) = (   0.3903819   0.3903819   0.0000000), wk =   0.0014276
        k(  537) = (   0.3889087   0.3889087   0.0000000), wk =   0.0014276
        k(  538) = (   0.3874356   0.3874356  -0.0000000), wk =   0.0014276
        k(  539) = (   0.3859625   0.3859625   0.0000000), wk =   0.0014276
        k(  540) = (   0.3844893   0.3844893   0.0000000), wk =   0.0014276
        k(  541) = (   0.3830162   0.3830162  -0.0000000), wk =   0.0014276
        k(  542) = (   0.3815430   0.3815430   0.0000000), wk =   0.0014276
        k(  543) = (   0.3800699   0.3800699   0.0000000), wk =   0.0014276
        k(  544) = (   0.3785968   0.3785968  -0.0000000), wk =   0.0014276
        k(  545) = (   0.3771236   0.3771236   0.0000000), wk =   0.0014276
        k(  546) = (   0.3756505   0.3756505   0.0000000), wk =   0.0014276
        k(  547) = (   0.3741773   0.3741773  -0.0000000), wk =   0.0014276
        k(  548) = (   0.3727042   0.3727042   0.0000000), wk =   0.0014276
        k(  549) = (   0.3712311   0.3712311   0.0000000), wk =   0.0014276
        k(  550) = (   0.3697579   0.3697579  -0.0000000), wk =   0.0014276
        k(  551) = (   0.3682848   0.3682848   0.0000000), wk =   0.0014276
        k(  552) = (   0.3668116   0.3668116   0.0000000), wk =   0.0014276
        k(  553) = (   0.3653385   0.3653385  -0.0000000), wk =   0.0014276
        k(  554) = (   0.3638654   0.3638654   0.0000000), wk =   0.0014276
        k(  555) = (   0.3623922   0.3623922   0.0000000), wk =   0.0014276
        k(  556) = (   0.3609191   0.3609191  -0.0000000), wk =   0.0014276
        k(  557) = (   0.3594459   0.3594459   0.0000000), wk =   0.0014276
        k(  558) = (   0.3579728   0.3579728   0.0000000), wk =   0.0014276
        k(  559) = (   0.3564997   0.3564997  -0.0000000), wk =   0.0014276
        k(  560) = (   0.3550265   0.3550265   0.0000000), wk =   0.0014276
        k(  561) = (   0.3535534   0.3535534   0.0000000), wk =   0.0014276
        k(  562) = (   0.3520803   0.3520803  -0.0000000), wk =   0.0014276
        k(  563) = (   0.3506071   0.3506071   0.0000000), wk =   0.0014276
        k(  564) = (   0.3491340   0.3491340   0.0000000), wk =   0.0014276
        k(  565) = (   0.3476608   0.3476608  -0.0000000), wk =   0.0014276
        k(  566) = (   0.3461877   0.3461877   0.0000000), wk =   0.0014276
        k(  567) = (   0.3447146   0.3447146   0.0000000), wk =   0.0014276
        k(  568) = (   0.3432414   0.3432414  -0.0000000), wk =   0.0014276
        k(  569) = (   0.3417683   0.3417683   0.0000000), wk =   0.0014276
        k(  570) = (   0.3402951   0.3402951   0.0000000), wk =   0.0014276
        k(  571) = (   0.3388220   0.3388220  -0.0000000), wk =   0.0014276
        k(  572) = (   0.3373489   0.3373489   0.0000000), wk =   0.0014276
        k(  573) = (   0.3358757   0.3358757   0.0000000), wk =   0.0014276
        k(  574) = (   0.3344026   0.3344026  -0.0000000), wk =   0.0014276
        k(  575) = (   0.3329294   0.3329294   0.0000000), wk =   0.0014276
        k(  576) = (   0.3314563   0.3314563   0.0000000), wk =   0.0014276
        k(  577) = (   0.3299832   0.3299832  -0.0000000), wk =   0.0014276
        k(  578) = (   0.3285100   0.3285100   0.0000000), wk =   0.0014276
        k(  579) = (   0.3270369   0.3270369   0.0000000), wk =   0.0014276
        k(  580) = (   0.3255637   0.3255637  -0.0000000), wk =   0.0014276
        k(  581) = (   0.3240906   0.3240906   0.0000000), wk =   0.0014276
        k(  582) = (   0.3226175   0.3226175   0.0000000), wk =   0.0014276
        k(  583) = (   0.3211443   0.3211443  -0.0000000), wk =   0.0014276
        k(  584) = (   0.3196712   0.3196712   0.0000000), wk =   0.0014276
        k(  585) = (   0.3181981   0.3181981   0.0000000), wk =   0.0014276
        k(  586) = (   0.3167249   0.3167249  -0.0000000), wk =   0.0014276
        k(  587) = (   0.3152518   0.3152518   0.0000000), wk =   0.0014276
        k(  588) = (   0.3137786   0.3137786   0.0000000), wk =   0.0014276
        k(  589) = (   0.3123055   0.3123055  -0.0000000), wk =   0.0014276
        k(  590) = (   0.3108324   0.3108324   0.0000000), wk =   0.0014276
        k(  591) = (   0.3093592   0.3093592   0.0000000), wk =   0.0014276
        k(  592) = (   0.3078861   0.3078861  -0.0000000), wk =   0.0014276
        k(  593) = (   0.3064129   0.3064129   0.0000000), wk =   0.0014276
        k(  594) = (   0.3049398   0.3049398   0.0000000), wk =   0.0014276
        k(  595) = (   0.3034667   0.3034667  -0.0000000), wk =   0.0014276
        k(  596) = (   0.3019935   0.3019935   0.0000000), wk =   0.0014276
        k(  597) = (   0.3005204   0.3005204   0.0000000), wk =   0.0014276
        k(  598) = (   0.2990472   0.2990472  -0.0000000), wk =   0.0014276
        k(  599) = (   0.2975741   0.2975741   0.0000000), wk =   0.0014276
        k(  600) = (   0.2961010   0.2961010   0.0000000), wk =   0.0014276
        k(  601) = (   0.2946278   0.2946278  -0.0000000), wk =   0.0014276
        k(  602) = (   0.2931547   0.2931547   0.0000000), wk =   0.0014276
        k(  603) = (   0.2916815   0.2916815   0.0000000), wk =   0.0014276
        k(  604) = (   0.2902084   0.2902084  -0.0000000), wk =   0.0014276
        k(  605) = (   0.2887353   0.2887353   0.0000000), wk =   0.0014276
        k(  606) = (   0.2872621   0.2872621   0.0000000), wk =   0.0014276
        k(  607) = (   0.2857890   0.2857890  -0.0000000), wk =   0.0014276
        k(  608) = (   0.2843159   0.2843159   0.0000000), wk =   0.0014276
        k(  609) = (   0.2828427   0.2828427   0.0000000), wk =   0.0014276
        k(  610) = (   0.2813696   0.2813696  -0.0000000), wk =   0.0014276
        k(  611) = (   0.2798964   0.2798964   0.0000000), wk =   0.0014276
        k(  612) = (   0.2784233   0.2784233   0.0000000), wk =   0.0014276
        k(  613) = (   0.2769502   0.2769502  -0.0000000), wk =   0.0014276
        k(  614) = (   0.2754770   0.2754770   0.0000000), wk =   0.0014276
        k(  615) = (   0.2740039   0.2740039   0.0000000), wk =   0.0014276
        k(  616) = (   0.2725307   0.2725307  -0.0000000), wk =   0.0014276
        k(  617) = (   0.2710576   0.2710576   0.0000000), wk =   0.0014276
        k(  618) = (   0.2695845   0.2695845   0.0000000), wk =   0.0014276
        k(  619) = (   0.2681113   0.2681113  -0.0000000), wk =   0.0014276
        k(  620) = (   0.2666382   0.2666382   0.0000000), wk =   0.0014276
        k(  621) = (   0.2651650   0.2651650   0.0000000), wk =   0.0014276
        k(  622) = (   0.2636919   0.2636919  -0.0000000), wk =   0.0014276
        k(  623) = (   0.2622188   0.2622188   0.0000000), wk =   0.0014276
        k(  624) = (   0.2607456   0.2607456   0.0000000), wk =   0.0014276
        k(  625) = (   0.2592725   0.2592725  -0.0000000), wk =   0.0014276
        k(  626) = (   0.2577993   0.2577993   0.0000000), wk =   0.0014276
        k(  627) = (   0.2563262   0.2563262   0.0000000), wk =   0.0014276
        k(  628) = (   0.2548531   0.2548531  -0.0000000), wk =   0.0014276
        k(  629) = (   0.2533799   0.2533799   0.0000000), wk =   0.0014276
        k(  630) = (   0.2519068   0.2519068   0.0000000), wk =   0.0014276
        k(  631) = (   0.2504337   0.2504337  -0.0000000), wk =   0.0014276
        k(  632) = (   0.2489605   0.2489605   0.0000000), wk =   0.0014276
        k(  633) = (   0.2474874   0.2474874   0.0000000), wk =   0.0014276
        k(  634) = (   0.2460142   0.2460142  -0.0000000), wk =   0.0014276
        k(  635) = (   0.2445411   0.2445411   0.0000000), wk =   0.0014276
        k(  636) = (   0.2430680   0.2430680   0.0000000), wk =   0.0014276
        k(  637) = (   0.2415948   0.2415948  -0.0000000), wk =   0.0014276
        k(  638) = (   0.2401217   0.2401217   0.0000000), wk =   0.0014276
        k(  639) = (   0.2386485   0.2386485   0.0000000), wk =   0.0014276
        k(  640) = (   0.2371754   0.2371754  -0.0000000), wk =   0.0014276
        k(  641) = (   0.2357023   0.2357023   0.0000000), wk =   0.0014276
        k(  642) = (   0.2342291   0.2342291   0.0000000), wk =   0.0014276
        k(  643) = (   0.2327560   0.2327560  -0.0000000), wk =   0.0014276
        k(  644) = (   0.2312828   0.2312828   0.0000000), wk =   0.0014276
        k(  645) = (   0.2298097   0.2298097   0.0000000), wk =   0.0014276
        k(  646) = (   0.2283366   0.2283366  -0.0000000), wk =   0.0014276
        k(  647) = (   0.2268634   0.2268634   0.0000000), wk =   0.0014276
        k(  648) = (   0.2253903   0.2253903   0.0000000), wk =   0.0014276
        k(  649) = (   0.2239171   0.2239171  -0.0000000), wk =   0.0014276
        k(  650) = (   0.2224440   0.2224440   0.0000000), wk =   0.0014276
        k(  651) = (   0.2209709   0.2209709   0.0000000), wk =   0.0014276
        k(  652) = (   0.2194977   0.2194977  -0.0000000), wk =   0.0014276
        k(  653) = (   0.2180246   0.2180246   0.0000000), wk =   0.0014276
        k(  654) = (   0.2165515   0.2165515   0.0000000), wk =   0.0014276
        k(  655) = (   0.2150783   0.2150783  -0.0000000), wk =   0.0014276
        k(  656) = (   0.2136052   0.2136052   0.0000000), wk =   0.0014276
        k(  657) = (   0.2121320   0.2121320   0.0000000), wk =   0.0014276
        k(  658) = (   0.2106589   0.2106589  -0.0000000), wk =   0.0014276
        k(  659) = (   0.2091858   0.2091858   0.0000000), wk =   0.0014276
        k(  660) = (   0.2077126   0.2077126   0.0000000), wk =   0.0014276
        k(  661) = (   0.2062395   0.2062395  -0.0000000), wk =   0.0014276
        k(  662) = (   0.2047663   0.2047663   0.0000000), wk =   0.0014276
        k(  663) = (   0.2032932   0.2032932   0.0000000), wk =   0.0014276
        k(  664) = (   0.2018201   0.2018201  -0.0000000), wk =   0.0014276
        k(  665) = (   0.2003469   0.2003469   0.0000000), wk =   0.0014276
        k(  666) = (   0.1988738   0.1988738   0.0000000), wk =   0.0014276
        k(  667) = (   0.1974006   0.1974006  -0.0000000), wk =   0.0014276
        k(  668) = (   0.1959275   0.1959275   0.0000000), wk =   0.0014276
        k(  669) = (   0.1944544   0.1944544   0.0000000), wk =   0.0014276
        k(  670) = (   0.1929812   0.1929812  -0.0000000), wk =   0.0014276
        k(  671) = (   0.1915081   0.1915081   0.0000000), wk =   0.0014276
        k(  672) = (   0.1900349   0.1900349   0.0000000), wk =   0.0014276
        k(  673) = (   0.1885618   0.1885618  -0.0000000), wk =   0.0014276
        k(  674) = (   0.1870887   0.1870887   0.0000000), wk =   0.0014276
        k(  675) = (   0.1856155   0.1856155   0.0000000), wk =   0.0014276
        k(  676) = (   0.1841424   0.1841424  -0.0000000), wk =   0.0014276
        k(  677) = (   0.1826693   0.1826693   0.0000000), wk =   0.0014276
        k(  678) = (   0.1811961   0.1811961   0.0000000), wk =   0.0014276
        k(  679) = (   0.1797230   0.1797230  -0.0000000), wk =   0.0014276
        k(  680) = (   0.1782498   0.1782498   0.0000000), wk =   0.0014276
        k(  681) = (   0.1767767   0.1767767   0.0000000), wk =   0.0014276
        k(  682) = (   0.1753036   0.1753036  -0.0000000), wk =   0.0014276
        k(  683) = (   0.1738304   0.1738304   0.0000000), wk =   0.0014276
        k(  684) = (   0.1723573   0.1723573   0.0000000), wk =   0.0014276
        k(  685) = (   0.1708841   0.1708841  -0.0000000), wk =   0.0014276
        k(  686) = (   0.1694110   0.1694110   0.0000000), wk =   0.0014276
        k(  687) = (   0.1679379   0.1679379   0.0000000), wk =   0.0014276
        k(  688) = (   0.1664647   0.1664647  -0.0000000), wk =   0.0014276
        k(  689) = (   0.1649916   0.1649916   0.0000000), wk =   0.0014276
        k(  690) = (   0.1635184   0.1635184   0.0000000), wk =   0.0014276
        k(  691) = (   0.1620453   0.1620453  -0.0000000), wk =   0.0014276
        k(  692) = (   0.1605722   0.1605722   0.0000000), wk =   0.0014276
        k(  693) = (   0.1590990   0.1590990   0.0000000), wk =   0.0014276
        k(  694) = (   0.1576259   0.1576259  -0.0000000), wk =   0.0014276
        k(  695) = (   0.1561527   0.1561527   0.0000000), wk =   0.0014276
        k(  696) = (   0.1546796   0.1546796   0.0000000), wk =   0.0014276
        k(  697) = (   0.1532065   0.1532065  -0.0000000), wk =   0.0014276
        k(  698) = (   0.1517333   0.1517333   0.0000000), wk =   0.0014276
        k(  699) = (   0.1502602   0.1502602   0.0000000), wk =   0.0014276
        k(  700) = (   0.1487871   0.1487871  -0.0000000), wk =   0.0014276
        k(  701) = (   0.1473139   0.1473139   0.0000000), wk =   0.0014276
        k(  702) = (   0.1458408   0.1458408   0.0000000), wk =   0.0014276
        k(  703) = (   0.1443676   0.1443676  -0.0000000), wk =   0.0014276
        k(  704) = (   0.1428945   0.1428945   0.0000000), wk =   0.0014276
        k(  705) = (   0.1414214   0.1414214   0.0000000), wk =   0.0014276
        k(  706) = (   0.1399482   0.1399482  -0.0000000), wk =   0.0014276
        k(  707) = (   0.1384751   0.1384751   0.0000000), wk =   0.0014276
        k(  708) = (   0.1370019   0.1370019   0.0000000), wk =   0.0014276
        k(  709) = (   0.1355288   0.1355288  -0.0000000), wk =   0.0014276
        k(  710) = (   0.1340557   0.1340557   0.0000000), wk =   0.0014276
        k(  711) = (   0.1325825   0.1325825   0.0000000), wk =   0.0014276
        k(  712) = (   0.1311094   0.1311094  -0.0000000), wk =   0.0014276
        k(  713) = (   0.1296362   0.1296362   0.0000000), wk =   0.0014276
        k(  714) = (   0.1281631   0.1281631   0.0000000), wk =   0.0014276
        k(  715) = (   0.1266900   0.1266900  -0.0000000), wk =   0.0014276
        k(  716) = (   0.1252168   0.1252168   0.0000000), wk =   0.0014276
        k(  717) = (   0.1237437   0.1237437   0.0000000), wk =   0.0014276
        k(  718) = (   0.1222705   0.1222705  -0.0000000), wk =   0.0014276
        k(  719) = (   0.1207974   0.1207974   0.0000000), wk =   0.0014276
        k(  720) = (   0.1193243   0.1193243   0.0000000), wk =   0.0014276
        k(  721) = (   0.1178511   0.1178511  -0.0000000), wk =   0.0014276
        k(  722) = (   0.1163780   0.1163780   0.0000000), wk =   0.0014276
        k(  723) = (   0.1149049   0.1149049   0.0000000), wk =   0.0014276
        k(  724) = (   0.1134317   0.1134317  -0.0000000), wk =   0.0014276
        k(  725) = (   0.1119586   0.1119586   0.0000000), wk =   0.0014276
        k(  726) = (   0.1104854   0.1104854   0.0000000), wk =   0.0014276
        k(  727) = (   0.1090123   0.1090123  -0.0000000), wk =   0.0014276
        k(  728) = (   0.1075392   0.1075392   0.0000000), wk =   0.0014276
        k(  729) = (   0.1060660   0.1060660   0.0000000), wk =   0.0014276
        k(  730) = (   0.1045929   0.1045929  -0.0000000), wk =   0.0014276
        k(  731) = (   0.1031197   0.1031197   0.0000000), wk =   0.0014276
        k(  732) = (   0.1016466   0.1016466   0.0000000), wk =   0.0014276
        k(  733) = (   0.1001735   0.1001735  -0.0000000), wk =   0.0014276
        k(  734) = (   0.0987003   0.0987003   0.0000000), wk =   0.0014276
        k(  735) = (   0.0972272   0.0972272   0.0000000), wk =   0.0014276
        k(  736) = (   0.0957540   0.0957540  -0.0000000), wk =   0.0014276
        k(  737) = (   0.0942809   0.0942809   0.0000000), wk =   0.0014276
        k(  738) = (   0.0928078   0.0928078   0.0000000), wk =   0.0014276
        k(  739) = (   0.0913346   0.0913346  -0.0000000), wk =   0.0014276
        k(  740) = (   0.0898615   0.0898615   0.0000000), wk =   0.0014276
        k(  741) = (   0.0883883   0.0883883   0.0000000), wk =   0.0014276
        k(  742) = (   0.0869152   0.0869152  -0.0000000), wk =   0.0014276
        k(  743) = (   0.0854421   0.0854421   0.0000000), wk =   0.0014276
        k(  744) = (   0.0839689   0.0839689   0.0000000), wk =   0.0014276
        k(  745) = (   0.0824958   0.0824958  -0.0000000), wk =   0.0014276
        k(  746) = (   0.0810227   0.0810227   0.0000000), wk =   0.0014276
        k(  747) = (   0.0795495   0.0795495   0.0000000), wk =   0.0014276
        k(  748) = (   0.0780764   0.0780764  -0.0000000), wk =   0.0014276
        k(  749) = (   0.0766032   0.0766032   0.0000000), wk =   0.0014276
        k(  750) = (   0.0751301   0.0751301   0.0000000), wk =   0.0014276
        k(  751) = (   0.0736570   0.0736570  -0.0000000), wk =   0.0014276
        k(  752) = (   0.0721838   0.0721838   0.0000000), wk =   0.0014276
        k(  753) = (   0.0707107   0.0707107   0.0000000), wk =   0.0014276
        k(  754) = (   0.0692375   0.0692375  -0.0000000), wk =   0.0014276
        k(  755) = (   0.0677644   0.0677644   0.0000000), wk =   0.0014276
        k(  756) = (   0.0662913   0.0662913   0.0000000), wk =   0.0014276
        k(  757) = (   0.0648181   0.0648181  -0.0000000), wk =   0.0014276
        k(  758) = (   0.0633450   0.0633450   0.0000000), wk =   0.0014276
        k(  759) = (   0.0618718   0.0618718   0.0000000), wk =   0.0014276
        k(  760) = (   0.0603987   0.0603987  -0.0000000), wk =   0.0014276
        k(  761) = (   0.0589256   0.0589256   0.0000000), wk =   0.0014276
        k(  762) = (   0.0574524   0.0574524   0.0000000), wk =   0.0014276
        k(  763) = (   0.0559793   0.0559793  -0.0000000), wk =   0.0014276
        k(  764) = (   0.0545061   0.0545061   0.0000000), wk =   0.0014276
        k(  765) = (   0.0530330   0.0530330   0.0000000), wk =   0.0014276
        k(  766) = (   0.0515599   0.0515599  -0.0000000), wk =   0.0014276
        k(  767) = (   0.0500867   0.0500867   0.0000000), wk =   0.0014276
        k(  768) = (   0.0486136   0.0486136   0.0000000), wk =   0.0014276
        k(  769) = (   0.0471405   0.0471405  -0.0000000), wk =   0.0014276
        k(  770) = (   0.0456673   0.0456673   0.0000000), wk =   0.0014276
        k(  771) = (   0.0441942   0.0441942   0.0000000), wk =   0.0014276
        k(  772) = (   0.0427210   0.0427210  -0.0000000), wk =   0.0014276
        k(  773) = (   0.0412479   0.0412479   0.0000000), wk =   0.0014276
        k(  774) = (   0.0397748   0.0397748   0.0000000), wk =   0.0014276
        k(  775) = (   0.0383016   0.0383016  -0.0000000), wk =   0.0014276
        k(  776) = (   0.0368285   0.0368285   0.0000000), wk =   0.0014276
        k(  777) = (   0.0353553   0.0353553   0.0000000), wk =   0.0014276
        k(  778) = (   0.0338822   0.0338822  -0.0000000), wk =   0.0014276
        k(  779) = (   0.0324091   0.0324091   0.0000000), wk =   0.0014276
        k(  780) = (   0.0309359   0.0309359   0.0000000), wk =   0.0014276
        k(  781) = (   0.0294628   0.0294628  -0.0000000), wk =   0.0014276
        k(  782) = (   0.0279896   0.0279896   0.0000000), wk =   0.0014276
        k(  783) = (   0.0265165   0.0265165   0.0000000), wk =   0.0014276
        k(  784) = (   0.0250434   0.0250434  -0.0000000), wk =   0.0014276
        k(  785) = (   0.0235702   0.0235702   0.0000000), wk =   0.0014276
        k(  786) = (   0.0220971   0.0220971   0.0000000), wk =   0.0014276
        k(  787) = (   0.0206239   0.0206239  -0.0000000), wk =   0.0014276
        k(  788) = (   0.0191508   0.0191508   0.0000000), wk =   0.0014276
        k(  789) = (   0.0176777   0.0176777   0.0000000), wk =   0.0014276
        k(  790) = (   0.0162045   0.0162045  -0.0000000), wk =   0.0014276
        k(  791) = (   0.0147314   0.0147314   0.0000000), wk =   0.0014276
        k(  792) = (   0.0132583   0.0132583   0.0000000), wk =   0.0014276
        k(  793) = (   0.0117851   0.0117851  -0.0000000), wk =   0.0014276
        k(  794) = (   0.0103120   0.0103120   0.0000000), wk =   0.0014276
        k(  795) = (   0.0088388   0.0088388   0.0000000), wk =   0.0014276
        k(  796) = (   0.0073657   0.0073657  -0.0000000), wk =   0.0014276
        k(  797) = (   0.0058926   0.0058926   0.0000000), wk =   0.0014276
        k(  798) = (   0.0044194   0.0044194   0.0000000), wk =   0.0014276
        k(  799) = (   0.0029463   0.0029463  -0.0000000), wk =   0.0014276
        k(  800) = (   0.0014731   0.0014731   0.0000000), wk =   0.0014276
        k(  801) = (   0.0000000   0.0000000   0.0000000), wk =   0.0014276
        k(  802) = (   0.0012627   0.0012627   0.0012627), wk =   0.0014276
        k(  803) = (   0.0025254   0.0025254   0.0025254), wk =   0.0014276
        k(  804) = (   0.0037881   0.0037881   0.0037881), wk =   0.0014276
        k(  805) = (   0.0050508   0.0050508   0.0050508), wk =   0.0014276
        k(  806) = (   0.0063135   0.0063135   0.0063135), wk =   0.0014276
        k(  807) = (   0.0075761   0.0075761   0.0075761), wk =   0.0014276
        k(  808) = (   0.0088388   0.0088388   0.0088388), wk =   0.0014276
        k(  809) = (   0.0101015   0.0101015   0.0101015), wk =   0.0014276
        k(  810) = (   0.0113642   0.0113642   0.0113642), wk =   0.0014276
        k(  811) = (   0.0126269   0.0126269   0.0126269), wk =   0.0014276
        k(  812) = (   0.0138896   0.0138896   0.0138896), wk =   0.0014276
        k(  813) = (   0.0151523   0.0151523   0.0151523), wk =   0.0014276
        k(  814) = (   0.0164150   0.0164150   0.0164150), wk =   0.0014276
        k(  815) = (   0.0176777   0.0176777   0.0176777), wk =   0.0014276
        k(  816) = (   0.0189404   0.0189404   0.0189404), wk =   0.0014276
        k(  817) = (   0.0202031   0.0202031   0.0202031), wk =   0.0014276
        k(  818) = (   0.0214657   0.0214657   0.0214657), wk =   0.0014276
        k(  819) = (   0.0227284   0.0227284   0.0227284), wk =   0.0014276
        k(  820) = (   0.0239911   0.0239911   0.0239911), wk =   0.0014276
        k(  821) = (   0.0252538   0.0252538   0.0252538), wk =   0.0014276
        k(  822) = (   0.0265165   0.0265165   0.0265165), wk =   0.0014276
        k(  823) = (   0.0277792   0.0277792   0.0277792), wk =   0.0014276
        k(  824) = (   0.0290419   0.0290419   0.0290419), wk =   0.0014276
        k(  825) = (   0.0303046   0.0303046   0.0303046), wk =   0.0014276
        k(  826) = (   0.0315673   0.0315673   0.0315673), wk =   0.0014276
        k(  827) = (   0.0328300   0.0328300   0.0328300), wk =   0.0014276
        k(  828) = (   0.0340926   0.0340926   0.0340926), wk =   0.0014276
        k(  829) = (   0.0353553   0.0353553   0.0353553), wk =   0.0014276
        k(  830) = (   0.0366180   0.0366180   0.0366180), wk =   0.0014276
        k(  831) = (   0.0378807   0.0378807   0.0378807), wk =   0.0014276
        k(  832) = (   0.0391434   0.0391434   0.0391434), wk =   0.0014276
        k(  833) = (   0.0404061   0.0404061   0.0404061), wk =   0.0014276
        k(  834) = (   0.0416688   0.0416688   0.0416688), wk =   0.0014276
        k(  835) = (   0.0429315   0.0429315   0.0429315), wk =   0.0014276
        k(  836) = (   0.0441942   0.0441942   0.0441942), wk =   0.0014276
        k(  837) = (   0.0454569   0.0454569   0.0454569), wk =   0.0014276
        k(  838) = (   0.0467196   0.0467196   0.0467196), wk =   0.0014276
        k(  839) = (   0.0479822   0.0479822   0.0479822), wk =   0.0014276
        k(  840) = (   0.0492449   0.0492449   0.0492449), wk =   0.0014276
        k(  841) = (   0.0505076   0.0505076   0.0505076), wk =   0.0014276
        k(  842) = (   0.0517703   0.0517703   0.0517703), wk =   0.0014276
        k(  843) = (   0.0530330   0.0530330   0.0530330), wk =   0.0014276
        k(  844) = (   0.0542957   0.0542957   0.0542957), wk =   0.0014276
        k(  845) = (   0.0555584   0.0555584   0.0555584), wk =   0.0014276
        k(  846) = (   0.0568211   0.0568211   0.0568211), wk =   0.0014276
        k(  847) = (   0.0580838   0.0580838   0.0580838), wk =   0.0014276
        k(  848) = (   0.0593465   0.0593465   0.0593465), wk =   0.0014276
        k(  849) = (   0.0606092   0.0606092   0.0606092), wk =   0.0014276
        k(  850) = (   0.0618718   0.0618718   0.0618718), wk =   0.0014276
        k(  851) = (   0.0631345   0.0631345   0.0631345), wk =   0.0014276
        k(  852) = (   0.0643972   0.0643972   0.0643972), wk =   0.0014276
        k(  853) = (   0.0656599   0.0656599   0.0656599), wk =   0.0014276
        k(  854) = (   0.0669226   0.0669226   0.0669226), wk =   0.0014276
        k(  855) = (   0.0681853   0.0681853   0.0681853), wk =   0.0014276
        k(  856) = (   0.0694480   0.0694480   0.0694480), wk =   0.0014276
        k(  857) = (   0.0707107   0.0707107   0.0707107), wk =   0.0014276
        k(  858) = (   0.0719734   0.0719734   0.0719734), wk =   0.0014276
        k(  859) = (   0.0732361   0.0732361   0.0732361), wk =   0.0014276
        k(  860) = (   0.0744988   0.0744988   0.0744988), wk =   0.0014276
        k(  861) = (   0.0757614   0.0757614   0.0757614), wk =   0.0014276
        k(  862) = (   0.0770241   0.0770241   0.0770241), wk =   0.0014276
        k(  863) = (   0.0782868   0.0782868   0.0782868), wk =   0.0014276
        k(  864) = (   0.0795495   0.0795495   0.0795495), wk =   0.0014276
        k(  865) = (   0.0808122   0.0808122   0.0808122), wk =   0.0014276
        k(  866) = (   0.0820749   0.0820749   0.0820749), wk =   0.0014276
        k(  867) = (   0.0833376   0.0833376   0.0833376), wk =   0.0014276
        k(  868) = (   0.0846003   0.0846003   0.0846003), wk =   0.0014276
        k(  869) = (   0.0858630   0.0858630   0.0858630), wk =   0.0014276
        k(  870) = (   0.0871257   0.0871257   0.0871257), wk =   0.0014276
        k(  871) = (   0.0883883   0.0883883   0.0883883), wk =   0.0014276
        k(  872) = (   0.0896510   0.0896510   0.0896510), wk =   0.0014276
        k(  873) = (   0.0909137   0.0909137   0.0909137), wk =   0.0014276
        k(  874) = (   0.0921764   0.0921764   0.0921764), wk =   0.0014276
        k(  875) = (   0.0934391   0.0934391   0.0934391), wk =   0.0014276
        k(  876) = (   0.0947018   0.0947018   0.0947018), wk =   0.0014276
        k(  877) = (   0.0959645   0.0959645   0.0959645), wk =   0.0014276
        k(  878) = (   0.0972272   0.0972272   0.0972272), wk =   0.0014276
        k(  879) = (   0.0984899   0.0984899   0.0984899), wk =   0.0014276
        k(  880) = (   0.0997526   0.0997526   0.0997526), wk =   0.0014276
        k(  881) = (   0.1010153   0.1010153   0.1010153), wk =   0.0014276
        k(  882) = (   0.1022779   0.1022779   0.1022779), wk =   0.0014276
        k(  883) = (   0.1035406   0.1035406   0.1035406), wk =   0.0014276
        k(  884) = (   0.1048033   0.1048033   0.1048033), wk =   0.0014276
        k(  885) = (   0.1060660   0.1060660   0.1060660), wk =   0.0014276
        k(  886) = (   0.1073287   0.1073287   0.1073287), wk =   0.0014276
        k(  887) = (   0.1085914   0.1085914   0.1085914), wk =   0.0014276
        k(  888) = (   0.1098541   0.1098541   0.1098541), wk =   0.0014276
        k(  889) = (   0.1111168   0.1111168   0.1111168), wk =   0.0014276
        k(  890) = (   0.1123795   0.1123795   0.1123795), wk =   0.0014276
        k(  891) = (   0.1136422   0.1136422   0.1136422), wk =   0.0014276
        k(  892) = (   0.1149049   0.1149049   0.1149049), wk =   0.0014276
        k(  893) = (   0.1161675   0.1161675   0.1161675), wk =   0.0014276
        k(  894) = (   0.1174302   0.1174302   0.1174302), wk =   0.0014276
        k(  895) = (   0.1186929   0.1186929   0.1186929), wk =   0.0014276
        k(  896) = (   0.1199556   0.1199556   0.1199556), wk =   0.0014276
        k(  897) = (   0.1212183   0.1212183   0.1212183), wk =   0.0014276
        k(  898) = (   0.1224810   0.1224810   0.1224810), wk =   0.0014276
        k(  899) = (   0.1237437   0.1237437   0.1237437), wk =   0.0014276
        k(  900) = (   0.1250064   0.1250064   0.1250064), wk =   0.0014276
        k(  901) = (   0.1262691   0.1262691   0.1262691), wk =   0.0014276
        k(  902) = (   0.1275318   0.1275318   0.1275318), wk =   0.0014276
        k(  903) = (   0.1287944   0.1287944   0.1287944), wk =   0.0014276
        k(  904) = (   0.1300571   0.1300571   0.1300571), wk =   0.0014276
        k(  905) = (   0.1313198   0.1313198   0.1313198), wk =   0.0014276
        k(  906) = (   0.1325825   0.1325825   0.1325825), wk =   0.0014276
        k(  907) = (   0.1338452   0.1338452   0.1338452), wk =   0.0014276
        k(  908) = (   0.1351079   0.1351079   0.1351079), wk =   0.0014276
        k(  909) = (   0.1363706   0.1363706   0.1363706), wk =   0.0014276
        k(  910) = (   0.1376333   0.1376333   0.1376333), wk =   0.0014276
        k(  911) = (   0.1388960   0.1388960   0.1388960), wk =   0.0014276
        k(  912) = (   0.1401587   0.1401587   0.1401587), wk =   0.0014276
        k(  913) = (   0.1414214   0.1414214   0.1414214), wk =   0.0014276
        k(  914) = (   0.1426840   0.1426840   0.1426840), wk =   0.0014276
        k(  915) = (   0.1439467   0.1439467   0.1439467), wk =   0.0014276
        k(  916) = (   0.1452094   0.1452094   0.1452094), wk =   0.0014276
        k(  917) = (   0.1464721   0.1464721   0.1464721), wk =   0.0014276
        k(  918) = (   0.1477348   0.1477348   0.1477348), wk =   0.0014276
        k(  919) = (   0.1489975   0.1489975   0.1489975), wk =   0.0014276
        k(  920) = (   0.1502602   0.1502602   0.1502602), wk =   0.0014276
        k(  921) = (   0.1515229   0.1515229   0.1515229), wk =   0.0014276
        k(  922) = (   0.1527856   0.1527856   0.1527856), wk =   0.0014276
        k(  923) = (   0.1540483   0.1540483   0.1540483), wk =   0.0014276
        k(  924) = (   0.1553110   0.1553110   0.1553110), wk =   0.0014276
        k(  925) = (   0.1565736   0.1565736   0.1565736), wk =   0.0014276
        k(  926) = (   0.1578363   0.1578363   0.1578363), wk =   0.0014276
        k(  927) = (   0.1590990   0.1590990   0.1590990), wk =   0.0014276
        k(  928) = (   0.1603617   0.1603617   0.1603617), wk =   0.0014276
        k(  929) = (   0.1616244   0.1616244   0.1616244), wk =   0.0014276
        k(  930) = (   0.1628871   0.1628871   0.1628871), wk =   0.0014276
        k(  931) = (   0.1641498   0.1641498   0.1641498), wk =   0.0014276
        k(  932) = (   0.1654125   0.1654125   0.1654125), wk =   0.0014276
        k(  933) = (   0.1666752   0.1666752   0.1666752), wk =   0.0014276
        k(  934) = (   0.1679379   0.1679379   0.1679379), wk =   0.0014276
        k(  935) = (   0.1692006   0.1692006   0.1692006), wk =   0.0014276
        k(  936) = (   0.1704632   0.1704632   0.1704632), wk =   0.0014276
        k(  937) = (   0.1717259   0.1717259   0.1717259), wk =   0.0014276
        k(  938) = (   0.1729886   0.1729886   0.1729886), wk =   0.0014276
        k(  939) = (   0.1742513   0.1742513   0.1742513), wk =   0.0014276
        k(  940) = (   0.1755140   0.1755140   0.1755140), wk =   0.0014276
        k(  941) = (   0.1767767   0.1767767   0.1767767), wk =   0.0014276
        k(  942) = (   0.1780394   0.1780394   0.1780394), wk =   0.0014276
        k(  943) = (   0.1793021   0.1793021   0.1793021), wk =   0.0014276
        k(  944) = (   0.1805648   0.1805648   0.1805648), wk =   0.0014276
        k(  945) = (   0.1818275   0.1818275   0.1818275), wk =   0.0014276
        k(  946) = (   0.1830901   0.1830901   0.1830901), wk =   0.0014276
        k(  947) = (   0.1843528   0.1843528   0.1843528), wk =   0.0014276
        k(  948) = (   0.1856155   0.1856155   0.1856155), wk =   0.0014276
        k(  949) = (   0.1868782   0.1868782   0.1868782), wk =   0.0014276
        k(  950) = (   0.1881409   0.1881409   0.1881409), wk =   0.0014276
        k(  951) = (   0.1894036   0.1894036   0.1894036), wk =   0.0014276
        k(  952) = (   0.1906663   0.1906663   0.1906663), wk =   0.0014276
        k(  953) = (   0.1919290   0.1919290   0.1919290), wk =   0.0014276
        k(  954) = (   0.1931917   0.1931917   0.1931917), wk =   0.0014276
        k(  955) = (   0.1944544   0.1944544   0.1944544), wk =   0.0014276
        k(  956) = (   0.1957171   0.1957171   0.1957171), wk =   0.0014276
        k(  957) = (   0.1969797   0.1969797   0.1969797), wk =   0.0014276
        k(  958) = (   0.1982424   0.1982424   0.1982424), wk =   0.0014276
        k(  959) = (   0.1995051   0.1995051   0.1995051), wk =   0.0014276
        k(  960) = (   0.2007678   0.2007678   0.2007678), wk =   0.0014276
        k(  961) = (   0.2020305   0.2020305   0.2020305), wk =   0.0014276
        k(  962) = (   0.2032932   0.2032932   0.2032932), wk =   0.0014276
        k(  963) = (   0.2045559   0.2045559   0.2045559), wk =   0.0014276
        k(  964) = (   0.2058186   0.2058186   0.2058186), wk =   0.0014276
        k(  965) = (   0.2070813   0.2070813   0.2070813), wk =   0.0014276
        k(  966) = (   0.2083440   0.2083440   0.2083440), wk =   0.0014276
        k(  967) = (   0.2096067   0.2096067   0.2096067), wk =   0.0014276
        k(  968) = (   0.2108693   0.2108693   0.2108693), wk =   0.0014276
        k(  969) = (   0.2121320   0.2121320   0.2121320), wk =   0.0014276
        k(  970) = (   0.2133947   0.2133947   0.2133947), wk =   0.0014276
        k(  971) = (   0.2146574   0.2146574   0.2146574), wk =   0.0014276
        k(  972) = (   0.2159201   0.2159201   0.2159201), wk =   0.0014276
        k(  973) = (   0.2171828   0.2171828   0.2171828), wk =   0.0014276
        k(  974) = (   0.2184455   0.2184455   0.2184455), wk =   0.0014276
        k(  975) = (   0.2197082   0.2197082   0.2197082), wk =   0.0014276
        k(  976) = (   0.2209709   0.2209709   0.2209709), wk =   0.0014276
        k(  977) = (   0.2222336   0.2222336   0.2222336), wk =   0.0014276
        k(  978) = (   0.2234963   0.2234963   0.2234963), wk =   0.0014276
        k(  979) = (   0.2247589   0.2247589   0.2247589), wk =   0.0014276
        k(  980) = (   0.2260216   0.2260216   0.2260216), wk =   0.0014276
        k(  981) = (   0.2272843   0.2272843   0.2272843), wk =   0.0014276
        k(  982) = (   0.2285470   0.2285470   0.2285470), wk =   0.0014276
        k(  983) = (   0.2298097   0.2298097   0.2298097), wk =   0.0014276
        k(  984) = (   0.2310724   0.2310724   0.2310724), wk =   0.0014276
        k(  985) = (   0.2323351   0.2323351   0.2323351), wk =   0.0014276
        k(  986) = (   0.2335978   0.2335978   0.2335978), wk =   0.0014276
        k(  987) = (   0.2348605   0.2348605   0.2348605), wk =   0.0014276
        k(  988) = (   0.2361232   0.2361232   0.2361232), wk =   0.0014276
        k(  989) = (   0.2373858   0.2373858   0.2373858), wk =   0.0014276
        k(  990) = (   0.2386485   0.2386485   0.2386485), wk =   0.0014276
        k(  991) = (   0.2399112   0.2399112   0.2399112), wk =   0.0014276
        k(  992) = (   0.2411739   0.2411739   0.2411739), wk =   0.0014276
        k(  993) = (   0.2424366   0.2424366   0.2424366), wk =   0.0014276
        k(  994) = (   0.2436993   0.2436993   0.2436993), wk =   0.0014276
        k(  995) = (   0.2449620   0.2449620   0.2449620), wk =   0.0014276
        k(  996) = (   0.2462247   0.2462247   0.2462247), wk =   0.0014276
        k(  997) = (   0.2474874   0.2474874   0.2474874), wk =   0.0014276
        k(  998) = (   0.2487501   0.2487501   0.2487501), wk =   0.0014276
        k(  999) = (   0.2500128   0.2500128   0.2500128), wk =   0.0014276
        k( 1000) = (   0.2512754   0.2512754   0.2512754), wk =   0.0014276
        k( 1001) = (   0.2525381   0.2525381   0.2525381), wk =   0.0014276
        k( 1002) = (   0.2538008   0.2538008   0.2538008), wk =   0.0014276
        k( 1003) = (   0.2550635   0.2550635   0.2550635), wk =   0.0014276
        k( 1004) = (   0.2563262   0.2563262   0.2563262), wk =   0.0014276
        k( 1005) = (   0.2575889   0.2575889   0.2575889), wk =   0.0014276
        k( 1006) = (   0.2588516   0.2588516   0.2588516), wk =   0.0014276
        k( 1007) = (   0.2601143   0.2601143   0.2601143), wk =   0.0014276
        k( 1008) = (   0.2613770   0.2613770   0.2613770), wk =   0.0014276
        k( 1009) = (   0.2626397   0.2626397   0.2626397), wk =   0.0014276
        k( 1010) = (   0.2639024   0.2639024   0.2639024), wk =   0.0014276
        k( 1011) = (   0.2651650   0.2651650   0.2651650), wk =   0.0014276
        k( 1012) = (   0.2664277   0.2664277   0.2664277), wk =   0.0014276
        k( 1013) = (   0.2676904   0.2676904   0.2676904), wk =   0.0014276
        k( 1014) = (   0.2689531   0.2689531   0.2689531), wk =   0.0014276
        k( 1015) = (   0.2702158   0.2702158   0.2702158), wk =   0.0014276
        k( 1016) = (   0.2714785   0.2714785   0.2714785), wk =   0.0014276
        k( 1017) = (   0.2727412   0.2727412   0.2727412), wk =   0.0014276
        k( 1018) = (   0.2740039   0.2740039   0.2740039), wk =   0.0014276
        k( 1019) = (   0.2752666   0.2752666   0.2752666), wk =   0.0014276
        k( 1020) = (   0.2765293   0.2765293   0.2765293), wk =   0.0014276
        k( 1021) = (   0.2777919   0.2777919   0.2777919), wk =   0.0014276
        k( 1022) = (   0.2790546   0.2790546   0.2790546), wk =   0.0014276
        k( 1023) = (   0.2803173   0.2803173   0.2803173), wk =   0.0014276
        k( 1024) = (   0.2815800   0.2815800   0.2815800), wk =   0.0014276
        k( 1025) = (   0.2828427   0.2828427   0.2828427), wk =   0.0014276
        k( 1026) = (   0.2841054   0.2841054   0.2841054), wk =   0.0014276
        k( 1027) = (   0.2853681   0.2853681   0.2853681), wk =   0.0014276
        k( 1028) = (   0.2866308   0.2866308   0.2866308), wk =   0.0014276
        k( 1029) = (   0.2878935   0.2878935   0.2878935), wk =   0.0014276
        k( 1030) = (   0.2891562   0.2891562   0.2891562), wk =   0.0014276
        k( 1031) = (   0.2904189   0.2904189   0.2904189), wk =   0.0014276
        k( 1032) = (   0.2916815   0.2916815   0.2916815), wk =   0.0014276
        k( 1033) = (   0.2929442   0.2929442   0.2929442), wk =   0.0014276
        k( 1034) = (   0.2942069   0.2942069   0.2942069), wk =   0.0014276
        k( 1035) = (   0.2954696   0.2954696   0.2954696), wk =   0.0014276
        k( 1036) = (   0.2967323   0.2967323   0.2967323), wk =   0.0014276
        k( 1037) = (   0.2979950   0.2979950   0.2979950), wk =   0.0014276
        k( 1038) = (   0.2992577   0.2992577   0.2992577), wk =   0.0014276
        k( 1039) = (   0.3005204   0.3005204   0.3005204), wk =   0.0014276
        k( 1040) = (   0.3017831   0.3017831   0.3017831), wk =   0.0014276
        k( 1041) = (   0.3030458   0.3030458   0.3030458), wk =   0.0014276
        k( 1042) = (   0.3043085   0.3043085   0.3043085), wk =   0.0014276
        k( 1043) = (   0.3055711   0.3055711   0.3055711), wk =   0.0014276
        k( 1044) = (   0.3068338   0.3068338   0.3068338), wk =   0.0014276
        k( 1045) = (   0.3080965   0.3080965   0.3080965), wk =   0.0014276
        k( 1046) = (   0.3093592   0.3093592   0.3093592), wk =   0.0014276
        k( 1047) = (   0.3106219   0.3106219   0.3106219), wk =   0.0014276
        k( 1048) = (   0.3118846   0.3118846   0.3118846), wk =   0.0014276
        k( 1049) = (   0.3131473   0.3131473   0.3131473), wk =   0.0014276
        k( 1050) = (   0.3144100   0.3144100   0.3144100), wk =   0.0014276
        k( 1051) = (   0.3156727   0.3156727   0.3156727), wk =   0.0014276
        k( 1052) = (   0.3169354   0.3169354   0.3169354), wk =   0.0014276
        k( 1053) = (   0.3181981   0.3181981   0.3181981), wk =   0.0014276
        k( 1054) = (   0.3194607   0.3194607   0.3194607), wk =   0.0014276
        k( 1055) = (   0.3207234   0.3207234   0.3207234), wk =   0.0014276
        k( 1056) = (   0.3219861   0.3219861   0.3219861), wk =   0.0014276
        k( 1057) = (   0.3232488   0.3232488   0.3232488), wk =   0.0014276
        k( 1058) = (   0.3245115   0.3245115   0.3245115), wk =   0.0014276
        k( 1059) = (   0.3257742   0.3257742   0.3257742), wk =   0.0014276
        k( 1060) = (   0.3270369   0.3270369   0.3270369), wk =   0.0014276
        k( 1061) = (   0.3282996   0.3282996   0.3282996), wk =   0.0014276
        k( 1062) = (   0.3295623   0.3295623   0.3295623), wk =   0.0014276
        k( 1063) = (   0.3308250   0.3308250   0.3308250), wk =   0.0014276
        k( 1064) = (   0.3320876   0.3320876   0.3320876), wk =   0.0014276
        k( 1065) = (   0.3333503   0.3333503   0.3333503), wk =   0.0014276
        k( 1066) = (   0.3346130   0.3346130   0.3346130), wk =   0.0014276
        k( 1067) = (   0.3358757   0.3358757   0.3358757), wk =   0.0014276
        k( 1068) = (   0.3371384   0.3371384   0.3371384), wk =   0.0014276
        k( 1069) = (   0.3384011   0.3384011   0.3384011), wk =   0.0014276
        k( 1070) = (   0.3396638   0.3396638   0.3396638), wk =   0.0014276
        k( 1071) = (   0.3409265   0.3409265   0.3409265), wk =   0.0014276
        k( 1072) = (   0.3421892   0.3421892   0.3421892), wk =   0.0014276
        k( 1073) = (   0.3434519   0.3434519   0.3434519), wk =   0.0014276
        k( 1074) = (   0.3447146   0.3447146   0.3447146), wk =   0.0014276
        k( 1075) = (   0.3459772   0.3459772   0.3459772), wk =   0.0014276
        k( 1076) = (   0.3472399   0.3472399   0.3472399), wk =   0.0014276
        k( 1077) = (   0.3485026   0.3485026   0.3485026), wk =   0.0014276
        k( 1078) = (   0.3497653   0.3497653   0.3497653), wk =   0.0014276
        k( 1079) = (   0.3510280   0.3510280   0.3510280), wk =   0.0014276
        k( 1080) = (   0.3522907   0.3522907   0.3522907), wk =   0.0014276
        k( 1081) = (   0.3535534   0.3535534   0.3535534), wk =   0.0014276
        k( 1082) = (   0.3535534   0.3553212   0.3517856), wk =   0.0014276
        k( 1083) = (   0.3535534   0.3570889   0.3500179), wk =   0.0014276
        k( 1084) = (   0.3535534   0.3588567   0.3482501), wk =   0.0014276
        k( 1085) = (   0.3535534   0.3606245   0.3464823), wk =   0.0014276
        k( 1086) = (   0.3535534   0.3623922   0.3447146), wk =   0.0014276
        k( 1087) = (   0.3535534   0.3641600   0.3429468), wk =   0.0014276
        k( 1088) = (   0.3535534   0.3659278   0.3411790), wk =   0.0014276
        k( 1089) = (   0.3535534   0.3676955   0.3394113), wk =   0.0014276
        k( 1090) = (   0.3535534   0.3694633   0.3376435), wk =   0.0014276
        k( 1091) = (   0.3535534   0.3712311   0.3358757), wk =   0.0014276
        k( 1092) = (   0.3535534   0.3729988   0.3341080), wk =   0.0014276
        k( 1093) = (   0.3535534   0.3747666   0.3323402), wk =   0.0014276
        k( 1094) = (   0.3535534   0.3765344   0.3305724), wk =   0.0014276
        k( 1095) = (   0.3535534   0.3783021   0.3288047), wk =   0.0014276
        k( 1096) = (   0.3535534   0.3800699   0.3270369), wk =   0.0014276
        k( 1097) = (   0.3535534   0.3818377   0.3252691), wk =   0.0014276
        k( 1098) = (   0.3535534   0.3836054   0.3235014), wk =   0.0014276
        k( 1099) = (   0.3535534   0.3853732   0.3217336), wk =   0.0014276
        k( 1100) = (   0.3535534   0.3871410   0.3199658), wk =   0.0014276
        k( 1101) = (   0.3535534   0.3889087   0.3181981), wk =   0.0014276
        k( 1102) = (   0.3535534   0.3906765   0.3164303), wk =   0.0014276
        k( 1103) = (   0.3535534   0.3924443   0.3146625), wk =   0.0014276
        k( 1104) = (   0.3535534   0.3942120   0.3128948), wk =   0.0014276
        k( 1105) = (   0.3535534   0.3959798   0.3111270), wk =   0.0014276
        k( 1106) = (   0.3535534   0.3977476   0.3093592), wk =   0.0014276
        k( 1107) = (   0.3535534   0.3995153   0.3075914), wk =   0.0014276
        k( 1108) = (   0.3535534   0.4012831   0.3058237), wk =   0.0014276
        k( 1109) = (   0.3535534   0.4030509   0.3040559), wk =   0.0014276
        k( 1110) = (   0.3535534   0.4048186   0.3022881), wk =   0.0014276
        k( 1111) = (   0.3535534   0.4065864   0.3005204), wk =   0.0014276
        k( 1112) = (   0.3535534   0.4083542   0.2987526), wk =   0.0014276
        k( 1113) = (   0.3535534   0.4101219   0.2969848), wk =   0.0014276
        k( 1114) = (   0.3535534   0.4118897   0.2952171), wk =   0.0014276
        k( 1115) = (   0.3535534   0.4136575   0.2934493), wk =   0.0014276
        k( 1116) = (   0.3535534   0.4154252   0.2916815), wk =   0.0014276
        k( 1117) = (   0.3535534   0.4171930   0.2899138), wk =   0.0014276
        k( 1118) = (   0.3535534   0.4189608   0.2881460), wk =   0.0014276
        k( 1119) = (   0.3535534   0.4207285   0.2863782), wk =   0.0014276
        k( 1120) = (   0.3535534   0.4224963   0.2846105), wk =   0.0014276
        k( 1121) = (   0.3535534   0.4242641   0.2828427), wk =   0.0014276
        k( 1122) = (   0.3535534   0.4260318   0.2810749), wk =   0.0014276
        k( 1123) = (   0.3535534   0.4277996   0.2793072), wk =   0.0014276
        k( 1124) = (   0.3535534   0.4295674   0.2775394), wk =   0.0014276
        k( 1125) = (   0.3535534   0.4313351   0.2757716), wk =   0.0014276
        k( 1126) = (   0.3535534   0.4331029   0.2740039), wk =   0.0014276
        k( 1127) = (   0.3535534   0.4348707   0.2722361), wk =   0.0014276
        k( 1128) = (   0.3535534   0.4366384   0.2704683), wk =   0.0014276
        k( 1129) = (   0.3535534   0.4384062   0.2687006), wk =   0.0014276
        k( 1130) = (   0.3535534   0.4401740   0.2669328), wk =   0.0014276
        k( 1131) = (   0.3535534   0.4419417   0.2651650), wk =   0.0014276
        k( 1132) = (   0.3535534   0.4437095   0.2633973), wk =   0.0014276
        k( 1133) = (   0.3535534   0.4454773   0.2616295), wk =   0.0014276
        k( 1134) = (   0.3535534   0.4472450   0.2598617), wk =   0.0014276
        k( 1135) = (   0.3535534   0.4490128   0.2580940), wk =   0.0014276
        k( 1136) = (   0.3535534   0.4507806   0.2563262), wk =   0.0014276
        k( 1137) = (   0.3535534   0.4525483   0.2545584), wk =   0.0014276
        k( 1138) = (   0.3535534   0.4543161   0.2527907), wk =   0.0014276
        k( 1139) = (   0.3535534   0.4560839   0.2510229), wk =   0.0014276
        k( 1140) = (   0.3535534   0.4578516   0.2492551), wk =   0.0014276
        k( 1141) = (   0.3535534   0.4596194   0.2474874), wk =   0.0014276
        k( 1142) = (   0.3535534   0.4613872   0.2457196), wk =   0.0014276
        k( 1143) = (   0.3535534   0.4631549   0.2439518), wk =   0.0014276
        k( 1144) = (   0.3535534   0.4649227   0.2421841), wk =   0.0014276
        k( 1145) = (   0.3535534   0.4666905   0.2404163), wk =   0.0014276
        k( 1146) = (   0.3535534   0.4684582   0.2386485), wk =   0.0014276
        k( 1147) = (   0.3535534   0.4702260   0.2368808), wk =   0.0014276
        k( 1148) = (   0.3535534   0.4719938   0.2351130), wk =   0.0014276
        k( 1149) = (   0.3535534   0.4737615   0.2333452), wk =   0.0014276
        k( 1150) = (   0.3535534   0.4755293   0.2315775), wk =   0.0014276
        k( 1151) = (   0.3535534   0.4772971   0.2298097), wk =   0.0014276
        k( 1152) = (   0.3535534   0.4790648   0.2280419), wk =   0.0014276
        k( 1153) = (   0.3535534   0.4808326   0.2262742), wk =   0.0014276
        k( 1154) = (   0.3535534   0.4826004   0.2245064), wk =   0.0014276
        k( 1155) = (   0.3535534   0.4843681   0.2227386), wk =   0.0014276
        k( 1156) = (   0.3535534   0.4861359   0.2209709), wk =   0.0014276
        k( 1157) = (   0.3535534   0.4879037   0.2192031), wk =   0.0014276
        k( 1158) = (   0.3535534   0.4896714   0.2174353), wk =   0.0014276
        k( 1159) = (   0.3535534   0.4914392   0.2156676), wk =   0.0014276
        k( 1160) = (   0.3535534   0.4932070   0.2138998), wk =   0.0014276
        k( 1161) = (   0.3535534   0.4949747   0.2121320), wk =   0.0014276
        k( 1162) = (   0.3535534   0.4967425   0.2103643), wk =   0.0014276
        k( 1163) = (   0.3535534   0.4985103   0.2085965), wk =   0.0014276
        k( 1164) = (   0.3535534   0.5002780   0.2068287), wk =   0.0014276
        k( 1165) = (   0.3535534   0.5020458   0.2050610), wk =   0.0014276
        k( 1166) = (   0.3535534   0.5038136   0.2032932), wk =   0.0014276
        k( 1167) = (   0.3535534   0.5055813   0.2015254), wk =   0.0014276
        k( 1168) = (   0.3535534   0.5073491   0.1997577), wk =   0.0014276
        k( 1169) = (   0.3535534   0.5091169   0.1979899), wk =   0.0014276
        k( 1170) = (   0.3535534   0.5108846   0.1962221), wk =   0.0014276
        k( 1171) = (   0.3535534   0.5126524   0.1944544), wk =   0.0014276
        k( 1172) = (   0.3535534   0.5144202   0.1926866), wk =   0.0014276
        k( 1173) = (   0.3535534   0.5161880   0.1909188), wk =   0.0014276
        k( 1174) = (   0.3535534   0.5179557   0.1891511), wk =   0.0014276
        k( 1175) = (   0.3535534   0.5197235   0.1873833), wk =   0.0014276
        k( 1176) = (   0.3535534   0.5214913   0.1856155), wk =   0.0014276
        k( 1177) = (   0.3535534   0.5232590   0.1838478), wk =   0.0014276
        k( 1178) = (   0.3535534   0.5250268   0.1820800), wk =   0.0014276
        k( 1179) = (   0.3535534   0.5267946   0.1803122), wk =   0.0014276
        k( 1180) = (   0.3535534   0.5285623   0.1785445), wk =   0.0014276
        k( 1181) = (   0.3535534   0.5303301   0.1767767), wk =   0.0014276
        k( 1182) = (   0.3535534   0.5320979   0.1750089), wk =   0.0014276
        k( 1183) = (   0.3535534   0.5338656   0.1732412), wk =   0.0014276
        k( 1184) = (   0.3535534   0.5356334   0.1714734), wk =   0.0014276
        k( 1185) = (   0.3535534   0.5374012   0.1697056), wk =   0.0014276
        k( 1186) = (   0.3535534   0.5391689   0.1679379), wk =   0.0014276
        k( 1187) = (   0.3535534   0.5409367   0.1661701), wk =   0.0014276
        k( 1188) = (   0.3535534   0.5427045   0.1644023), wk =   0.0014276
        k( 1189) = (   0.3535534   0.5444722   0.1626346), wk =   0.0014276
        k( 1190) = (   0.3535534   0.5462400   0.1608668), wk =   0.0014276
        k( 1191) = (   0.3535534   0.5480078   0.1590990), wk =   0.0014276
        k( 1192) = (   0.3535534   0.5497755   0.1573313), wk =   0.0014276
        k( 1193) = (   0.3535534   0.5515433   0.1555635), wk =   0.0014276
        k( 1194) = (   0.3535534   0.5533111   0.1537957), wk =   0.0014276
        k( 1195) = (   0.3535534   0.5550788   0.1520280), wk =   0.0014276
        k( 1196) = (   0.3535534   0.5568466   0.1502602), wk =   0.0014276
        k( 1197) = (   0.3535534   0.5586144   0.1484924), wk =   0.0014276
        k( 1198) = (   0.3535534   0.5603821   0.1467247), wk =   0.0014276
        k( 1199) = (   0.3535534   0.5621499   0.1449569), wk =   0.0014276
        k( 1200) = (   0.3535534   0.5639177   0.1431891), wk =   0.0014276
        k( 1201) = (   0.3535534   0.5656854   0.1414214), wk =   0.0014276
        k( 1202) = (   0.3535534   0.5674532   0.1396536), wk =   0.0014276
        k( 1203) = (   0.3535534   0.5692210   0.1378858), wk =   0.0014276
        k( 1204) = (   0.3535534   0.5709887   0.1361181), wk =   0.0014276
        k( 1205) = (   0.3535534   0.5727565   0.1343503), wk =   0.0014276
        k( 1206) = (   0.3535534   0.5745243   0.1325825), wk =   0.0014276
        k( 1207) = (   0.3535534   0.5762920   0.1308148), wk =   0.0014276
        k( 1208) = (   0.3535534   0.5780598   0.1290470), wk =   0.0014276
        k( 1209) = (   0.3535534   0.5798276   0.1272792), wk =   0.0014276
        k( 1210) = (   0.3535534   0.5815953   0.1255115), wk =   0.0014276
        k( 1211) = (   0.3535534   0.5833631   0.1237437), wk =   0.0014276
        k( 1212) = (   0.3535534   0.5851309   0.1219759), wk =   0.0014276
        k( 1213) = (   0.3535534   0.5868986   0.1202082), wk =   0.0014276
        k( 1214) = (   0.3535534   0.5886664   0.1184404), wk =   0.0014276
        k( 1215) = (   0.3535534   0.5904342   0.1166726), wk =   0.0014276
        k( 1216) = (   0.3535534   0.5922019   0.1149049), wk =   0.0014276
        k( 1217) = (   0.3535534   0.5939697   0.1131371), wk =   0.0014276
        k( 1218) = (   0.3535534   0.5957375   0.1113693), wk =   0.0014276
        k( 1219) = (   0.3535534   0.5975052   0.1096016), wk =   0.0014276
        k( 1220) = (   0.3535534   0.5992730   0.1078338), wk =   0.0014276
        k( 1221) = (   0.3535534   0.6010408   0.1060660), wk =   0.0014276
        k( 1222) = (   0.3535534   0.6028085   0.1042983), wk =   0.0014276
        k( 1223) = (   0.3535534   0.6045763   0.1025305), wk =   0.0014276
        k( 1224) = (   0.3535534   0.6063441   0.1007627), wk =   0.0014276
        k( 1225) = (   0.3535534   0.6081118   0.0989949), wk =   0.0014276
        k( 1226) = (   0.3535534   0.6098796   0.0972272), wk =   0.0014276
        k( 1227) = (   0.3535534   0.6116474   0.0954594), wk =   0.0014276
        k( 1228) = (   0.3535534   0.6134151   0.0936916), wk =   0.0014276
        k( 1229) = (   0.3535534   0.6151829   0.0919239), wk =   0.0014276
        k( 1230) = (   0.3535534   0.6169507   0.0901561), wk =   0.0014276
        k( 1231) = (   0.3535534   0.6187184   0.0883883), wk =   0.0014276
        k( 1232) = (   0.3535534   0.6204862   0.0866206), wk =   0.0014276
        k( 1233) = (   0.3535534   0.6222540   0.0848528), wk =   0.0014276
        k( 1234) = (   0.3535534   0.6240217   0.0830850), wk =   0.0014276
        k( 1235) = (   0.3535534   0.6257895   0.0813173), wk =   0.0014276
        k( 1236) = (   0.3535534   0.6275573   0.0795495), wk =   0.0014276
        k( 1237) = (   0.3535534   0.6293250   0.0777817), wk =   0.0014276
        k( 1238) = (   0.3535534   0.6310928   0.0760140), wk =   0.0014276
        k( 1239) = (   0.3535534   0.6328606   0.0742462), wk =   0.0014276
        k( 1240) = (   0.3535534   0.6346283   0.0724784), wk =   0.0014276
        k( 1241) = (   0.3535534   0.6363961   0.0707107), wk =   0.0014276
        k( 1242) = (   0.3535534   0.6381639   0.0689429), wk =   0.0014276
        k( 1243) = (   0.3535534   0.6399316   0.0671751), wk =   0.0014276
        k( 1244) = (   0.3535534   0.6416994   0.0654074), wk =   0.0014276
        k( 1245) = (   0.3535534   0.6434672   0.0636396), wk =   0.0014276
        k( 1246) = (   0.3535534   0.6452349   0.0618718), wk =   0.0014276
        k( 1247) = (   0.3535534   0.6470027   0.0601041), wk =   0.0014276
        k( 1248) = (   0.3535534   0.6487705   0.0583363), wk =   0.0014276
        k( 1249) = (   0.3535534   0.6505382   0.0565685), wk =   0.0014276
        k( 1250) = (   0.3535534   0.6523060   0.0548008), wk =   0.0014276
        k( 1251) = (   0.3535534   0.6540738   0.0530330), wk =   0.0014276
        k( 1252) = (   0.3535534   0.6558415   0.0512652), wk =   0.0014276
        k( 1253) = (   0.3535534   0.6576093   0.0494975), wk =   0.0014276
        k( 1254) = (   0.3535534   0.6593771   0.0477297), wk =   0.0014276
        k( 1255) = (   0.3535534   0.6611448   0.0459619), wk =   0.0014276
        k( 1256) = (   0.3535534   0.6629126   0.0441942), wk =   0.0014276
        k( 1257) = (   0.3535534   0.6646804   0.0424264), wk =   0.0014276
        k( 1258) = (   0.3535534   0.6664481   0.0406586), wk =   0.0014276
        k( 1259) = (   0.3535534   0.6682159   0.0388909), wk =   0.0014276
        k( 1260) = (   0.3535534   0.6699837   0.0371231), wk =   0.0014276
        k( 1261) = (   0.3535534   0.6717514   0.0353553), wk =   0.0014276
        k( 1262) = (   0.3535534   0.6735192   0.0335876), wk =   0.0014276
        k( 1263) = (   0.3535534   0.6752870   0.0318198), wk =   0.0014276
        k( 1264) = (   0.3535534   0.6770547   0.0300520), wk =   0.0014276
        k( 1265) = (   0.3535534   0.6788225   0.0282843), wk =   0.0014276
        k( 1266) = (   0.3535534   0.6805903   0.0265165), wk =   0.0014276
        k( 1267) = (   0.3535534   0.6823580   0.0247487), wk =   0.0014276
        k( 1268) = (   0.3535534   0.6841258   0.0229810), wk =   0.0014276
        k( 1269) = (   0.3535534   0.6858936   0.0212132), wk =   0.0014276
        k( 1270) = (   0.3535534   0.6876613   0.0194454), wk =   0.0014276
        k( 1271) = (   0.3535534   0.6894291   0.0176777), wk =   0.0014276
        k( 1272) = (   0.3535534   0.6911969   0.0159099), wk =   0.0014276
        k( 1273) = (   0.3535534   0.6929646   0.0141421), wk =   0.0014276
        k( 1274) = (   0.3535534   0.6947324   0.0123744), wk =   0.0014276
        k( 1275) = (   0.3535534   0.6965002   0.0106066), wk =   0.0014276
        k( 1276) = (   0.3535534   0.6982679   0.0088388), wk =   0.0014276
        k( 1277) = (   0.3535534   0.7000357   0.0070711), wk =   0.0014276
        k( 1278) = (   0.3535534   0.7018035   0.0053033), wk =   0.0014276
        k( 1279) = (   0.3535534   0.7035712   0.0035355), wk =   0.0014276
        k( 1280) = (   0.3535534   0.7053390   0.0017678), wk =   0.0014276
        k( 1281) = (   0.3535534   0.7071068   0.0000000), wk =   0.0014276
        k( 1282) = (   0.3506071   0.7071068   0.0000000), wk =   0.0014276
        k( 1283) = (   0.3476608   0.7071068   0.0000000), wk =   0.0014276
        k( 1284) = (   0.3447146   0.7071068   0.0000000), wk =   0.0014276
        k( 1285) = (   0.3417683   0.7071068   0.0000000), wk =   0.0014276
        k( 1286) = (   0.3388220   0.7071068   0.0000000), wk =   0.0014276
        k( 1287) = (   0.3358757   0.7071068   0.0000000), wk =   0.0014276
        k( 1288) = (   0.3329294   0.7071068   0.0000000), wk =   0.0014276
        k( 1289) = (   0.3299832   0.7071068   0.0000000), wk =   0.0014276
        k( 1290) = (   0.3270369   0.7071068   0.0000000), wk =   0.0014276
        k( 1291) = (   0.3240906   0.7071068   0.0000000), wk =   0.0014276
        k( 1292) = (   0.3211443   0.7071068   0.0000000), wk =   0.0014276
        k( 1293) = (   0.3181981   0.7071068   0.0000000), wk =   0.0014276
        k( 1294) = (   0.3152518   0.7071068   0.0000000), wk =   0.0014276
        k( 1295) = (   0.3123055   0.7071068   0.0000000), wk =   0.0014276
        k( 1296) = (   0.3093592   0.7071068   0.0000000), wk =   0.0014276
        k( 1297) = (   0.3064129   0.7071068   0.0000000), wk =   0.0014276
        k( 1298) = (   0.3034667   0.7071068   0.0000000), wk =   0.0014276
        k( 1299) = (   0.3005204   0.7071068   0.0000000), wk =   0.0014276
        k( 1300) = (   0.2975741   0.7071068   0.0000000), wk =   0.0014276
        k( 1301) = (   0.2946278   0.7071068   0.0000000), wk =   0.0014276
        k( 1302) = (   0.2916815   0.7071068  -0.0000000), wk =   0.0014276
        k( 1303) = (   0.2887353   0.7071068   0.0000000), wk =   0.0014276
        k( 1304) = (   0.2857890   0.7071068   0.0000000), wk =   0.0014276
        k( 1305) = (   0.2828427   0.7071068   0.0000000), wk =   0.0014276
        k( 1306) = (   0.2798964   0.7071068   0.0000000), wk =   0.0014276
        k( 1307) = (   0.2769502   0.7071068  -0.0000000), wk =   0.0014276
        k( 1308) = (   0.2740039   0.7071068   0.0000000), wk =   0.0014276
        k( 1309) = (   0.2710576   0.7071068   0.0000000), wk =   0.0014276
        k( 1310) = (   0.2681113   0.7071068  -0.0000000), wk =   0.0014276
        k( 1311) = (   0.2651650   0.7071068   0.0000000), wk =   0.0014276
        k( 1312) = (   0.2622188   0.7071068   0.0000000), wk =   0.0014276
        k( 1313) = (   0.2592725   0.7071068   0.0000000), wk =   0.0014276
        k( 1314) = (   0.2563262   0.7071068   0.0000000), wk =   0.0014276
        k( 1315) = (   0.2533799   0.7071068   0.0000000), wk =   0.0014276
        k( 1316) = (   0.2504337   0.7071068   0.0000000), wk =   0.0014276
        k( 1317) = (   0.2474874   0.7071068   0.0000000), wk =   0.0014276
        k( 1318) = (   0.2445411   0.7071068   0.0000000), wk =   0.0014276
        k( 1319) = (   0.2415948   0.7071068   0.0000000), wk =   0.0014276
        k( 1320) = (   0.2386485   0.7071068   0.0000000), wk =   0.0014276
        k( 1321) = (   0.2357023   0.7071068   0.0000000), wk =   0.0014276
        k( 1322) = (   0.2327560   0.7071068   0.0000000), wk =   0.0014276
        k( 1323) = (   0.2298097   0.7071068   0.0000000), wk =   0.0014276
        k( 1324) = (   0.2268634   0.7071068  -0.0000000), wk =   0.0014276
        k( 1325) = (   0.2239171   0.7071068   0.0000000), wk =   0.0014276
        k( 1326) = (   0.2209709   0.7071068   0.0000000), wk =   0.0014276
        k( 1327) = (   0.2180246   0.7071068   0.0000000), wk =   0.0014276
        k( 1328) = (   0.2150783   0.7071068   0.0000000), wk =   0.0014276
        k( 1329) = (   0.2121320   0.7071068   0.0000000), wk =   0.0014276
        k( 1330) = (   0.2091858   0.7071068   0.0000000), wk =   0.0014276
        k( 1331) = (   0.2062395   0.7071068   0.0000000), wk =   0.0014276
        k( 1332) = (   0.2032932   0.7071068  -0.0000000), wk =   0.0014276
        k( 1333) = (   0.2003469   0.7071068   0.0000000), wk =   0.0014276
        k( 1334) = (   0.1974006   0.7071068   0.0000000), wk =   0.0014276
        k( 1335) = (   0.1944544   0.7071068   0.0000000), wk =   0.0014276
        k( 1336) = (   0.1915081   0.7071068   0.0000000), wk =   0.0014276
        k( 1337) = (   0.1885618   0.7071068   0.0000000), wk =   0.0014276
        k( 1338) = (   0.1856155   0.7071068   0.0000000), wk =   0.0014276
        k( 1339) = (   0.1826693   0.7071068   0.0000000), wk =   0.0014276
        k( 1340) = (   0.1797230   0.7071068   0.0000000), wk =   0.0014276
        k( 1341) = (   0.1767767   0.7071068   0.0000000), wk =   0.0014276
        k( 1342) = (   0.1738304   0.7071068   0.0000000), wk =   0.0014276
        k( 1343) = (   0.1708841   0.7071068   0.0000000), wk =   0.0014276
        k( 1344) = (   0.1679379   0.7071068   0.0000000), wk =   0.0014276
        k( 1345) = (   0.1649916   0.7071068   0.0000000), wk =   0.0014276
        k( 1346) = (   0.1620453   0.7071068   0.0000000), wk =   0.0014276
        k( 1347) = (   0.1590990   0.7071068   0.0000000), wk =   0.0014276
        k( 1348) = (   0.1561527   0.7071068   0.0000000), wk =   0.0014276
        k( 1349) = (   0.1532065   0.7071068   0.0000000), wk =   0.0014276
        k( 1350) = (   0.1502602   0.7071068   0.0000000), wk =   0.0014276
        k( 1351) = (   0.1473139   0.7071068   0.0000000), wk =   0.0014276
        k( 1352) = (   0.1443676   0.7071068   0.0000000), wk =   0.0014276
        k( 1353) = (   0.1414214   0.7071068   0.0000000), wk =   0.0014276
        k( 1354) = (   0.1384751   0.7071068  -0.0000000), wk =   0.0014276
        k( 1355) = (   0.1355288   0.7071068  -0.0000000), wk =   0.0014276
        k( 1356) = (   0.1325825   0.7071068   0.0000000), wk =   0.0014276
        k( 1357) = (   0.1296362   0.7071068   0.0000000), wk =   0.0014276
        k( 1358) = (   0.1266900   0.7071068   0.0000000), wk =   0.0014276
        k( 1359) = (   0.1237437   0.7071068  -0.0000000), wk =   0.0014276
        k( 1360) = (   0.1207974   0.7071068   0.0000000), wk =   0.0014276
        k( 1361) = (   0.1178511   0.7071068   0.0000000), wk =   0.0014276
        k( 1362) = (   0.1149049   0.7071068  -0.0000000), wk =   0.0014276
        k( 1363) = (   0.1119586   0.7071068  -0.0000000), wk =   0.0014276
        k( 1364) = (   0.1090123   0.7071068   0.0000000), wk =   0.0014276
        k( 1365) = (   0.1060660   0.7071068   0.0000000), wk =   0.0014276
        k( 1366) = (   0.1031197   0.7071068  -0.0000000), wk =   0.0014276
        k( 1367) = (   0.1001735   0.7071068   0.0000000), wk =   0.0014276
        k( 1368) = (   0.0972272   0.7071068   0.0000000), wk =   0.0014276
        k( 1369) = (   0.0942809   0.7071068  -0.0000000), wk =   0.0014276
        k( 1370) = (   0.0913346   0.7071068  -0.0000000), wk =   0.0014276
        k( 1371) = (   0.0883883   0.7071068   0.0000000), wk =   0.0014276
        k( 1372) = (   0.0854421   0.7071068   0.0000000), wk =   0.0014276
        k( 1373) = (   0.0824958   0.7071068   0.0000000), wk =   0.0014276
        k( 1374) = (   0.0795495   0.7071068  -0.0000000), wk =   0.0014276
        k( 1375) = (   0.0766032   0.7071068   0.0000000), wk =   0.0014276
        k( 1376) = (   0.0736570   0.7071068   0.0000000), wk =   0.0014276
        k( 1377) = (   0.0707107   0.7071068  -0.0000000), wk =   0.0014276
        k( 1378) = (   0.0677644   0.7071068   0.0000000), wk =   0.0014276
        k( 1379) = (   0.0648181   0.7071068   0.0000000), wk =   0.0014276
        k( 1380) = (   0.0618718   0.7071068   0.0000000), wk =   0.0014276
        k( 1381) = (   0.0589256   0.7071068   0.0000000), wk =   0.0014276
        k( 1382) = (   0.0559793   0.7071068   0.0000000), wk =   0.0014276
        k( 1383) = (   0.0530330   0.7071068   0.0000000), wk =   0.0014276
        k( 1384) = (   0.0500867   0.7071068  -0.0000000), wk =   0.0014276
        k( 1385) = (   0.0471405   0.7071068  -0.0000000), wk =   0.0014276
        k( 1386) = (   0.0441942   0.7071068   0.0000000), wk =   0.0014276
        k( 1387) = (   0.0412479   0.7071068   0.0000000), wk =   0.0014276
        k( 1388) = (   0.0383016   0.7071068   0.0000000), wk =   0.0014276
        k( 1389) = (   0.0353553   0.7071068   0.0000000), wk =   0.0014276
        k( 1390) = (   0.0324091   0.7071068   0.0000000), wk =   0.0014276
        k( 1391) = (   0.0294628   0.7071068   0.0000000), wk =   0.0014276
        k( 1392) = (   0.0265165   0.7071068  -0.0000000), wk =   0.0014276
        k( 1393) = (   0.0235702   0.7071068   0.0000000), wk =   0.0014276
        k( 1394) = (   0.0206239   0.7071068   0.0000000), wk =   0.0014276
        k( 1395) = (   0.0176777   0.7071068   0.0000000), wk =   0.0014276
        k( 1396) = (   0.0147314   0.7071068   0.0000000), wk =   0.0014276
        k( 1397) = (   0.0117851   0.7071068   0.0000000), wk =   0.0014276
        k( 1398) = (   0.0088388   0.7071068   0.0000000), wk =   0.0014276
        k( 1399) = (   0.0058926   0.7071068  -0.0000000), wk =   0.0014276
        k( 1400) = (   0.0029463   0.7071068   0.0000000), wk =   0.0014276
        k( 1401) = (   0.0000000   0.7071068   0.0000000), wk =   0.0014276

                       cryst. coord.
        k(    1) = (   0.0000000   0.0000000   0.0000000), wk =   0.0014276
        k(    2) = (   0.0015625   0.0000000   0.0015625), wk =   0.0014276
        k(    3) = (   0.0031250   0.0000000   0.0031250), wk =   0.0014276
        k(    4) = (   0.0046875   0.0000000   0.0046875), wk =   0.0014276
        k(    5) = (   0.0062500   0.0000000   0.0062500), wk =   0.0014276
        k(    6) = (   0.0078125   0.0000000   0.0078125), wk =   0.0014276
        k(    7) = (   0.0093750   0.0000000   0.0093750), wk =   0.0014276
        k(    8) = (   0.0109375   0.0000000   0.0109375), wk =   0.0014276
        k(    9) = (   0.0125000   0.0000000   0.0125000), wk =   0.0014276
        k(   10) = (   0.0140625   0.0000000   0.0140625), wk =   0.0014276
        k(   11) = (   0.0156250   0.0000000   0.0156250), wk =   0.0014276
        k(   12) = (   0.0171875   0.0000000   0.0171875), wk =   0.0014276
        k(   13) = (   0.0187500   0.0000000   0.0187500), wk =   0.0014276
        k(   14) = (   0.0203125   0.0000000   0.0203125), wk =   0.0014276
        k(   15) = (   0.0218750   0.0000000   0.0218750), wk =   0.0014276
        k(   16) = (   0.0234375   0.0000000   0.0234375), wk =   0.0014276
        k(   17) = (   0.0250000   0.0000000   0.0250000), wk =   0.0014276
        k(   18) = (   0.0265625   0.0000000   0.0265625), wk =   0.0014276
        k(   19) = (   0.0281250   0.0000000   0.0281250), wk =   0.0014276
        k(   20) = (   0.0296875   0.0000000   0.0296875), wk =   0.0014276
        k(   21) = (   0.0312500   0.0000000   0.0312500), wk =   0.0014276
        k(   22) = (   0.0328125   0.0000000   0.0328125), wk =   0.0014276
        k(   23) = (   0.0343750   0.0000000   0.0343750), wk =   0.0014276
        k(   24) = (   0.0359375   0.0000000   0.0359375), wk =   0.0014276
        k(   25) = (   0.0375000   0.0000000   0.0375000), wk =   0.0014276
        k(   26) = (   0.0390625   0.0000000   0.0390625), wk =   0.0014276
        k(   27) = (   0.0406250   0.0000000   0.0406250), wk =   0.0014276
        k(   28) = (   0.0421875   0.0000000   0.0421875), wk =   0.0014276
        k(   29) = (   0.0437500   0.0000000   0.0437500), wk =   0.0014276
        k(   30) = (   0.0453125   0.0000000   0.0453125), wk =   0.0014276
        k(   31) = (   0.0468750   0.0000000   0.0468750), wk =   0.0014276
        k(   32) = (   0.0484375   0.0000000   0.0484375), wk =   0.0014276
        k(   33) = (   0.0500000   0.0000000   0.0500000), wk =   0.0014276
        k(   34) = (   0.0515625   0.0000000   0.0515625), wk =   0.0014276
        k(   35) = (   0.0531250   0.0000000   0.0531250), wk =   0.0014276
        k(   36) = (   0.0546875   0.0000000   0.0546875), wk =   0.0014276
        k(   37) = (   0.0562500   0.0000000   0.0562500), wk =   0.0014276
        k(   38) = (   0.0578125   0.0000000   0.0578125), wk =   0.0014276
        k(   39) = (   0.0593750   0.0000000   0.0593750), wk =   0.0014276
        k(   40) = (   0.0609375   0.0000000   0.0609375), wk =   0.0014276
        k(   41) = (   0.0625000   0.0000000   0.0625000), wk =   0.0014276
        k(   42) = (   0.0640625   0.0000000   0.0640625), wk =   0.0014276
        k(   43) = (   0.0656250   0.0000000   0.0656250), wk =   0.0014276
        k(   44) = (   0.0671875   0.0000000   0.0671875), wk =   0.0014276
        k(   45) = (   0.0687500   0.0000000   0.0687500), wk =   0.0014276
        k(   46) = (   0.0703125   0.0000000   0.0703125), wk =   0.0014276
        k(   47) = (   0.0718750   0.0000000   0.0718750), wk =   0.0014276
        k(   48) = (   0.0734375   0.0000000   0.0734375), wk =   0.0014276
        k(   49) = (   0.0750000   0.0000000   0.0750000), wk =   0.0014276
        k(   50) = (   0.0765625   0.0000000   0.0765625), wk =   0.0014276
        k(   51) = (   0.0781250   0.0000000   0.0781250), wk =   0.0014276
        k(   52) = (   0.0796875   0.0000000   0.0796875), wk =   0.0014276
        k(   53) = (   0.0812500   0.0000000   0.0812500), wk =   0.0014276
        k(   54) = (   0.0828125   0.0000000   0.0828125), wk =   0.0014276
        k(   55) = (   0.0843750   0.0000000   0.0843750), wk =   0.0014276
        k(   56) = (   0.0859375   0.0000000   0.0859375), wk =   0.0014276
        k(   57) = (   0.0875000   0.0000000   0.0875000), wk =   0.0014276
        k(   58) = (   0.0890625   0.0000000   0.0890625), wk =   0.0014276
        k(   59) = (   0.0906250   0.0000000   0.0906250), wk =   0.0014276
        k(   60) = (   0.0921875   0.0000000   0.0921875), wk =   0.0014276
        k(   61) = (   0.0937500   0.0000000   0.0937500), wk =   0.0014276
        k(   62) = (   0.0953125   0.0000000   0.0953125), wk =   0.0014276
        k(   63) = (   0.0968750   0.0000000   0.0968750), wk =   0.0014276
        k(   64) = (   0.0984375   0.0000000   0.0984375), wk =   0.0014276
        k(   65) = (   0.1000000   0.0000000   0.1000000), wk =   0.0014276
        k(   66) = (   0.1015625   0.0000000   0.1015625), wk =   0.0014276
        k(   67) = (   0.1031250   0.0000000   0.1031250), wk =   0.0014276
        k(   68) = (   0.1046875   0.0000000   0.1046875), wk =   0.0014276
        k(   69) = (   0.1062500   0.0000000   0.1062500), wk =   0.0014276
        k(   70) = (   0.1078125   0.0000000   0.1078125), wk =   0.0014276
        k(   71) = (   0.1093750   0.0000000   0.1093750), wk =   0.0014276
        k(   72) = (   0.1109375   0.0000000   0.1109375), wk =   0.0014276
        k(   73) = (   0.1125000   0.0000000   0.1125000), wk =   0.0014276
        k(   74) = (   0.1140625   0.0000000   0.1140625), wk =   0.0014276
        k(   75) = (   0.1156250   0.0000000   0.1156250), wk =   0.0014276
        k(   76) = (   0.1171875   0.0000000   0.1171875), wk =   0.0014276
        k(   77) = (   0.1187500   0.0000000   0.1187500), wk =   0.0014276
        k(   78) = (   0.1203125   0.0000000   0.1203125), wk =   0.0014276
        k(   79) = (   0.1218750   0.0000000   0.1218750), wk =   0.0014276
        k(   80) = (   0.1234375   0.0000000   0.1234375), wk =   0.0014276
        k(   81) = (   0.1250000   0.0000000   0.1250000), wk =   0.0014276
        k(   82) = (   0.1265625   0.0000000   0.1265625), wk =   0.0014276
        k(   83) = (   0.1281250   0.0000000   0.1281250), wk =   0.0014276
        k(   84) = (   0.1296875   0.0000000   0.1296875), wk =   0.0014276
        k(   85) = (   0.1312500   0.0000000   0.1312500), wk =   0.0014276
        k(   86) = (   0.1328125   0.0000000   0.1328125), wk =   0.0014276
        k(   87) = (   0.1343750   0.0000000   0.1343750), wk =   0.0014276
        k(   88) = (   0.1359375   0.0000000   0.1359375), wk =   0.0014276
        k(   89) = (   0.1375000   0.0000000   0.1375000), wk =   0.0014276
        k(   90) = (   0.1390625   0.0000000   0.1390625), wk =   0.0014276
        k(   91) = (   0.1406250   0.0000000   0.1406250), wk =   0.0014276
        k(   92) = (   0.1421875   0.0000000   0.1421875), wk =   0.0014276
        k(   93) = (   0.1437500   0.0000000   0.1437500), wk =   0.0014276
        k(   94) = (   0.1453125   0.0000000   0.1453125), wk =   0.0014276
        k(   95) = (   0.1468750   0.0000000   0.1468750), wk =   0.0014276
        k(   96) = (   0.1484375   0.0000000   0.1484375), wk =   0.0014276
        k(   97) = (   0.1500000   0.0000000   0.1500000), wk =   0.0014276
        k(   98) = (   0.1515625   0.0000000   0.1515625), wk =   0.0014276
        k(   99) = (   0.1531250   0.0000000   0.1531250), wk =   0.0014276
        k(  100) = (   0.1546875   0.0000000   0.1546875), wk =   0.0014276
        k(  101) = (   0.1562500   0.0000000   0.1562500), wk =   0.0014276
        k(  102) = (   0.1578125   0.0000000   0.1578125), wk =   0.0014276
        k(  103) = (   0.1593750   0.0000000   0.1593750), wk =   0.0014276
        k(  104) = (   0.1609375   0.0000000   0.1609375), wk =   0.0014276
        k(  105) = (   0.1625000   0.0000000   0.1625000), wk =   0.0014276
        k(  106) = (   0.1640625   0.0000000   0.1640625), wk =   0.0014276
        k(  107) = (   0.1656250   0.0000000   0.1656250), wk =   0.0014276
        k(  108) = (   0.1671875   0.0000000   0.1671875), wk =   0.0014276
        k(  109) = (   0.1687500   0.0000000   0.1687500), wk =   0.0014276
        k(  110) = (   0.1703125   0.0000000   0.1703125), wk =   0.0014276
        k(  111) = (   0.1718750   0.0000000   0.1718750), wk =   0.0014276
        k(  112) = (   0.1734375   0.0000000   0.1734375), wk =   0.0014276
        k(  113) = (   0.1750000   0.0000000   0.1750000), wk =   0.0014276
        k(  114) = (   0.1765625   0.0000000   0.1765625), wk =   0.0014276
        k(  115) = (   0.1781250   0.0000000   0.1781250), wk =   0.0014276
        k(  116) = (   0.1796875   0.0000000   0.1796875), wk =   0.0014276
        k(  117) = (   0.1812500   0.0000000   0.1812500), wk =   0.0014276
        k(  118) = (   0.1828125   0.0000000   0.1828125), wk =   0.0014276
        k(  119) = (   0.1843750   0.0000000   0.1843750), wk =   0.0014276
        k(  120) = (   0.1859375   0.0000000   0.1859375), wk =   0.0014276
        k(  121) = (   0.1875000   0.0000000   0.1875000), wk =   0.0014276
        k(  122) = (   0.1890625   0.0000000   0.1890625), wk =   0.0014276
        k(  123) = (   0.1906250   0.0000000   0.1906250), wk =   0.0014276
        k(  124) = (   0.1921875   0.0000000   0.1921875), wk =   0.0014276
        k(  125) = (   0.1937500   0.0000000   0.1937500), wk =   0.0014276
        k(  126) = (   0.1953125   0.0000000   0.1953125), wk =   0.0014276
        k(  127) = (   0.1968750   0.0000000   0.1968750), wk =   0.0014276
        k(  128) = (   0.1984375   0.0000000   0.1984375), wk =   0.0014276
        k(  129) = (   0.2000000   0.0000000   0.2000000), wk =   0.0014276
        k(  130) = (   0.2015625   0.0000000   0.2015625), wk =   0.0014276
        k(  131) = (   0.2031250   0.0000000   0.2031250), wk =   0.0014276
        k(  132) = (   0.2046875   0.0000000   0.2046875), wk =   0.0014276
        k(  133) = (   0.2062500   0.0000000   0.2062500), wk =   0.0014276
        k(  134) = (   0.2078125   0.0000000   0.2078125), wk =   0.0014276
        k(  135) = (   0.2093750   0.0000000   0.2093750), wk =   0.0014276
        k(  136) = (   0.2109375   0.0000000   0.2109375), wk =   0.0014276
        k(  137) = (   0.2125000   0.0000000   0.2125000), wk =   0.0014276
        k(  138) = (   0.2140625   0.0000000   0.2140625), wk =   0.0014276
        k(  139) = (   0.2156250   0.0000000   0.2156250), wk =   0.0014276
        k(  140) = (   0.2171875   0.0000000   0.2171875), wk =   0.0014276
        k(  141) = (   0.2187500   0.0000000   0.2187500), wk =   0.0014276
        k(  142) = (   0.2203125   0.0000000   0.2203125), wk =   0.0014276
        k(  143) = (   0.2218750   0.0000000   0.2218750), wk =   0.0014276
        k(  144) = (   0.2234375   0.0000000   0.2234375), wk =   0.0014276
        k(  145) = (   0.2250000   0.0000000   0.2250000), wk =   0.0014276
        k(  146) = (   0.2265625   0.0000000   0.2265625), wk =   0.0014276
        k(  147) = (   0.2281250   0.0000000   0.2281250), wk =   0.0014276
        k(  148) = (   0.2296875   0.0000000   0.2296875), wk =   0.0014276
        k(  149) = (   0.2312500   0.0000000   0.2312500), wk =   0.0014276
        k(  150) = (   0.2328125   0.0000000   0.2328125), wk =   0.0014276
        k(  151) = (   0.2343750   0.0000000   0.2343750), wk =   0.0014276
        k(  152) = (   0.2359375   0.0000000   0.2359375), wk =   0.0014276
        k(  153) = (   0.2375000   0.0000000   0.2375000), wk =   0.0014276
        k(  154) = (   0.2390625   0.0000000   0.2390625), wk =   0.0014276
        k(  155) = (   0.2406250   0.0000000   0.2406250), wk =   0.0014276
        k(  156) = (   0.2421875   0.0000000   0.2421875), wk =   0.0014276
        k(  157) = (   0.2437500   0.0000000   0.2437500), wk =   0.0014276
        k(  158) = (   0.2453125   0.0000000   0.2453125), wk =   0.0014276
        k(  159) = (   0.2468750   0.0000000   0.2468750), wk =   0.0014276
        k(  160) = (   0.2484375   0.0000000   0.2484375), wk =   0.0014276
        k(  161) = (   0.2500000   0.0000000   0.2500000), wk =   0.0014276
        k(  162) = (   0.2515625   0.0000000   0.2515625), wk =   0.0014276
        k(  163) = (   0.2531250   0.0000000   0.2531250), wk =   0.0014276
        k(  164) = (   0.2546875   0.0000000   0.2546875), wk =   0.0014276
        k(  165) = (   0.2562500   0.0000000   0.2562500), wk =   0.0014276
        k(  166) = (   0.2578125   0.0000000   0.2578125), wk =   0.0014276
        k(  167) = (   0.2593750   0.0000000   0.2593750), wk =   0.0014276
        k(  168) = (   0.2609375   0.0000000   0.2609375), wk =   0.0014276
        k(  169) = (   0.2625000   0.0000000   0.2625000), wk =   0.0014276
        k(  170) = (   0.2640625   0.0000000   0.2640625), wk =   0.0014276
        k(  171) = (   0.2656250   0.0000000   0.2656250), wk =   0.0014276
        k(  172) = (   0.2671875   0.0000000   0.2671875), wk =   0.0014276
        k(  173) = (   0.2687500   0.0000000   0.2687500), wk =   0.0014276
        k(  174) = (   0.2703125   0.0000000   0.2703125), wk =   0.0014276
        k(  175) = (   0.2718750   0.0000000   0.2718750), wk =   0.0014276
        k(  176) = (   0.2734375   0.0000000   0.2734375), wk =   0.0014276
        k(  177) = (   0.2750000   0.0000000   0.2750000), wk =   0.0014276
        k(  178) = (   0.2765625   0.0000000   0.2765625), wk =   0.0014276
        k(  179) = (   0.2781250   0.0000000   0.2781250), wk =   0.0014276
        k(  180) = (   0.2796875   0.0000000   0.2796875), wk =   0.0014276
        k(  181) = (   0.2812500   0.0000000   0.2812500), wk =   0.0014276
        k(  182) = (   0.2828125   0.0000000   0.2828125), wk =   0.0014276
        k(  183) = (   0.2843750   0.0000000   0.2843750), wk =   0.0014276
        k(  184) = (   0.2859375   0.0000000   0.2859375), wk =   0.0014276
        k(  185) = (   0.2875000   0.0000000   0.2875000), wk =   0.0014276
        k(  186) = (   0.2890625   0.0000000   0.2890625), wk =   0.0014276
        k(  187) = (   0.2906250   0.0000000   0.2906250), wk =   0.0014276
        k(  188) = (   0.2921875   0.0000000   0.2921875), wk =   0.0014276
        k(  189) = (   0.2937500   0.0000000   0.2937500), wk =   0.0014276
        k(  190) = (   0.2953125   0.0000000   0.2953125), wk =   0.0014276
        k(  191) = (   0.2968750   0.0000000   0.2968750), wk =   0.0014276
        k(  192) = (   0.2984375   0.0000000   0.2984375), wk =   0.0014276
        k(  193) = (   0.3000000   0.0000000   0.3000000), wk =   0.0014276
        k(  194) = (   0.3015625   0.0000000   0.3015625), wk =   0.0014276
        k(  195) = (   0.3031250   0.0000000   0.3031250), wk =   0.0014276
        k(  196) = (   0.3046875   0.0000000   0.3046875), wk =   0.0014276
        k(  197) = (   0.3062500   0.0000000   0.3062500), wk =   0.0014276
        k(  198) = (   0.3078125   0.0000000   0.3078125), wk =   0.0014276
        k(  199) = (   0.3093750   0.0000000   0.3093750), wk =   0.0014276
        k(  200) = (   0.3109375   0.0000000   0.3109375), wk =   0.0014276
        k(  201) = (   0.3125000   0.0000000   0.3125000), wk =   0.0014276
        k(  202) = (   0.3140625   0.0000000   0.3140625), wk =   0.0014276
        k(  203) = (   0.3156250   0.0000000   0.3156250), wk =   0.0014276
        k(  204) = (   0.3171875   0.0000000   0.3171875), wk =   0.0014276
        k(  205) = (   0.3187500   0.0000000   0.3187500), wk =   0.0014276
        k(  206) = (   0.3203125   0.0000000   0.3203125), wk =   0.0014276
        k(  207) = (   0.3218750   0.0000000   0.3218750), wk =   0.0014276
        k(  208) = (   0.3234375   0.0000000   0.3234375), wk =   0.0014276
        k(  209) = (   0.3250000   0.0000000   0.3250000), wk =   0.0014276
        k(  210) = (   0.3265625   0.0000000   0.3265625), wk =   0.0014276
        k(  211) = (   0.3281250   0.0000000   0.3281250), wk =   0.0014276
        k(  212) = (   0.3296875   0.0000000   0.3296875), wk =   0.0014276
        k(  213) = (   0.3312500   0.0000000   0.3312500), wk =   0.0014276
        k(  214) = (   0.3328125   0.0000000   0.3328125), wk =   0.0014276
        k(  215) = (   0.3343750   0.0000000   0.3343750), wk =   0.0014276
        k(  216) = (   0.3359375   0.0000000   0.3359375), wk =   0.0014276
        k(  217) = (   0.3375000   0.0000000   0.3375000), wk =   0.0014276
        k(  218) = (   0.3390625   0.0000000   0.3390625), wk =   0.0014276
        k(  219) = (   0.3406250   0.0000000   0.3406250), wk =   0.0014276
        k(  220) = (   0.3421875   0.0000000   0.3421875), wk =   0.0014276
        k(  221) = (   0.3437500   0.0000000   0.3437500), wk =   0.0014276
        k(  222) = (   0.3453125   0.0000000   0.3453125), wk =   0.0014276
        k(  223) = (   0.3468750   0.0000000   0.3468750), wk =   0.0014276
        k(  224) = (   0.3484375   0.0000000   0.3484375), wk =   0.0014276
        k(  225) = (   0.3500000   0.0000000   0.3500000), wk =   0.0014276
        k(  226) = (   0.3515625   0.0000000   0.3515625), wk =   0.0014276
        k(  227) = (   0.3531250   0.0000000   0.3531250), wk =   0.0014276
        k(  228) = (   0.3546875   0.0000000   0.3546875), wk =   0.0014276
        k(  229) = (   0.3562500   0.0000000   0.3562500), wk =   0.0014276
        k(  230) = (   0.3578125   0.0000000   0.3578125), wk =   0.0014276
        k(  231) = (   0.3593750   0.0000000   0.3593750), wk =   0.0014276
        k(  232) = (   0.3609375   0.0000000   0.3609375), wk =   0.0014276
        k(  233) = (   0.3625000   0.0000000   0.3625000), wk =   0.0014276
        k(  234) = (   0.3640625   0.0000000   0.3640625), wk =   0.0014276
        k(  235) = (   0.3656250   0.0000000   0.3656250), wk =   0.0014276
        k(  236) = (   0.3671875   0.0000000   0.3671875), wk =   0.0014276
        k(  237) = (   0.3687500   0.0000000   0.3687500), wk =   0.0014276
        k(  238) = (   0.3703125   0.0000000   0.3703125), wk =   0.0014276
        k(  239) = (   0.3718750   0.0000000   0.3718750), wk =   0.0014276
        k(  240) = (   0.3734375   0.0000000   0.3734375), wk =   0.0014276
        k(  241) = (   0.3750000   0.0000000   0.3750000), wk =   0.0014276
        k(  242) = (   0.3765625   0.0000000   0.3765625), wk =   0.0014276
        k(  243) = (   0.3781250   0.0000000   0.3781250), wk =   0.0014276
        k(  244) = (   0.3796875   0.0000000   0.3796875), wk =   0.0014276
        k(  245) = (   0.3812500   0.0000000   0.3812500), wk =   0.0014276
        k(  246) = (   0.3828125   0.0000000   0.3828125), wk =   0.0014276
        k(  247) = (   0.3843750   0.0000000   0.3843750), wk =   0.0014276
        k(  248) = (   0.3859375   0.0000000   0.3859375), wk =   0.0014276
        k(  249) = (   0.3875000   0.0000000   0.3875000), wk =   0.0014276
        k(  250) = (   0.3890625   0.0000000   0.3890625), wk =   0.0014276
        k(  251) = (   0.3906250   0.0000000   0.3906250), wk =   0.0014276
        k(  252) = (   0.3921875   0.0000000   0.3921875), wk =   0.0014276
        k(  253) = (   0.3937500   0.0000000   0.3937500), wk =   0.0014276
        k(  254) = (   0.3953125   0.0000000   0.3953125), wk =   0.0014276
        k(  255) = (   0.3968750   0.0000000   0.3968750), wk =   0.0014276
        k(  256) = (   0.3984375   0.0000000   0.3984375), wk =   0.0014276
        k(  257) = (   0.4000000   0.0000000   0.4000000), wk =   0.0014276
        k(  258) = (   0.4015625   0.0000000   0.4015625), wk =   0.0014276
        k(  259) = (   0.4031250   0.0000000   0.4031250), wk =   0.0014276
        k(  260) = (   0.4046875   0.0000000   0.4046875), wk =   0.0014276
        k(  261) = (   0.4062500   0.0000000   0.4062500), wk =   0.0014276
        k(  262) = (   0.4078125   0.0000000   0.4078125), wk =   0.0014276
        k(  263) = (   0.4093750   0.0000000   0.4093750), wk =   0.0014276
        k(  264) = (   0.4109375   0.0000000   0.4109375), wk =   0.0014276
        k(  265) = (   0.4125000   0.0000000   0.4125000), wk =   0.0014276
        k(  266) = (   0.4140625   0.0000000   0.4140625), wk =   0.0014276
        k(  267) = (   0.4156250   0.0000000   0.4156250), wk =   0.0014276
        k(  268) = (   0.4171875   0.0000000   0.4171875), wk =   0.0014276
        k(  269) = (   0.4187500   0.0000000   0.4187500), wk =   0.0014276
        k(  270) = (   0.4203125   0.0000000   0.4203125), wk =   0.0014276
        k(  271) = (   0.4218750   0.0000000   0.4218750), wk =   0.0014276
        k(  272) = (   0.4234375   0.0000000   0.4234375), wk =   0.0014276
        k(  273) = (   0.4250000   0.0000000   0.4250000), wk =   0.0014276
        k(  274) = (   0.4265625   0.0000000   0.4265625), wk =   0.0014276
        k(  275) = (   0.4281250   0.0000000   0.4281250), wk =   0.0014276
        k(  276) = (   0.4296875   0.0000000   0.4296875), wk =   0.0014276
        k(  277) = (   0.4312500   0.0000000   0.4312500), wk =   0.0014276
        k(  278) = (   0.4328125   0.0000000   0.4328125), wk =   0.0014276
        k(  279) = (   0.4343750   0.0000000   0.4343750), wk =   0.0014276
        k(  280) = (   0.4359375   0.0000000   0.4359375), wk =   0.0014276
        k(  281) = (   0.4375000   0.0000000   0.4375000), wk =   0.0014276
        k(  282) = (   0.4390625   0.0000000   0.4390625), wk =   0.0014276
        k(  283) = (   0.4406250   0.0000000   0.4406250), wk =   0.0014276
        k(  284) = (   0.4421875   0.0000000   0.4421875), wk =   0.0014276
        k(  285) = (   0.4437500   0.0000000   0.4437500), wk =   0.0014276
        k(  286) = (   0.4453125   0.0000000   0.4453125), wk =   0.0014276
        k(  287) = (   0.4468750   0.0000000   0.4468750), wk =   0.0014276
        k(  288) = (   0.4484375   0.0000000   0.4484375), wk =   0.0014276
        k(  289) = (   0.4500000   0.0000000   0.4500000), wk =   0.0014276
        k(  290) = (   0.4515625   0.0000000   0.4515625), wk =   0.0014276
        k(  291) = (   0.4531250   0.0000000   0.4531250), wk =   0.0014276
        k(  292) = (   0.4546875   0.0000000   0.4546875), wk =   0.0014276
        k(  293) = (   0.4562500   0.0000000   0.4562500), wk =   0.0014276
        k(  294) = (   0.4578125   0.0000000   0.4578125), wk =   0.0014276
        k(  295) = (   0.4593750   0.0000000   0.4593750), wk =   0.0014276
        k(  296) = (   0.4609375   0.0000000   0.4609375), wk =   0.0014276
        k(  297) = (   0.4625000   0.0000000   0.4625000), wk =   0.0014276
        k(  298) = (   0.4640625   0.0000000   0.4640625), wk =   0.0014276
        k(  299) = (   0.4656250   0.0000000   0.4656250), wk =   0.0014276
        k(  300) = (   0.4671875   0.0000000   0.4671875), wk =   0.0014276
        k(  301) = (   0.4687500   0.0000000   0.4687500), wk =   0.0014276
        k(  302) = (   0.4703125   0.0000000   0.4703125), wk =   0.0014276
        k(  303) = (   0.4718750   0.0000000   0.4718750), wk =   0.0014276
        k(  304) = (   0.4734375   0.0000000   0.4734375), wk =   0.0014276
        k(  305) = (   0.4750000   0.0000000   0.4750000), wk =   0.0014276
        k(  306) = (   0.4765625   0.0000000   0.4765625), wk =   0.0014276
        k(  307) = (   0.4781250   0.0000000   0.4781250), wk =   0.0014276
        k(  308) = (   0.4796875   0.0000000   0.4796875), wk =   0.0014276
        k(  309) = (   0.4812500   0.0000000   0.4812500), wk =   0.0014276
        k(  310) = (   0.4828125   0.0000000   0.4828125), wk =   0.0014276
        k(  311) = (   0.4843750   0.0000000   0.4843750), wk =   0.0014276
        k(  312) = (   0.4859375   0.0000000   0.4859375), wk =   0.0014276
        k(  313) = (   0.4875000   0.0000000   0.4875000), wk =   0.0014276
        k(  314) = (   0.4890625   0.0000000   0.4890625), wk =   0.0014276
        k(  315) = (   0.4906250   0.0000000   0.4906250), wk =   0.0014276
        k(  316) = (   0.4921875   0.0000000   0.4921875), wk =   0.0014276
        k(  317) = (   0.4937500   0.0000000   0.4937500), wk =   0.0014276
        k(  318) = (   0.4953125   0.0000000   0.4953125), wk =   0.0014276
        k(  319) = (   0.4968750   0.0000000   0.4968750), wk =   0.0014276
        k(  320) = (   0.4984375   0.0000000   0.4984375), wk =   0.0014276
        k(  321) = (   0.5000000   0.0000000   0.5000000), wk =   0.0014276
        k(  322) = (   0.5015625   0.0031250   0.5015625), wk =   0.0014276
        k(  323) = (   0.5031250   0.0062500   0.5031250), wk =   0.0014276
        k(  324) = (   0.5046875   0.0093750   0.5046875), wk =   0.0014276
        k(  325) = (   0.5062500   0.0125000   0.5062500), wk =   0.0014276
        k(  326) = (   0.5078125   0.0156250   0.5078125), wk =   0.0014276
        k(  327) = (   0.5093750   0.0187500   0.5093750), wk =   0.0014276
        k(  328) = (   0.5109375   0.0218750   0.5109375), wk =   0.0014276
        k(  329) = (   0.5125000   0.0250000   0.5125000), wk =   0.0014276
        k(  330) = (   0.5140625   0.0281250   0.5140625), wk =   0.0014276
        k(  331) = (   0.5156250   0.0312500   0.5156250), wk =   0.0014276
        k(  332) = (   0.5171875   0.0343750   0.5171875), wk =   0.0014276
        k(  333) = (   0.5187500   0.0375000   0.5187500), wk =   0.0014276
        k(  334) = (   0.5203125   0.0406250   0.5203125), wk =   0.0014276
        k(  335) = (   0.5218750   0.0437500   0.5218750), wk =   0.0014276
        k(  336) = (   0.5234375   0.0468750   0.5234375), wk =   0.0014276
        k(  337) = (   0.5250000   0.0500000   0.5250000), wk =   0.0014276
        k(  338) = (   0.5265625   0.0531250   0.5265625), wk =   0.0014276
        k(  339) = (   0.5281250   0.0562500   0.5281250), wk =   0.0014276
        k(  340) = (   0.5296875   0.0593750   0.5296875), wk =   0.0014276
        k(  341) = (   0.5312500   0.0625000   0.5312500), wk =   0.0014276
        k(  342) = (   0.5328125   0.0656250   0.5328125), wk =   0.0014276
        k(  343) = (   0.5343750   0.0687500   0.5343750), wk =   0.0014276
        k(  344) = (   0.5359375   0.0718750   0.5359375), wk =   0.0014276
        k(  345) = (   0.5375000   0.0750000   0.5375000), wk =   0.0014276
        k(  346) = (   0.5390625   0.0781250   0.5390625), wk =   0.0014276
        k(  347) = (   0.5406250   0.0812500   0.5406250), wk =   0.0014276
        k(  348) = (   0.5421875   0.0843750   0.5421875), wk =   0.0014276
        k(  349) = (   0.5437500   0.0875000   0.5437500), wk =   0.0014276
        k(  350) = (   0.5453125   0.0906250   0.5453125), wk =   0.0014276
        k(  351) = (   0.5468750   0.0937500   0.5468750), wk =   0.0014276
        k(  352) = (   0.5484375   0.0968750   0.5484375), wk =   0.0014276
        k(  353) = (   0.5500000   0.1000000   0.5500000), wk =   0.0014276
        k(  354) = (   0.5515625   0.1031250   0.5515625), wk =   0.0014276
        k(  355) = (   0.5531250   0.1062500   0.5531250), wk =   0.0014276
        k(  356) = (   0.5546875   0.1093750   0.5546875), wk =   0.0014276
        k(  357) = (   0.5562500   0.1125000   0.5562500), wk =   0.0014276
        k(  358) = (   0.5578125   0.1156250   0.5578125), wk =   0.0014276
        k(  359) = (   0.5593750   0.1187500   0.5593750), wk =   0.0014276
        k(  360) = (   0.5609375   0.1218750   0.5609375), wk =   0.0014276
        k(  361) = (   0.5625000   0.1250000   0.5625000), wk =   0.0014276
        k(  362) = (   0.5640625   0.1281250   0.5640625), wk =   0.0014276
        k(  363) = (   0.5656250   0.1312500   0.5656250), wk =   0.0014276
        k(  364) = (   0.5671875   0.1343750   0.5671875), wk =   0.0014276
        k(  365) = (   0.5687500   0.1375000   0.5687500), wk =   0.0014276
        k(  366) = (   0.5703125   0.1406250   0.5703125), wk =   0.0014276
        k(  367) = (   0.5718750   0.1437500   0.5718750), wk =   0.0014276
        k(  368) = (   0.5734375   0.1468750   0.5734375), wk =   0.0014276
        k(  369) = (   0.5750000   0.1500000   0.5750000), wk =   0.0014276
        k(  370) = (   0.5765625   0.1531250   0.5765625), wk =   0.0014276
        k(  371) = (   0.5781250   0.1562500   0.5781250), wk =   0.0014276
        k(  372) = (   0.5796875   0.1593750   0.5796875), wk =   0.0014276
        k(  373) = (   0.5812500   0.1625000   0.5812500), wk =   0.0014276
        k(  374) = (   0.5828125   0.1656250   0.5828125), wk =   0.0014276
        k(  375) = (   0.5843750   0.1687500   0.5843750), wk =   0.0014276
        k(  376) = (   0.5859375   0.1718750   0.5859375), wk =   0.0014276
        k(  377) = (   0.5875000   0.1750000   0.5875000), wk =   0.0014276
        k(  378) = (   0.5890625   0.1781250   0.5890625), wk =   0.0014276
        k(  379) = (   0.5906250   0.1812500   0.5906250), wk =   0.0014276
        k(  380) = (   0.5921875   0.1843750   0.5921875), wk =   0.0014276
        k(  381) = (   0.5937500   0.1875000   0.5937500), wk =   0.0014276
        k(  382) = (   0.5953125   0.1906250   0.5953125), wk =   0.0014276
        k(  383) = (   0.5968750   0.1937500   0.5968750), wk =   0.0014276
        k(  384) = (   0.5984375   0.1968750   0.5984375), wk =   0.0014276
        k(  385) = (   0.6000000   0.2000000   0.6000000), wk =   0.0014276
        k(  386) = (   0.6015625   0.2031250   0.6015625), wk =   0.0014276
        k(  387) = (   0.6031250   0.2062500   0.6031250), wk =   0.0014276
        k(  388) = (   0.6046875   0.2093750   0.6046875), wk =   0.0014276
        k(  389) = (   0.6062500   0.2125000   0.6062500), wk =   0.0014276
        k(  390) = (   0.6078125   0.2156250   0.6078125), wk =   0.0014276
        k(  391) = (   0.6093750   0.2187500   0.6093750), wk =   0.0014276
        k(  392) = (   0.6109375   0.2218750   0.6109375), wk =   0.0014276
        k(  393) = (   0.6125000   0.2250000   0.6125000), wk =   0.0014276
        k(  394) = (   0.6140625   0.2281250   0.6140625), wk =   0.0014276
        k(  395) = (   0.6156250   0.2312500   0.6156250), wk =   0.0014276
        k(  396) = (   0.6171875   0.2343750   0.6171875), wk =   0.0014276
        k(  397) = (   0.6187500   0.2375000   0.6187500), wk =   0.0014276
        k(  398) = (   0.6203125   0.2406250   0.6203125), wk =   0.0014276
        k(  399) = (   0.6218750   0.2437500   0.6218750), wk =   0.0014276
        k(  400) = (   0.6234375   0.2468750   0.6234375), wk =   0.0014276
        k(  401) = (   0.6250000   0.2500000   0.6250000), wk =   0.0014276
        k(  402) = (   0.6187500   0.2531250   0.6281250), wk =   0.0014276
        k(  403) = (   0.6125000   0.2562500   0.6312500), wk =   0.0014276
        k(  404) = (   0.6062500   0.2593750   0.6343750), wk =   0.0014276
        k(  405) = (   0.6000000   0.2625000   0.6375000), wk =   0.0014276
        k(  406) = (   0.5937500   0.2656250   0.6406250), wk =   0.0014276
        k(  407) = (   0.5875000   0.2687500   0.6437500), wk =   0.0014276
        k(  408) = (   0.5812500   0.2718750   0.6468750), wk =   0.0014276
        k(  409) = (   0.5750000   0.2750000   0.6500000), wk =   0.0014276
        k(  410) = (   0.5687500   0.2781250   0.6531250), wk =   0.0014276
        k(  411) = (   0.5625000   0.2812500   0.6562500), wk =   0.0014276
        k(  412) = (   0.5562500   0.2843750   0.6593750), wk =   0.0014276
        k(  413) = (   0.5500000   0.2875000   0.6625000), wk =   0.0014276
        k(  414) = (   0.5437500   0.2906250   0.6656250), wk =   0.0014276
        k(  415) = (   0.5375000   0.2937500   0.6687500), wk =   0.0014276
        k(  416) = (   0.5312500   0.2968750   0.6718750), wk =   0.0014276
        k(  417) = (   0.5250000   0.3000000   0.6750000), wk =   0.0014276
        k(  418) = (   0.5187500   0.3031250   0.6781250), wk =   0.0014276
        k(  419) = (   0.5125000   0.3062500   0.6812500), wk =   0.0014276
        k(  420) = (   0.5062500   0.3093750   0.6843750), wk =   0.0014276
        k(  421) = (   0.5000000   0.3125000   0.6875000), wk =   0.0014276
        k(  422) = (   0.4937500   0.3156250   0.6906250), wk =   0.0014276
        k(  423) = (   0.4875000   0.3187500   0.6937500), wk =   0.0014276
        k(  424) = (   0.4812500   0.3218750   0.6968750), wk =   0.0014276
        k(  425) = (   0.4750000   0.3250000   0.7000000), wk =   0.0014276
        k(  426) = (   0.4687500   0.3281250   0.7031250), wk =   0.0014276
        k(  427) = (   0.4625000   0.3312500   0.7062500), wk =   0.0014276
        k(  428) = (   0.4562500   0.3343750   0.7093750), wk =   0.0014276
        k(  429) = (   0.4500000   0.3375000   0.7125000), wk =   0.0014276
        k(  430) = (   0.4437500   0.3406250   0.7156250), wk =   0.0014276
        k(  431) = (   0.4375000   0.3437500   0.7187500), wk =   0.0014276
        k(  432) = (   0.4312500   0.3468750   0.7218750), wk =   0.0014276
        k(  433) = (   0.4250000   0.3500000   0.7250000), wk =   0.0014276
        k(  434) = (   0.4187500   0.3531250   0.7281250), wk =   0.0014276
        k(  435) = (   0.4125000   0.3562500   0.7312500), wk =   0.0014276
        k(  436) = (   0.4062500   0.3593750   0.7343750), wk =   0.0014276
        k(  437) = (   0.4000000   0.3625000   0.7375000), wk =   0.0014276
        k(  438) = (   0.3937500   0.3656250   0.7406250), wk =   0.0014276
        k(  439) = (   0.3875000   0.3687500   0.7437500), wk =   0.0014276
        k(  440) = (   0.3812500   0.3718750   0.7468750), wk =   0.0014276
        k(  441) = (   0.3750000   0.3750000   0.7500000), wk =   0.0014276
        k(  442) = (   0.3739583   0.3739583   0.7479167), wk =   0.0014276
        k(  443) = (   0.3729167   0.3729167   0.7458333), wk =   0.0014276
        k(  444) = (   0.3718750   0.3718750   0.7437500), wk =   0.0014276
        k(  445) = (   0.3708333   0.3708333   0.7416667), wk =   0.0014276
        k(  446) = (   0.3697917   0.3697917   0.7395833), wk =   0.0014276
        k(  447) = (   0.3687500   0.3687500   0.7375000), wk =   0.0014276
        k(  448) = (   0.3677083   0.3677083   0.7354167), wk =   0.0014276
        k(  449) = (   0.3666667   0.3666667   0.7333333), wk =   0.0014276
        k(  450) = (   0.3656250   0.3656250   0.7312500), wk =   0.0014276
        k(  451) = (   0.3645833   0.3645833   0.7291667), wk =   0.0014276
        k(  452) = (   0.3635417   0.3635417   0.7270833), wk =   0.0014276
        k(  453) = (   0.3625000   0.3625000   0.7250000), wk =   0.0014276
        k(  454) = (   0.3614583   0.3614583   0.7229167), wk =   0.0014276
        k(  455) = (   0.3604167   0.3604167   0.7208333), wk =   0.0014276
        k(  456) = (   0.3593750   0.3593750   0.7187500), wk =   0.0014276
        k(  457) = (   0.3583333   0.3583333   0.7166667), wk =   0.0014276
        k(  458) = (   0.3572917   0.3572917   0.7145833), wk =   0.0014276
        k(  459) = (   0.3562500   0.3562500   0.7125000), wk =   0.0014276
        k(  460) = (   0.3552083   0.3552083   0.7104167), wk =   0.0014276
        k(  461) = (   0.3541667   0.3541667   0.7083333), wk =   0.0014276
        k(  462) = (   0.3531250   0.3531250   0.7062500), wk =   0.0014276
        k(  463) = (   0.3520833   0.3520833   0.7041667), wk =   0.0014276
        k(  464) = (   0.3510417   0.3510417   0.7020833), wk =   0.0014276
        k(  465) = (   0.3500000   0.3500000   0.7000000), wk =   0.0014276
        k(  466) = (   0.3489583   0.3489583   0.6979167), wk =   0.0014276
        k(  467) = (   0.3479167   0.3479167   0.6958333), wk =   0.0014276
        k(  468) = (   0.3468750   0.3468750   0.6937500), wk =   0.0014276
        k(  469) = (   0.3458333   0.3458333   0.6916667), wk =   0.0014276
        k(  470) = (   0.3447917   0.3447917   0.6895833), wk =   0.0014276
        k(  471) = (   0.3437500   0.3437500   0.6875000), wk =   0.0014276
        k(  472) = (   0.3427083   0.3427083   0.6854167), wk =   0.0014276
        k(  473) = (   0.3416667   0.3416667   0.6833333), wk =   0.0014276
        k(  474) = (   0.3406250   0.3406250   0.6812500), wk =   0.0014276
        k(  475) = (   0.3395833   0.3395833   0.6791667), wk =   0.0014276
        k(  476) = (   0.3385417   0.3385417   0.6770833), wk =   0.0014276
        k(  477) = (   0.3375000   0.3375000   0.6750000), wk =   0.0014276
        k(  478) = (   0.3364583   0.3364583   0.6729167), wk =   0.0014276
        k(  479) = (   0.3354167   0.3354167   0.6708333), wk =   0.0014276
        k(  480) = (   0.3343750   0.3343750   0.6687500), wk =   0.0014276
        k(  481) = (   0.3333333   0.3333333   0.6666667), wk =   0.0014276
        k(  482) = (   0.3322917   0.3322917   0.6645833), wk =   0.0014276
        k(  483) = (   0.3312500   0.3312500   0.6625000), wk =   0.0014276
        k(  484) = (   0.3302083   0.3302083   0.6604167), wk =   0.0014276
        k(  485) = (   0.3291667   0.3291667   0.6583333), wk =   0.0014276
        k(  486) = (   0.3281250   0.3281250   0.6562500), wk =   0.0014276
        k(  487) = (   0.3270833   0.3270833   0.6541667), wk =   0.0014276
        k(  488) = (   0.3260417   0.3260417   0.6520833), wk =   0.0014276
        k(  489) = (   0.3250000   0.3250000   0.6500000), wk =   0.0014276
        k(  490) = (   0.3239583   0.3239583   0.6479167), wk =   0.0014276
        k(  491) = (   0.3229167   0.3229167   0.6458333), wk =   0.0014276
        k(  492) = (   0.3218750   0.3218750   0.6437500), wk =   0.0014276
        k(  493) = (   0.3208333   0.3208333   0.6416667), wk =   0.0014276
        k(  494) = (   0.3197917   0.3197917   0.6395833), wk =   0.0014276
        k(  495) = (   0.3187500   0.3187500   0.6375000), wk =   0.0014276
        k(  496) = (   0.3177083   0.3177083   0.6354167), wk =   0.0014276
        k(  497) = (   0.3166667   0.3166667   0.6333333), wk =   0.0014276
        k(  498) = (   0.3156250   0.3156250   0.6312500), wk =   0.0014276
        k(  499) = (   0.3145833   0.3145833   0.6291667), wk =   0.0014276
        k(  500) = (   0.3135417   0.3135417   0.6270833), wk =   0.0014276
        k(  501) = (   0.3125000   0.3125000   0.6250000), wk =   0.0014276
        k(  502) = (   0.3114583   0.3114583   0.6229167), wk =   0.0014276
        k(  503) = (   0.3104167   0.3104167   0.6208333), wk =   0.0014276
        k(  504) = (   0.3093750   0.3093750   0.6187500), wk =   0.0014276
        k(  505) = (   0.3083333   0.3083333   0.6166667), wk =   0.0014276
        k(  506) = (   0.3072917   0.3072917   0.6145833), wk =   0.0014276
        k(  507) = (   0.3062500   0.3062500   0.6125000), wk =   0.0014276
        k(  508) = (   0.3052083   0.3052083   0.6104167), wk =   0.0014276
        k(  509) = (   0.3041667   0.3041667   0.6083333), wk =   0.0014276
        k(  510) = (   0.3031250   0.3031250   0.6062500), wk =   0.0014276
        k(  511) = (   0.3020833   0.3020833   0.6041667), wk =   0.0014276
        k(  512) = (   0.3010417   0.3010417   0.6020833), wk =   0.0014276
        k(  513) = (   0.3000000   0.3000000   0.6000000), wk =   0.0014276
        k(  514) = (   0.2989583   0.2989583   0.5979167), wk =   0.0014276
        k(  515) = (   0.2979167   0.2979167   0.5958333), wk =   0.0014276
        k(  516) = (   0.2968750   0.2968750   0.5937500), wk =   0.0014276
        k(  517) = (   0.2958333   0.2958333   0.5916667), wk =   0.0014276
        k(  518) = (   0.2947917   0.2947917   0.5895833), wk =   0.0014276
        k(  519) = (   0.2937500   0.2937500   0.5875000), wk =   0.0014276
        k(  520) = (   0.2927083   0.2927083   0.5854167), wk =   0.0014276
        k(  521) = (   0.2916667   0.2916667   0.5833333), wk =   0.0014276
        k(  522) = (   0.2906250   0.2906250   0.5812500), wk =   0.0014276
        k(  523) = (   0.2895833   0.2895833   0.5791667), wk =   0.0014276
        k(  524) = (   0.2885417   0.2885417   0.5770833), wk =   0.0014276
        k(  525) = (   0.2875000   0.2875000   0.5750000), wk =   0.0014276
        k(  526) = (   0.2864583   0.2864583   0.5729167), wk =   0.0014276
        k(  527) = (   0.2854167   0.2854167   0.5708333), wk =   0.0014276
        k(  528) = (   0.2843750   0.2843750   0.5687500), wk =   0.0014276
        k(  529) = (   0.2833333   0.2833333   0.5666667), wk =   0.0014276
        k(  530) = (   0.2822917   0.2822917   0.5645833), wk =   0.0014276
        k(  531) = (   0.2812500   0.2812500   0.5625000), wk =   0.0014276
        k(  532) = (   0.2802083   0.2802083   0.5604167), wk =   0.0014276
        k(  533) = (   0.2791667   0.2791667   0.5583333), wk =   0.0014276
        k(  534) = (   0.2781250   0.2781250   0.5562500), wk =   0.0014276
        k(  535) = (   0.2770833   0.2770833   0.5541667), wk =   0.0014276
        k(  536) = (   0.2760417   0.2760417   0.5520833), wk =   0.0014276
        k(  537) = (   0.2750000   0.2750000   0.5500000), wk =   0.0014276
        k(  538) = (   0.2739583   0.2739583   0.5479167), wk =   0.0014276
        k(  539) = (   0.2729167   0.2729167   0.5458333), wk =   0.0014276
        k(  540) = (   0.2718750   0.2718750   0.5437500), wk =   0.0014276
        k(  541) = (   0.2708333   0.2708333   0.5416667), wk =   0.0014276
        k(  542) = (   0.2697917   0.2697917   0.5395833), wk =   0.0014276
        k(  543) = (   0.2687500   0.2687500   0.5375000), wk =   0.0014276
        k(  544) = (   0.2677083   0.2677083   0.5354167), wk =   0.0014276
        k(  545) = (   0.2666667   0.2666667   0.5333333), wk =   0.0014276
        k(  546) = (   0.2656250   0.2656250   0.5312500), wk =   0.0014276
        k(  547) = (   0.2645833   0.2645833   0.5291667), wk =   0.0014276
        k(  548) = (   0.2635417   0.2635417   0.5270833), wk =   0.0014276
        k(  549) = (   0.2625000   0.2625000   0.5250000), wk =   0.0014276
        k(  550) = (   0.2614583   0.2614583   0.5229167), wk =   0.0014276
        k(  551) = (   0.2604167   0.2604167   0.5208333), wk =   0.0014276
        k(  552) = (   0.2593750   0.2593750   0.5187500), wk =   0.0014276
        k(  553) = (   0.2583333   0.2583333   0.5166667), wk =   0.0014276
        k(  554) = (   0.2572917   0.2572917   0.5145833), wk =   0.0014276
        k(  555) = (   0.2562500   0.2562500   0.5125000), wk =   0.0014276
        k(  556) = (   0.2552083   0.2552083   0.5104167), wk =   0.0014276
        k(  557) = (   0.2541667   0.2541667   0.5083333), wk =   0.0014276
        k(  558) = (   0.2531250   0.2531250   0.5062500), wk =   0.0014276
        k(  559) = (   0.2520833   0.2520833   0.5041667), wk =   0.0014276
        k(  560) = (   0.2510417   0.2510417   0.5020833), wk =   0.0014276
        k(  561) = (   0.2500000   0.2500000   0.5000000), wk =   0.0014276
        k(  562) = (   0.2489583   0.2489583   0.4979167), wk =   0.0014276
        k(  563) = (   0.2479167   0.2479167   0.4958333), wk =   0.0014276
        k(  564) = (   0.2468750   0.2468750   0.4937500), wk =   0.0014276
        k(  565) = (   0.2458333   0.2458333   0.4916667), wk =   0.0014276
        k(  566) = (   0.2447917   0.2447917   0.4895833), wk =   0.0014276
        k(  567) = (   0.2437500   0.2437500   0.4875000), wk =   0.0014276
        k(  568) = (   0.2427083   0.2427083   0.4854167), wk =   0.0014276
        k(  569) = (   0.2416667   0.2416667   0.4833333), wk =   0.0014276
        k(  570) = (   0.2406250   0.2406250   0.4812500), wk =   0.0014276
        k(  571) = (   0.2395833   0.2395833   0.4791667), wk =   0.0014276
        k(  572) = (   0.2385417   0.2385417   0.4770833), wk =   0.0014276
        k(  573) = (   0.2375000   0.2375000   0.4750000), wk =   0.0014276
        k(  574) = (   0.2364583   0.2364583   0.4729167), wk =   0.0014276
        k(  575) = (   0.2354167   0.2354167   0.4708333), wk =   0.0014276
        k(  576) = (   0.2343750   0.2343750   0.4687500), wk =   0.0014276
        k(  577) = (   0.2333333   0.2333333   0.4666667), wk =   0.0014276
        k(  578) = (   0.2322917   0.2322917   0.4645833), wk =   0.0014276
        k(  579) = (   0.2312500   0.2312500   0.4625000), wk =   0.0014276
        k(  580) = (   0.2302083   0.2302083   0.4604167), wk =   0.0014276
        k(  581) = (   0.2291667   0.2291667   0.4583333), wk =   0.0014276
        k(  582) = (   0.2281250   0.2281250   0.4562500), wk =   0.0014276
        k(  583) = (   0.2270833   0.2270833   0.4541667), wk =   0.0014276
        k(  584) = (   0.2260417   0.2260417   0.4520833), wk =   0.0014276
        k(  585) = (   0.2250000   0.2250000   0.4500000), wk =   0.0014276
        k(  586) = (   0.2239583   0.2239583   0.4479167), wk =   0.0014276
        k(  587) = (   0.2229167   0.2229167   0.4458333), wk =   0.0014276
        k(  588) = (   0.2218750   0.2218750   0.4437500), wk =   0.0014276
        k(  589) = (   0.2208333   0.2208333   0.4416667), wk =   0.0014276
        k(  590) = (   0.2197917   0.2197917   0.4395833), wk =   0.0014276
        k(  591) = (   0.2187500   0.2187500   0.4375000), wk =   0.0014276
        k(  592) = (   0.2177083   0.2177083   0.4354167), wk =   0.0014276
        k(  593) = (   0.2166667   0.2166667   0.4333333), wk =   0.0014276
        k(  594) = (   0.2156250   0.2156250   0.4312500), wk =   0.0014276
        k(  595) = (   0.2145833   0.2145833   0.4291667), wk =   0.0014276
        k(  596) = (   0.2135417   0.2135417   0.4270833), wk =   0.0014276
        k(  597) = (   0.2125000   0.2125000   0.4250000), wk =   0.0014276
        k(  598) = (   0.2114583   0.2114583   0.4229167), wk =   0.0014276
        k(  599) = (   0.2104167   0.2104167   0.4208333), wk =   0.0014276
        k(  600) = (   0.2093750   0.2093750   0.4187500), wk =   0.0014276
        k(  601) = (   0.2083333   0.2083333   0.4166667), wk =   0.0014276
        k(  602) = (   0.2072917   0.2072917   0.4145833), wk =   0.0014276
        k(  603) = (   0.2062500   0.2062500   0.4125000), wk =   0.0014276
        k(  604) = (   0.2052083   0.2052083   0.4104167), wk =   0.0014276
        k(  605) = (   0.2041667   0.2041667   0.4083333), wk =   0.0014276
        k(  606) = (   0.2031250   0.2031250   0.4062500), wk =   0.0014276
        k(  607) = (   0.2020833   0.2020833   0.4041667), wk =   0.0014276
        k(  608) = (   0.2010417   0.2010417   0.4020833), wk =   0.0014276
        k(  609) = (   0.2000000   0.2000000   0.4000000), wk =   0.0014276
        k(  610) = (   0.1989583   0.1989583   0.3979167), wk =   0.0014276
        k(  611) = (   0.1979167   0.1979167   0.3958333), wk =   0.0014276
        k(  612) = (   0.1968750   0.1968750   0.3937500), wk =   0.0014276
        k(  613) = (   0.1958333   0.1958333   0.3916667), wk =   0.0014276
        k(  614) = (   0.1947917   0.1947917   0.3895833), wk =   0.0014276
        k(  615) = (   0.1937500   0.1937500   0.3875000), wk =   0.0014276
        k(  616) = (   0.1927083   0.1927083   0.3854167), wk =   0.0014276
        k(  617) = (   0.1916667   0.1916667   0.3833333), wk =   0.0014276
        k(  618) = (   0.1906250   0.1906250   0.3812500), wk =   0.0014276
        k(  619) = (   0.1895833   0.1895833   0.3791667), wk =   0.0014276
        k(  620) = (   0.1885417   0.1885417   0.3770833), wk =   0.0014276
        k(  621) = (   0.1875000   0.1875000   0.3750000), wk =   0.0014276
        k(  622) = (   0.1864583   0.1864583   0.3729167), wk =   0.0014276
        k(  623) = (   0.1854167   0.1854167   0.3708333), wk =   0.0014276
        k(  624) = (   0.1843750   0.1843750   0.3687500), wk =   0.0014276
        k(  625) = (   0.1833333   0.1833333   0.3666667), wk =   0.0014276
        k(  626) = (   0.1822917   0.1822917   0.3645833), wk =   0.0014276
        k(  627) = (   0.1812500   0.1812500   0.3625000), wk =   0.0014276
        k(  628) = (   0.1802083   0.1802083   0.3604167), wk =   0.0014276
        k(  629) = (   0.1791667   0.1791667   0.3583333), wk =   0.0014276
        k(  630) = (   0.1781250   0.1781250   0.3562500), wk =   0.0014276
        k(  631) = (   0.1770833   0.1770833   0.3541667), wk =   0.0014276
        k(  632) = (   0.1760417   0.1760417   0.3520833), wk =   0.0014276
        k(  633) = (   0.1750000   0.1750000   0.3500000), wk =   0.0014276
        k(  634) = (   0.1739583   0.1739583   0.3479167), wk =   0.0014276
        k(  635) = (   0.1729167   0.1729167   0.3458333), wk =   0.0014276
        k(  636) = (   0.1718750   0.1718750   0.3437500), wk =   0.0014276
        k(  637) = (   0.1708333   0.1708333   0.3416667), wk =   0.0014276
        k(  638) = (   0.1697917   0.1697917   0.3395833), wk =   0.0014276
        k(  639) = (   0.1687500   0.1687500   0.3375000), wk =   0.0014276
        k(  640) = (   0.1677083   0.1677083   0.3354167), wk =   0.0014276
        k(  641) = (   0.1666667   0.1666667   0.3333333), wk =   0.0014276
        k(  642) = (   0.1656250   0.1656250   0.3312500), wk =   0.0014276
        k(  643) = (   0.1645833   0.1645833   0.3291667), wk =   0.0014276
        k(  644) = (   0.1635417   0.1635417   0.3270833), wk =   0.0014276
        k(  645) = (   0.1625000   0.1625000   0.3250000), wk =   0.0014276
        k(  646) = (   0.1614583   0.1614583   0.3229167), wk =   0.0014276
        k(  647) = (   0.1604167   0.1604167   0.3208333), wk =   0.0014276
        k(  648) = (   0.1593750   0.1593750   0.3187500), wk =   0.0014276
        k(  649) = (   0.1583333   0.1583333   0.3166667), wk =   0.0014276
        k(  650) = (   0.1572917   0.1572917   0.3145833), wk =   0.0014276
        k(  651) = (   0.1562500   0.1562500   0.3125000), wk =   0.0014276
        k(  652) = (   0.1552083   0.1552083   0.3104167), wk =   0.0014276
        k(  653) = (   0.1541667   0.1541667   0.3083333), wk =   0.0014276
        k(  654) = (   0.1531250   0.1531250   0.3062500), wk =   0.0014276
        k(  655) = (   0.1520833   0.1520833   0.3041667), wk =   0.0014276
        k(  656) = (   0.1510417   0.1510417   0.3020833), wk =   0.0014276
        k(  657) = (   0.1500000   0.1500000   0.3000000), wk =   0.0014276
        k(  658) = (   0.1489583   0.1489583   0.2979167), wk =   0.0014276
        k(  659) = (   0.1479167   0.1479167   0.2958333), wk =   0.0014276
        k(  660) = (   0.1468750   0.1468750   0.2937500), wk =   0.0014276
        k(  661) = (   0.1458333   0.1458333   0.2916667), wk =   0.0014276
        k(  662) = (   0.1447917   0.1447917   0.2895833), wk =   0.0014276
        k(  663) = (   0.1437500   0.1437500   0.2875000), wk =   0.0014276
        k(  664) = (   0.1427083   0.1427083   0.2854167), wk =   0.0014276
        k(  665) = (   0.1416667   0.1416667   0.2833333), wk =   0.0014276
        k(  666) = (   0.1406250   0.1406250   0.2812500), wk =   0.0014276
        k(  667) = (   0.1395833   0.1395833   0.2791667), wk =   0.0014276
        k(  668) = (   0.1385417   0.1385417   0.2770833), wk =   0.0014276
        k(  669) = (   0.1375000   0.1375000   0.2750000), wk =   0.0014276
        k(  670) = (   0.1364583   0.1364583   0.2729167), wk =   0.0014276
        k(  671) = (   0.1354167   0.1354167   0.2708333), wk =   0.0014276
        k(  672) = (   0.1343750   0.1343750   0.2687500), wk =   0.0014276
        k(  673) = (   0.1333333   0.1333333   0.2666667), wk =   0.0014276
        k(  674) = (   0.1322917   0.1322917   0.2645833), wk =   0.0014276
        k(  675) = (   0.1312500   0.1312500   0.2625000), wk =   0.0014276
        k(  676) = (   0.1302083   0.1302083   0.2604167), wk =   0.0014276
        k(  677) = (   0.1291667   0.1291667   0.2583333), wk =   0.0014276
        k(  678) = (   0.1281250   0.1281250   0.2562500), wk =   0.0014276
        k(  679) = (   0.1270833   0.1270833   0.2541667), wk =   0.0014276
        k(  680) = (   0.1260417   0.1260417   0.2520833), wk =   0.0014276
        k(  681) = (   0.1250000   0.1250000   0.2500000), wk =   0.0014276
        k(  682) = (   0.1239583   0.1239583   0.2479167), wk =   0.0014276
        k(  683) = (   0.1229167   0.1229167   0.2458333), wk =   0.0014276
        k(  684) = (   0.1218750   0.1218750   0.2437500), wk =   0.0014276
        k(  685) = (   0.1208333   0.1208333   0.2416667), wk =   0.0014276
        k(  686) = (   0.1197917   0.1197917   0.2395833), wk =   0.0014276
        k(  687) = (   0.1187500   0.1187500   0.2375000), wk =   0.0014276
        k(  688) = (   0.1177083   0.1177083   0.2354167), wk =   0.0014276
        k(  689) = (   0.1166667   0.1166667   0.2333333), wk =   0.0014276
        k(  690) = (   0.1156250   0.1156250   0.2312500), wk =   0.0014276
        k(  691) = (   0.1145833   0.1145833   0.2291667), wk =   0.0014276
        k(  692) = (   0.1135417   0.1135417   0.2270833), wk =   0.0014276
        k(  693) = (   0.1125000   0.1125000   0.2250000), wk =   0.0014276
        k(  694) = (   0.1114583   0.1114583   0.2229167), wk =   0.0014276
        k(  695) = (   0.1104167   0.1104167   0.2208333), wk =   0.0014276
        k(  696) = (   0.1093750   0.1093750   0.2187500), wk =   0.0014276
        k(  697) = (   0.1083333   0.1083333   0.2166667), wk =   0.0014276
        k(  698) = (   0.1072917   0.1072917   0.2145833), wk =   0.0014276
        k(  699) = (   0.1062500   0.1062500   0.2125000), wk =   0.0014276
        k(  700) = (   0.1052083   0.1052083   0.2104167), wk =   0.0014276
        k(  701) = (   0.1041667   0.1041667   0.2083333), wk =   0.0014276
        k(  702) = (   0.1031250   0.1031250   0.2062500), wk =   0.0014276
        k(  703) = (   0.1020833   0.1020833   0.2041667), wk =   0.0014276
        k(  704) = (   0.1010417   0.1010417   0.2020833), wk =   0.0014276
        k(  705) = (   0.1000000   0.1000000   0.2000000), wk =   0.0014276
        k(  706) = (   0.0989583   0.0989583   0.1979167), wk =   0.0014276
        k(  707) = (   0.0979167   0.0979167   0.1958333), wk =   0.0014276
        k(  708) = (   0.0968750   0.0968750   0.1937500), wk =   0.0014276
        k(  709) = (   0.0958333   0.0958333   0.1916667), wk =   0.0014276
        k(  710) = (   0.0947917   0.0947917   0.1895833), wk =   0.0014276
        k(  711) = (   0.0937500   0.0937500   0.1875000), wk =   0.0014276
        k(  712) = (   0.0927083   0.0927083   0.1854167), wk =   0.0014276
        k(  713) = (   0.0916667   0.0916667   0.1833333), wk =   0.0014276
        k(  714) = (   0.0906250   0.0906250   0.1812500), wk =   0.0014276
        k(  715) = (   0.0895833   0.0895833   0.1791667), wk =   0.0014276
        k(  716) = (   0.0885417   0.0885417   0.1770833), wk =   0.0014276
        k(  717) = (   0.0875000   0.0875000   0.1750000), wk =   0.0014276
        k(  718) = (   0.0864583   0.0864583   0.1729167), wk =   0.0014276
        k(  719) = (   0.0854167   0.0854167   0.1708333), wk =   0.0014276
        k(  720) = (   0.0843750   0.0843750   0.1687500), wk =   0.0014276
        k(  721) = (   0.0833333   0.0833333   0.1666667), wk =   0.0014276
        k(  722) = (   0.0822917   0.0822917   0.1645833), wk =   0.0014276
        k(  723) = (   0.0812500   0.0812500   0.1625000), wk =   0.0014276
        k(  724) = (   0.0802083   0.0802083   0.1604167), wk =   0.0014276
        k(  725) = (   0.0791667   0.0791667   0.1583333), wk =   0.0014276
        k(  726) = (   0.0781250   0.0781250   0.1562500), wk =   0.0014276
        k(  727) = (   0.0770833   0.0770833   0.1541667), wk =   0.0014276
        k(  728) = (   0.0760417   0.0760417   0.1520833), wk =   0.0014276
        k(  729) = (   0.0750000   0.0750000   0.1500000), wk =   0.0014276
        k(  730) = (   0.0739583   0.0739583   0.1479167), wk =   0.0014276
        k(  731) = (   0.0729167   0.0729167   0.1458333), wk =   0.0014276
        k(  732) = (   0.0718750   0.0718750   0.1437500), wk =   0.0014276
        k(  733) = (   0.0708333   0.0708333   0.1416667), wk =   0.0014276
        k(  734) = (   0.0697917   0.0697917   0.1395833), wk =   0.0014276
        k(  735) = (   0.0687500   0.0687500   0.1375000), wk =   0.0014276
        k(  736) = (   0.0677083   0.0677083   0.1354167), wk =   0.0014276
        k(  737) = (   0.0666667   0.0666667   0.1333333), wk =   0.0014276
        k(  738) = (   0.0656250   0.0656250   0.1312500), wk =   0.0014276
        k(  739) = (   0.0645833   0.0645833   0.1291667), wk =   0.0014276
        k(  740) = (   0.0635417   0.0635417   0.1270833), wk =   0.0014276
        k(  741) = (   0.0625000   0.0625000   0.1250000), wk =   0.0014276
        k(  742) = (   0.0614583   0.0614583   0.1229167), wk =   0.0014276
        k(  743) = (   0.0604167   0.0604167   0.1208333), wk =   0.0014276
        k(  744) = (   0.0593750   0.0593750   0.1187500), wk =   0.0014276
        k(  745) = (   0.0583333   0.0583333   0.1166667), wk =   0.0014276
        k(  746) = (   0.0572917   0.0572917   0.1145833), wk =   0.0014276
        k(  747) = (   0.0562500   0.0562500   0.1125000), wk =   0.0014276
        k(  748) = (   0.0552083   0.0552083   0.1104167), wk =   0.0014276
        k(  749) = (   0.0541667   0.0541667   0.1083333), wk =   0.0014276
        k(  750) = (   0.0531250   0.0531250   0.1062500), wk =   0.0014276
        k(  751) = (   0.0520833   0.0520833   0.1041667), wk =   0.0014276
        k(  752) = (   0.0510417   0.0510417   0.1020833), wk =   0.0014276
        k(  753) = (   0.0500000   0.0500000   0.1000000), wk =   0.0014276
        k(  754) = (   0.0489583   0.0489583   0.0979167), wk =   0.0014276
        k(  755) = (   0.0479167   0.0479167   0.0958333), wk =   0.0014276
        k(  756) = (   0.0468750   0.0468750   0.0937500), wk =   0.0014276
        k(  757) = (   0.0458333   0.0458333   0.0916667), wk =   0.0014276
        k(  758) = (   0.0447917   0.0447917   0.0895833), wk =   0.0014276
        k(  759) = (   0.0437500   0.0437500   0.0875000), wk =   0.0014276
        k(  760) = (   0.0427083   0.0427083   0.0854167), wk =   0.0014276
        k(  761) = (   0.0416667   0.0416667   0.0833333), wk =   0.0014276
        k(  762) = (   0.0406250   0.0406250   0.0812500), wk =   0.0014276
        k(  763) = (   0.0395833   0.0395833   0.0791667), wk =   0.0014276
        k(  764) = (   0.0385417   0.0385417   0.0770833), wk =   0.0014276
        k(  765) = (   0.0375000   0.0375000   0.0750000), wk =   0.0014276
        k(  766) = (   0.0364583   0.0364583   0.0729167), wk =   0.0014276
        k(  767) = (   0.0354167   0.0354167   0.0708333), wk =   0.0014276
        k(  768) = (   0.0343750   0.0343750   0.0687500), wk =   0.0014276
        k(  769) = (   0.0333333   0.0333333   0.0666667), wk =   0.0014276
        k(  770) = (   0.0322917   0.0322917   0.0645833), wk =   0.0014276
        k(  771) = (   0.0312500   0.0312500   0.0625000), wk =   0.0014276
        k(  772) = (   0.0302083   0.0302083   0.0604167), wk =   0.0014276
        k(  773) = (   0.0291667   0.0291667   0.0583333), wk =   0.0014276
        k(  774) = (   0.0281250   0.0281250   0.0562500), wk =   0.0014276
        k(  775) = (   0.0270833   0.0270833   0.0541667), wk =   0.0014276
        k(  776) = (   0.0260417   0.0260417   0.0520833), wk =   0.0014276
        k(  777) = (   0.0250000   0.0250000   0.0500000), wk =   0.0014276
        k(  778) = (   0.0239583   0.0239583   0.0479167), wk =   0.0014276
        k(  779) = (   0.0229167   0.0229167   0.0458333), wk =   0.0014276
        k(  780) = (   0.0218750   0.0218750   0.0437500), wk =   0.0014276
        k(  781) = (   0.0208333   0.0208333   0.0416667), wk =   0.0014276
        k(  782) = (   0.0197917   0.0197917   0.0395833), wk =   0.0014276
        k(  783) = (   0.0187500   0.0187500   0.0375000), wk =   0.0014276
        k(  784) = (   0.0177083   0.0177083   0.0354167), wk =   0.0014276
        k(  785) = (   0.0166667   0.0166667   0.0333333), wk =   0.0014276
        k(  786) = (   0.0156250   0.0156250   0.0312500), wk =   0.0014276
        k(  787) = (   0.0145833   0.0145833   0.0291667), wk =   0.0014276
        k(  788) = (   0.0135417   0.0135417   0.0270833), wk =   0.0014276
        k(  789) = (   0.0125000   0.0125000   0.0250000), wk =   0.0014276
        k(  790) = (   0.0114583   0.0114583   0.0229167), wk =   0.0014276
        k(  791) = (   0.0104167   0.0104167   0.0208333), wk =   0.0014276
        k(  792) = (   0.0093750   0.0093750   0.0187500), wk =   0.0014276
        k(  793) = (   0.0083333   0.0083333   0.0166667), wk =   0.0014276
        k(  794) = (   0.0072917   0.0072917   0.0145833), wk =   0.0014276
        k(  795) = (   0.0062500   0.0062500   0.0125000), wk =   0.0014276
        k(  796) = (   0.0052083   0.0052083   0.0104167), wk =   0.0014276
        k(  797) = (   0.0041667   0.0041667   0.0083333), wk =   0.0014276
        k(  798) = (   0.0031250   0.0031250   0.0062500), wk =   0.0014276
        k(  799) = (   0.0020833   0.0020833   0.0041667), wk =   0.0014276
        k(  800) = (   0.0010417   0.0010417   0.0020833), wk =   0.0014276
        k(  801) = (   0.0000000   0.0000000   0.0000000), wk =   0.0014276
        k(  802) = (   0.0017857   0.0017857   0.0017857), wk =   0.0014276
        k(  803) = (   0.0035714   0.0035714   0.0035714), wk =   0.0014276
        k(  804) = (   0.0053571   0.0053571   0.0053571), wk =   0.0014276
        k(  805) = (   0.0071429   0.0071429   0.0071429), wk =   0.0014276
        k(  806) = (   0.0089286   0.0089286   0.0089286), wk =   0.0014276
        k(  807) = (   0.0107143   0.0107143   0.0107143), wk =   0.0014276
        k(  808) = (   0.0125000   0.0125000   0.0125000), wk =   0.0014276
        k(  809) = (   0.0142857   0.0142857   0.0142857), wk =   0.0014276
        k(  810) = (   0.0160714   0.0160714   0.0160714), wk =   0.0014276
        k(  811) = (   0.0178571   0.0178571   0.0178571), wk =   0.0014276
        k(  812) = (   0.0196429   0.0196429   0.0196429), wk =   0.0014276
        k(  813) = (   0.0214286   0.0214286   0.0214286), wk =   0.0014276
        k(  814) = (   0.0232143   0.0232143   0.0232143), wk =   0.0014276
        k(  815) = (   0.0250000   0.0250000   0.0250000), wk =   0.0014276
        k(  816) = (   0.0267857   0.0267857   0.0267857), wk =   0.0014276
        k(  817) = (   0.0285714   0.0285714   0.0285714), wk =   0.0014276
        k(  818) = (   0.0303571   0.0303571   0.0303571), wk =   0.0014276
        k(  819) = (   0.0321429   0.0321429   0.0321429), wk =   0.0014276
        k(  820) = (   0.0339286   0.0339286   0.0339286), wk =   0.0014276
        k(  821) = (   0.0357143   0.0357143   0.0357143), wk =   0.0014276
        k(  822) = (   0.0375000   0.0375000   0.0375000), wk =   0.0014276
        k(  823) = (   0.0392857   0.0392857   0.0392857), wk =   0.0014276
        k(  824) = (   0.0410714   0.0410714   0.0410714), wk =   0.0014276
        k(  825) = (   0.0428571   0.0428571   0.0428571), wk =   0.0014276
        k(  826) = (   0.0446429   0.0446429   0.0446429), wk =   0.0014276
        k(  827) = (   0.0464286   0.0464286   0.0464286), wk =   0.0014276
        k(  828) = (   0.0482143   0.0482143   0.0482143), wk =   0.0014276
        k(  829) = (   0.0500000   0.0500000   0.0500000), wk =   0.0014276
        k(  830) = (   0.0517857   0.0517857   0.0517857), wk =   0.0014276
        k(  831) = (   0.0535714   0.0535714   0.0535714), wk =   0.0014276
        k(  832) = (   0.0553571   0.0553571   0.0553571), wk =   0.0014276
        k(  833) = (   0.0571429   0.0571429   0.0571429), wk =   0.0014276
        k(  834) = (   0.0589286   0.0589286   0.0589286), wk =   0.0014276
        k(  835) = (   0.0607143   0.0607143   0.0607143), wk =   0.0014276
        k(  836) = (   0.0625000   0.0625000   0.0625000), wk =   0.0014276
        k(  837) = (   0.0642857   0.0642857   0.0642857), wk =   0.0014276
        k(  838) = (   0.0660714   0.0660714   0.0660714), wk =   0.0014276
        k(  839) = (   0.0678571   0.0678571   0.0678571), wk =   0.0014276
        k(  840) = (   0.0696429   0.0696429   0.0696429), wk =   0.0014276
        k(  841) = (   0.0714286   0.0714286   0.0714286), wk =   0.0014276
        k(  842) = (   0.0732143   0.0732143   0.0732143), wk =   0.0014276
        k(  843) = (   0.0750000   0.0750000   0.0750000), wk =   0.0014276
        k(  844) = (   0.0767857   0.0767857   0.0767857), wk =   0.0014276
        k(  845) = (   0.0785714   0.0785714   0.0785714), wk =   0.0014276
        k(  846) = (   0.0803571   0.0803571   0.0803571), wk =   0.0014276
        k(  847) = (   0.0821429   0.0821429   0.0821429), wk =   0.0014276
        k(  848) = (   0.0839286   0.0839286   0.0839286), wk =   0.0014276
        k(  849) = (   0.0857143   0.0857143   0.0857143), wk =   0.0014276
        k(  850) = (   0.0875000   0.0875000   0.0875000), wk =   0.0014276
        k(  851) = (   0.0892857   0.0892857   0.0892857), wk =   0.0014276
        k(  852) = (   0.0910714   0.0910714   0.0910714), wk =   0.0014276
        k(  853) = (   0.0928571   0.0928571   0.0928571), wk =   0.0014276
        k(  854) = (   0.0946429   0.0946429   0.0946429), wk =   0.0014276
        k(  855) = (   0.0964286   0.0964286   0.0964286), wk =   0.0014276
        k(  856) = (   0.0982143   0.0982143   0.0982143), wk =   0.0014276
        k(  857) = (   0.1000000   0.1000000   0.1000000), wk =   0.0014276
        k(  858) = (   0.1017857   0.1017857   0.1017857), wk =   0.0014276
        k(  859) = (   0.1035714   0.1035714   0.1035714), wk =   0.0014276
        k(  860) = (   0.1053571   0.1053571   0.1053571), wk =   0.0014276
        k(  861) = (   0.1071429   0.1071429   0.1071429), wk =   0.0014276
        k(  862) = (   0.1089286   0.1089286   0.1089286), wk =   0.0014276
        k(  863) = (   0.1107143   0.1107143   0.1107143), wk =   0.0014276
        k(  864) = (   0.1125000   0.1125000   0.1125000), wk =   0.0014276
        k(  865) = (   0.1142857   0.1142857   0.1142857), wk =   0.0014276
        k(  866) = (   0.1160714   0.1160714   0.1160714), wk =   0.0014276
        k(  867) = (   0.1178571   0.1178571   0.1178571), wk =   0.0014276
        k(  868) = (   0.1196429   0.1196429   0.1196429), wk =   0.0014276
        k(  869) = (   0.1214286   0.1214286   0.1214286), wk =   0.0014276
        k(  870) = (   0.1232143   0.1232143   0.1232143), wk =   0.0014276
        k(  871) = (   0.1250000   0.1250000   0.1250000), wk =   0.0014276
        k(  872) = (   0.1267857   0.1267857   0.1267857), wk =   0.0014276
        k(  873) = (   0.1285714   0.1285714   0.1285714), wk =   0.0014276
        k(  874) = (   0.1303571   0.1303571   0.1303571), wk =   0.0014276
        k(  875) = (   0.1321429   0.1321429   0.1321429), wk =   0.0014276
        k(  876) = (   0.1339286   0.1339286   0.1339286), wk =   0.0014276
        k(  877) = (   0.1357143   0.1357143   0.1357143), wk =   0.0014276
        k(  878) = (   0.1375000   0.1375000   0.1375000), wk =   0.0014276
        k(  879) = (   0.1392857   0.1392857   0.1392857), wk =   0.0014276
        k(  880) = (   0.1410714   0.1410714   0.1410714), wk =   0.0014276
        k(  881) = (   0.1428571   0.1428571   0.1428571), wk =   0.0014276
        k(  882) = (   0.1446429   0.1446429   0.1446429), wk =   0.0014276
        k(  883) = (   0.1464286   0.1464286   0.1464286), wk =   0.0014276
        k(  884) = (   0.1482143   0.1482143   0.1482143), wk =   0.0014276
        k(  885) = (   0.1500000   0.1500000   0.1500000), wk =   0.0014276
        k(  886) = (   0.1517857   0.1517857   0.1517857), wk =   0.0014276
        k(  887) = (   0.1535714   0.1535714   0.1535714), wk =   0.0014276
        k(  888) = (   0.1553571   0.1553571   0.1553571), wk =   0.0014276
        k(  889) = (   0.1571429   0.1571429   0.1571429), wk =   0.0014276
        k(  890) = (   0.1589286   0.1589286   0.1589286), wk =   0.0014276
        k(  891) = (   0.1607143   0.1607143   0.1607143), wk =   0.0014276
        k(  892) = (   0.1625000   0.1625000   0.1625000), wk =   0.0014276
        k(  893) = (   0.1642857   0.1642857   0.1642857), wk =   0.0014276
        k(  894) = (   0.1660714   0.1660714   0.1660714), wk =   0.0014276
        k(  895) = (   0.1678571   0.1678571   0.1678571), wk =   0.0014276
        k(  896) = (   0.1696429   0.1696429   0.1696429), wk =   0.0014276
        k(  897) = (   0.1714286   0.1714286   0.1714286), wk =   0.0014276
        k(  898) = (   0.1732143   0.1732143   0.1732143), wk =   0.0014276
        k(  899) = (   0.1750000   0.1750000   0.1750000), wk =   0.0014276
        k(  900) = (   0.1767857   0.1767857   0.1767857), wk =   0.0014276
        k(  901) = (   0.1785714   0.1785714   0.1785714), wk =   0.0014276
        k(  902) = (   0.1803571   0.1803571   0.1803571), wk =   0.0014276
        k(  903) = (   0.1821429   0.1821429   0.1821429), wk =   0.0014276
        k(  904) = (   0.1839286   0.1839286   0.1839286), wk =   0.0014276
        k(  905) = (   0.1857143   0.1857143   0.1857143), wk =   0.0014276
        k(  906) = (   0.1875000   0.1875000   0.1875000), wk =   0.0014276
        k(  907) = (   0.1892857   0.1892857   0.1892857), wk =   0.0014276
        k(  908) = (   0.1910714   0.1910714   0.1910714), wk =   0.0014276
        k(  909) = (   0.1928571   0.1928571   0.1928571), wk =   0.0014276
        k(  910) = (   0.1946429   0.1946429   0.1946429), wk =   0.0014276
        k(  911) = (   0.1964286   0.1964286   0.1964286), wk =   0.0014276
        k(  912) = (   0.1982143   0.1982143   0.1982143), wk =   0.0014276
        k(  913) = (   0.2000000   0.2000000   0.2000000), wk =   0.0014276
        k(  914) = (   0.2017857   0.2017857   0.2017857), wk =   0.0014276
        k(  915) = (   0.2035714   0.2035714   0.2035714), wk =   0.0014276
        k(  916) = (   0.2053571   0.2053571   0.2053571), wk =   0.0014276
        k(  917) = (   0.2071429   0.2071429   0.2071429), wk =   0.0014276
        k(  918) = (   0.2089286   0.2089286   0.2089286), wk =   0.0014276
        k(  919) = (   0.2107143   0.2107143   0.2107143), wk =   0.0014276
        k(  920) = (   0.2125000   0.2125000   0.2125000), wk =   0.0014276
        k(  921) = (   0.2142857   0.2142857   0.2142857), wk =   0.0014276
        k(  922) = (   0.2160714   0.2160714   0.2160714), wk =   0.0014276
        k(  923) = (   0.2178571   0.2178571   0.2178571), wk =   0.0014276
        k(  924) = (   0.2196429   0.2196429   0.2196429), wk =   0.0014276
        k(  925) = (   0.2214286   0.2214286   0.2214286), wk =   0.0014276
        k(  926) = (   0.2232143   0.2232143   0.2232143), wk =   0.0014276
        k(  927) = (   0.2250000   0.2250000   0.2250000), wk =   0.0014276
        k(  928) = (   0.2267857   0.2267857   0.2267857), wk =   0.0014276
        k(  929) = (   0.2285714   0.2285714   0.2285714), wk =   0.0014276
        k(  930) = (   0.2303571   0.2303571   0.2303571), wk =   0.0014276
        k(  931) = (   0.2321429   0.2321429   0.2321429), wk =   0.0014276
        k(  932) = (   0.2339286   0.2339286   0.2339286), wk =   0.0014276
        k(  933) = (   0.2357143   0.2357143   0.2357143), wk =   0.0014276
        k(  934) = (   0.2375000   0.2375000   0.2375000), wk =   0.0014276
        k(  935) = (   0.2392857   0.2392857   0.2392857), wk =   0.0014276
        k(  936) = (   0.2410714   0.2410714   0.2410714), wk =   0.0014276
        k(  937) = (   0.2428571   0.2428571   0.2428571), wk =   0.0014276
        k(  938) = (   0.2446429   0.2446429   0.2446429), wk =   0.0014276
        k(  939) = (   0.2464286   0.2464286   0.2464286), wk =   0.0014276
        k(  940) = (   0.2482143   0.2482143   0.2482143), wk =   0.0014276
        k(  941) = (   0.2500000   0.2500000   0.2500000), wk =   0.0014276
        k(  942) = (   0.2517857   0.2517857   0.2517857), wk =   0.0014276
        k(  943) = (   0.2535714   0.2535714   0.2535714), wk =   0.0014276
        k(  944) = (   0.2553571   0.2553571   0.2553571), wk =   0.0014276
        k(  945) = (   0.2571429   0.2571429   0.2571429), wk =   0.0014276
        k(  946) = (   0.2589286   0.2589286   0.2589286), wk =   0.0014276
        k(  947) = (   0.2607143   0.2607143   0.2607143), wk =   0.0014276
        k(  948) = (   0.2625000   0.2625000   0.2625000), wk =   0.0014276
        k(  949) = (   0.2642857   0.2642857   0.2642857), wk =   0.0014276
        k(  950) = (   0.2660714   0.2660714   0.2660714), wk =   0.0014276
        k(  951) = (   0.2678571   0.2678571   0.2678571), wk =   0.0014276
        k(  952) = (   0.2696429   0.2696429   0.2696429), wk =   0.0014276
        k(  953) = (   0.2714286   0.2714286   0.2714286), wk =   0.0014276
        k(  954) = (   0.2732143   0.2732143   0.2732143), wk =   0.0014276
        k(  955) = (   0.2750000   0.2750000   0.2750000), wk =   0.0014276
        k(  956) = (   0.2767857   0.2767857   0.2767857), wk =   0.0014276
        k(  957) = (   0.2785714   0.2785714   0.2785714), wk =   0.0014276
        k(  958) = (   0.2803571   0.2803571   0.2803571), wk =   0.0014276
        k(  959) = (   0.2821429   0.2821429   0.2821429), wk =   0.0014276
        k(  960) = (   0.2839286   0.2839286   0.2839286), wk =   0.0014276
        k(  961) = (   0.2857143   0.2857143   0.2857143), wk =   0.0014276
        k(  962) = (   0.2875000   0.2875000   0.2875000), wk =   0.0014276
        k(  963) = (   0.2892857   0.2892857   0.2892857), wk =   0.0014276
        k(  964) = (   0.2910714   0.2910714   0.2910714), wk =   0.0014276
        k(  965) = (   0.2928571   0.2928571   0.2928571), wk =   0.0014276
        k(  966) = (   0.2946429   0.2946429   0.2946429), wk =   0.0014276
        k(  967) = (   0.2964286   0.2964286   0.2964286), wk =   0.0014276
        k(  968) = (   0.2982143   0.2982143   0.2982143), wk =   0.0014276
        k(  969) = (   0.3000000   0.3000000   0.3000000), wk =   0.0014276
        k(  970) = (   0.3017857   0.3017857   0.3017857), wk =   0.0014276
        k(  971) = (   0.3035714   0.3035714   0.3035714), wk =   0.0014276
        k(  972) = (   0.3053571   0.3053571   0.3053571), wk =   0.0014276
        k(  973) = (   0.3071429   0.3071429   0.3071429), wk =   0.0014276
        k(  974) = (   0.3089286   0.3089286   0.3089286), wk =   0.0014276
        k(  975) = (   0.3107143   0.3107143   0.3107143), wk =   0.0014276
        k(  976) = (   0.3125000   0.3125000   0.3125000), wk =   0.0014276
        k(  977) = (   0.3142857   0.3142857   0.3142857), wk =   0.0014276
        k(  978) = (   0.3160714   0.3160714   0.3160714), wk =   0.0014276
        k(  979) = (   0.3178571   0.3178571   0.3178571), wk =   0.0014276
        k(  980) = (   0.3196429   0.3196429   0.3196429), wk =   0.0014276
        k(  981) = (   0.3214286   0.3214286   0.3214286), wk =   0.0014276
        k(  982) = (   0.3232143   0.3232143   0.3232143), wk =   0.0014276
        k(  983) = (   0.3250000   0.3250000   0.3250000), wk =   0.0014276
        k(  984) = (   0.3267857   0.3267857   0.3267857), wk =   0.0014276
        k(  985) = (   0.3285714   0.3285714   0.3285714), wk =   0.0014276
        k(  986) = (   0.3303571   0.3303571   0.3303571), wk =   0.0014276
        k(  987) = (   0.3321429   0.3321429   0.3321429), wk =   0.0014276
        k(  988) = (   0.3339286   0.3339286   0.3339286), wk =   0.0014276
        k(  989) = (   0.3357143   0.3357143   0.3357143), wk =   0.0014276
        k(  990) = (   0.3375000   0.3375000   0.3375000), wk =   0.0014276
        k(  991) = (   0.3392857   0.3392857   0.3392857), wk =   0.0014276
        k(  992) = (   0.3410714   0.3410714   0.3410714), wk =   0.0014276
        k(  993) = (   0.3428571   0.3428571   0.3428571), wk =   0.0014276
        k(  994) = (   0.3446429   0.3446429   0.3446429), wk =   0.0014276
        k(  995) = (   0.3464286   0.3464286   0.3464286), wk =   0.0014276
        k(  996) = (   0.3482143   0.3482143   0.3482143), wk =   0.0014276
        k(  997) = (   0.3500000   0.3500000   0.3500000), wk =   0.0014276
        k(  998) = (   0.3517857   0.3517857   0.3517857), wk =   0.0014276
        k(  999) = (   0.3535714   0.3535714   0.3535714), wk =   0.0014276
        k( 1000) = (   0.3553571   0.3553571   0.3553571), wk =   0.0014276
        k( 1001) = (   0.3571429   0.3571429   0.3571429), wk =   0.0014276
        k( 1002) = (   0.3589286   0.3589286   0.3589286), wk =   0.0014276
        k( 1003) = (   0.3607143   0.3607143   0.3607143), wk =   0.0014276
        k( 1004) = (   0.3625000   0.3625000   0.3625000), wk =   0.0014276
        k( 1005) = (   0.3642857   0.3642857   0.3642857), wk =   0.0014276
        k( 1006) = (   0.3660714   0.3660714   0.3660714), wk =   0.0014276
        k( 1007) = (   0.3678571   0.3678571   0.3678571), wk =   0.0014276
        k( 1008) = (   0.3696429   0.3696429   0.3696429), wk =   0.0014276
        k( 1009) = (   0.3714286   0.3714286   0.3714286), wk =   0.0014276
        k( 1010) = (   0.3732143   0.3732143   0.3732143), wk =   0.0014276
        k( 1011) = (   0.3750000   0.3750000   0.3750000), wk =   0.0014276
        k( 1012) = (   0.3767857   0.3767857   0.3767857), wk =   0.0014276
        k( 1013) = (   0.3785714   0.3785714   0.3785714), wk =   0.0014276
        k( 1014) = (   0.3803571   0.3803571   0.3803571), wk =   0.0014276
        k( 1015) = (   0.3821429   0.3821429   0.3821429), wk =   0.0014276
        k( 1016) = (   0.3839286   0.3839286   0.3839286), wk =   0.0014276
        k( 1017) = (   0.3857143   0.3857143   0.3857143), wk =   0.0014276
        k( 1018) = (   0.3875000   0.3875000   0.3875000), wk =   0.0014276
        k( 1019) = (   0.3892857   0.3892857   0.3892857), wk =   0.0014276
        k( 1020) = (   0.3910714   0.3910714   0.3910714), wk =   0.0014276
        k( 1021) = (   0.3928571   0.3928571   0.3928571), wk =   0.0014276
        k( 1022) = (   0.3946429   0.3946429   0.3946429), wk =   0.0014276
        k( 1023) = (   0.3964286   0.3964286   0.3964286), wk =   0.0014276
        k( 1024) = (   0.3982143   0.3982143   0.3982143), wk =   0.0014276
        k( 1025) = (   0.4000000   0.4000000   0.4000000), wk =   0.0014276
        k( 1026) = (   0.4017857   0.4017857   0.4017857), wk =   0.0014276
        k( 1027) = (   0.4035714   0.4035714   0.4035714), wk =   0.0014276
        k( 1028) = (   0.4053571   0.4053571   0.4053571), wk =   0.0014276
        k( 1029) = (   0.4071429   0.4071429   0.4071429), wk =   0.0014276
        k( 1030) = (   0.4089286   0.4089286   0.4089286), wk =   0.0014276
        k( 1031) = (   0.4107143   0.4107143   0.4107143), wk =   0.0014276
        k( 1032) = (   0.4125000   0.4125000   0.4125000), wk =   0.0014276
        k( 1033) = (   0.4142857   0.4142857   0.4142857), wk =   0.0014276
        k( 1034) = (   0.4160714   0.4160714   0.4160714), wk =   0.0014276
        k( 1035) = (   0.4178571   0.4178571   0.4178571), wk =   0.0014276
        k( 1036) = (   0.4196429   0.4196429   0.4196429), wk =   0.0014276
        k( 1037) = (   0.4214286   0.4214286   0.4214286), wk =   0.0014276
        k( 1038) = (   0.4232143   0.4232143   0.4232143), wk =   0.0014276
        k( 1039) = (   0.4250000   0.4250000   0.4250000), wk =   0.0014276
        k( 1040) = (   0.4267857   0.4267857   0.4267857), wk =   0.0014276
        k( 1041) = (   0.4285714   0.4285714   0.4285714), wk =   0.0014276
        k( 1042) = (   0.4303571   0.4303571   0.4303571), wk =   0.0014276
        k( 1043) = (   0.4321429   0.4321429   0.4321429), wk =   0.0014276
        k( 1044) = (   0.4339286   0.4339286   0.4339286), wk =   0.0014276
        k( 1045) = (   0.4357143   0.4357143   0.4357143), wk =   0.0014276
        k( 1046) = (   0.4375000   0.4375000   0.4375000), wk =   0.0014276
        k( 1047) = (   0.4392857   0.4392857   0.4392857), wk =   0.0014276
        k( 1048) = (   0.4410714   0.4410714   0.4410714), wk =   0.0014276
        k( 1049) = (   0.4428571   0.4428571   0.4428571), wk =   0.0014276
        k( 1050) = (   0.4446429   0.4446429   0.4446429), wk =   0.0014276
        k( 1051) = (   0.4464286   0.4464286   0.4464286), wk =   0.0014276
        k( 1052) = (   0.4482143   0.4482143   0.4482143), wk =   0.0014276
        k( 1053) = (   0.4500000   0.4500000   0.4500000), wk =   0.0014276
        k( 1054) = (   0.4517857   0.4517857   0.4517857), wk =   0.0014276
        k( 1055) = (   0.4535714   0.4535714   0.4535714), wk =   0.0014276
        k( 1056) = (   0.4553571   0.4553571   0.4553571), wk =   0.0014276
        k( 1057) = (   0.4571429   0.4571429   0.4571429), wk =   0.0014276
        k( 1058) = (   0.4589286   0.4589286   0.4589286), wk =   0.0014276
        k( 1059) = (   0.4607143   0.4607143   0.4607143), wk =   0.0014276
        k( 1060) = (   0.4625000   0.4625000   0.4625000), wk =   0.0014276
        k( 1061) = (   0.4642857   0.4642857   0.4642857), wk =   0.0014276
        k( 1062) = (   0.4660714   0.4660714   0.4660714), wk =   0.0014276
        k( 1063) = (   0.4678571   0.4678571   0.4678571), wk =   0.0014276
        k( 1064) = (   0.4696429   0.4696429   0.4696429), wk =   0.0014276
        k( 1065) = (   0.4714286   0.4714286   0.4714286), wk =   0.0014276
        k( 1066) = (   0.4732143   0.4732143   0.4732143), wk =   0.0014276
        k( 1067) = (   0.4750000   0.4750000   0.4750000), wk =   0.0014276
        k( 1068) = (   0.4767857   0.4767857   0.4767857), wk =   0.0014276
        k( 1069) = (   0.4785714   0.4785714   0.4785714), wk =   0.0014276
        k( 1070) = (   0.4803571   0.4803571   0.4803571), wk =   0.0014276
        k( 1071) = (   0.4821429   0.4821429   0.4821429), wk =   0.0014276
        k( 1072) = (   0.4839286   0.4839286   0.4839286), wk =   0.0014276
        k( 1073) = (   0.4857143   0.4857143   0.4857143), wk =   0.0014276
        k( 1074) = (   0.4875000   0.4875000   0.4875000), wk =   0.0014276
        k( 1075) = (   0.4892857   0.4892857   0.4892857), wk =   0.0014276
        k( 1076) = (   0.4910714   0.4910714   0.4910714), wk =   0.0014276
        k( 1077) = (   0.4928571   0.4928571   0.4928571), wk =   0.0014276
        k( 1078) = (   0.4946429   0.4946429   0.4946429), wk =   0.0014276
        k( 1079) = (   0.4964286   0.4964286   0.4964286), wk =   0.0014276
        k( 1080) = (   0.4982143   0.4982143   0.4982143), wk =   0.0014276
        k( 1081) = (   0.5000000   0.5000000   0.5000000), wk =   0.0014276
        k( 1082) = (   0.5000000   0.4987500   0.5012500), wk =   0.0014276
        k( 1083) = (   0.5000000   0.4975000   0.5025000), wk =   0.0014276
        k( 1084) = (   0.5000000   0.4962500   0.5037500), wk =   0.0014276
        k( 1085) = (   0.5000000   0.4950000   0.5050000), wk =   0.0014276
        k( 1086) = (   0.5000000   0.4937500   0.5062500), wk =   0.0014276
        k( 1087) = (   0.5000000   0.4925000   0.5075000), wk =   0.0014276
        k( 1088) = (   0.5000000   0.4912500   0.5087500), wk =   0.0014276
        k( 1089) = (   0.5000000   0.4900000   0.5100000), wk =   0.0014276
        k( 1090) = (   0.5000000   0.4887500   0.5112500), wk =   0.0014276
        k( 1091) = (   0.5000000   0.4875000   0.5125000), wk =   0.0014276
        k( 1092) = (   0.5000000   0.4862500   0.5137500), wk =   0.0014276
        k( 1093) = (   0.5000000   0.4850000   0.5150000), wk =   0.0014276
        k( 1094) = (   0.5000000   0.4837500   0.5162500), wk =   0.0014276
        k( 1095) = (   0.5000000   0.4825000   0.5175000), wk =   0.0014276
        k( 1096) = (   0.5000000   0.4812500   0.5187500), wk =   0.0014276
        k( 1097) = (   0.5000000   0.4800000   0.5200000), wk =   0.0014276
        k( 1098) = (   0.5000000   0.4787500   0.5212500), wk =   0.0014276
        k( 1099) = (   0.5000000   0.4775000   0.5225000), wk =   0.0014276
        k( 1100) = (   0.5000000   0.4762500   0.5237500), wk =   0.0014276
        k( 1101) = (   0.5000000   0.4750000   0.5250000), wk =   0.0014276
        k( 1102) = (   0.5000000   0.4737500   0.5262500), wk =   0.0014276
        k( 1103) = (   0.5000000   0.4725000   0.5275000), wk =   0.0014276
        k( 1104) = (   0.5000000   0.4712500   0.5287500), wk =   0.0014276
        k( 1105) = (   0.5000000   0.4700000   0.5300000), wk =   0.0014276
        k( 1106) = (   0.5000000   0.4687500   0.5312500), wk =   0.0014276
        k( 1107) = (   0.5000000   0.4675000   0.5325000), wk =   0.0014276
        k( 1108) = (   0.5000000   0.4662500   0.5337500), wk =   0.0014276
        k( 1109) = (   0.5000000   0.4650000   0.5350000), wk =   0.0014276
        k( 1110) = (   0.5000000   0.4637500   0.5362500), wk =   0.0014276
        k( 1111) = (   0.5000000   0.4625000   0.5375000), wk =   0.0014276
        k( 1112) = (   0.5000000   0.4612500   0.5387500), wk =   0.0014276
        k( 1113) = (   0.5000000   0.4600000   0.5400000), wk =   0.0014276
        k( 1114) = (   0.5000000   0.4587500   0.5412500), wk =   0.0014276
        k( 1115) = (   0.5000000   0.4575000   0.5425000), wk =   0.0014276
        k( 1116) = (   0.5000000   0.4562500   0.5437500), wk =   0.0014276
        k( 1117) = (   0.5000000   0.4550000   0.5450000), wk =   0.0014276
        k( 1118) = (   0.5000000   0.4537500   0.5462500), wk =   0.0014276
        k( 1119) = (   0.5000000   0.4525000   0.5475000), wk =   0.0014276
        k( 1120) = (   0.5000000   0.4512500   0.5487500), wk =   0.0014276
        k( 1121) = (   0.5000000   0.4500000   0.5500000), wk =   0.0014276
        k( 1122) = (   0.5000000   0.4487500   0.5512500), wk =   0.0014276
        k( 1123) = (   0.5000000   0.4475000   0.5525000), wk =   0.0014276
        k( 1124) = (   0.5000000   0.4462500   0.5537500), wk =   0.0014276
        k( 1125) = (   0.5000000   0.4450000   0.5550000), wk =   0.0014276
        k( 1126) = (   0.5000000   0.4437500   0.5562500), wk =   0.0014276
        k( 1127) = (   0.5000000   0.4425000   0.5575000), wk =   0.0014276
        k( 1128) = (   0.5000000   0.4412500   0.5587500), wk =   0.0014276
        k( 1129) = (   0.5000000   0.4400000   0.5600000), wk =   0.0014276
        k( 1130) = (   0.5000000   0.4387500   0.5612500), wk =   0.0014276
        k( 1131) = (   0.5000000   0.4375000   0.5625000), wk =   0.0014276
        k( 1132) = (   0.5000000   0.4362500   0.5637500), wk =   0.0014276
        k( 1133) = (   0.5000000   0.4350000   0.5650000), wk =   0.0014276
        k( 1134) = (   0.5000000   0.4337500   0.5662500), wk =   0.0014276
        k( 1135) = (   0.5000000   0.4325000   0.5675000), wk =   0.0014276
        k( 1136) = (   0.5000000   0.4312500   0.5687500), wk =   0.0014276
        k( 1137) = (   0.5000000   0.4300000   0.5700000), wk =   0.0014276
        k( 1138) = (   0.5000000   0.4287500   0.5712500), wk =   0.0014276
        k( 1139) = (   0.5000000   0.4275000   0.5725000), wk =   0.0014276
        k( 1140) = (   0.5000000   0.4262500   0.5737500), wk =   0.0014276
        k( 1141) = (   0.5000000   0.4250000   0.5750000), wk =   0.0014276
        k( 1142) = (   0.5000000   0.4237500   0.5762500), wk =   0.0014276
        k( 1143) = (   0.5000000   0.4225000   0.5775000), wk =   0.0014276
        k( 1144) = (   0.5000000   0.4212500   0.5787500), wk =   0.0014276
        k( 1145) = (   0.5000000   0.4200000   0.5800000), wk =   0.0014276
        k( 1146) = (   0.5000000   0.4187500   0.5812500), wk =   0.0014276
        k( 1147) = (   0.5000000   0.4175000   0.5825000), wk =   0.0014276
        k( 1148) = (   0.5000000   0.4162500   0.5837500), wk =   0.0014276
        k( 1149) = (   0.5000000   0.4150000   0.5850000), wk =   0.0014276
        k( 1150) = (   0.5000000   0.4137500   0.5862500), wk =   0.0014276
        k( 1151) = (   0.5000000   0.4125000   0.5875000), wk =   0.0014276
        k( 1152) = (   0.5000000   0.4112500   0.5887500), wk =   0.0014276
        k( 1153) = (   0.5000000   0.4100000   0.5900000), wk =   0.0014276
        k( 1154) = (   0.5000000   0.4087500   0.5912500), wk =   0.0014276
        k( 1155) = (   0.5000000   0.4075000   0.5925000), wk =   0.0014276
        k( 1156) = (   0.5000000   0.4062500   0.5937500), wk =   0.0014276
        k( 1157) = (   0.5000000   0.4050000   0.5950000), wk =   0.0014276
        k( 1158) = (   0.5000000   0.4037500   0.5962500), wk =   0.0014276
        k( 1159) = (   0.5000000   0.4025000   0.5975000), wk =   0.0014276
        k( 1160) = (   0.5000000   0.4012500   0.5987500), wk =   0.0014276
        k( 1161) = (   0.5000000   0.4000000   0.6000000), wk =   0.0014276
        k( 1162) = (   0.5000000   0.3987500   0.6012500), wk =   0.0014276
        k( 1163) = (   0.5000000   0.3975000   0.6025000), wk =   0.0014276
        k( 1164) = (   0.5000000   0.3962500   0.6037500), wk =   0.0014276
        k( 1165) = (   0.5000000   0.3950000   0.6050000), wk =   0.0014276
        k( 1166) = (   0.5000000   0.3937500   0.6062500), wk =   0.0014276
        k( 1167) = (   0.5000000   0.3925000   0.6075000), wk =   0.0014276
        k( 1168) = (   0.5000000   0.3912500   0.6087500), wk =   0.0014276
        k( 1169) = (   0.5000000   0.3900000   0.6100000), wk =   0.0014276
        k( 1170) = (   0.5000000   0.3887500   0.6112500), wk =   0.0014276
        k( 1171) = (   0.5000000   0.3875000   0.6125000), wk =   0.0014276
        k( 1172) = (   0.5000000   0.3862500   0.6137500), wk =   0.0014276
        k( 1173) = (   0.5000000   0.3850000   0.6150000), wk =   0.0014276
        k( 1174) = (   0.5000000   0.3837500   0.6162500), wk =   0.0014276
        k( 1175) = (   0.5000000   0.3825000   0.6175000), wk =   0.0014276
        k( 1176) = (   0.5000000   0.3812500   0.6187500), wk =   0.0014276
        k( 1177) = (   0.5000000   0.3800000   0.6200000), wk =   0.0014276
        k( 1178) = (   0.5000000   0.3787500   0.6212500), wk =   0.0014276
        k( 1179) = (   0.5000000   0.3775000   0.6225000), wk =   0.0014276
        k( 1180) = (   0.5000000   0.3762500   0.6237500), wk =   0.0014276
        k( 1181) = (   0.5000000   0.3750000   0.6250000), wk =   0.0014276
        k( 1182) = (   0.5000000   0.3737500   0.6262500), wk =   0.0014276
        k( 1183) = (   0.5000000   0.3725000   0.6275000), wk =   0.0014276
        k( 1184) = (   0.5000000   0.3712500   0.6287500), wk =   0.0014276
        k( 1185) = (   0.5000000   0.3700000   0.6300000), wk =   0.0014276
        k( 1186) = (   0.5000000   0.3687500   0.6312500), wk =   0.0014276
        k( 1187) = (   0.5000000   0.3675000   0.6325000), wk =   0.0014276
        k( 1188) = (   0.5000000   0.3662500   0.6337500), wk =   0.0014276
        k( 1189) = (   0.5000000   0.3650000   0.6350000), wk =   0.0014276
        k( 1190) = (   0.5000000   0.3637500   0.6362500), wk =   0.0014276
        k( 1191) = (   0.5000000   0.3625000   0.6375000), wk =   0.0014276
        k( 1192) = (   0.5000000   0.3612500   0.6387500), wk =   0.0014276
        k( 1193) = (   0.5000000   0.3600000   0.6400000), wk =   0.0014276
        k( 1194) = (   0.5000000   0.3587500   0.6412500), wk =   0.0014276
        k( 1195) = (   0.5000000   0.3575000   0.6425000), wk =   0.0014276
        k( 1196) = (   0.5000000   0.3562500   0.6437500), wk =   0.0014276
        k( 1197) = (   0.5000000   0.3550000   0.6450000), wk =   0.0014276
        k( 1198) = (   0.5000000   0.3537500   0.6462500), wk =   0.0014276
        k( 1199) = (   0.5000000   0.3525000   0.6475000), wk =   0.0014276
        k( 1200) = (   0.5000000   0.3512500   0.6487500), wk =   0.0014276
        k( 1201) = (   0.5000000   0.3500000   0.6500000), wk =   0.0014276
        k( 1202) = (   0.5000000   0.3487500   0.6512500), wk =   0.0014276
        k( 1203) = (   0.5000000   0.3475000   0.6525000), wk =   0.0014276
        k( 1204) = (   0.5000000   0.3462500   0.6537500), wk =   0.0014276
        k( 1205) = (   0.5000000   0.3450000   0.6550000), wk =   0.0014276
        k( 1206) = (   0.5000000   0.3437500   0.6562500), wk =   0.0014276
        k( 1207) = (   0.5000000   0.3425000   0.6575000), wk =   0.0014276
        k( 1208) = (   0.5000000   0.3412500   0.6587500), wk =   0.0014276
        k( 1209) = (   0.5000000   0.3400000   0.6600000), wk =   0.0014276
        k( 1210) = (   0.5000000   0.3387500   0.6612500), wk =   0.0014276
        k( 1211) = (   0.5000000   0.3375000   0.6625000), wk =   0.0014276
        k( 1212) = (   0.5000000   0.3362500   0.6637500), wk =   0.0014276
        k( 1213) = (   0.5000000   0.3350000   0.6650000), wk =   0.0014276
        k( 1214) = (   0.5000000   0.3337500   0.6662500), wk =   0.0014276
        k( 1215) = (   0.5000000   0.3325000   0.6675000), wk =   0.0014276
        k( 1216) = (   0.5000000   0.3312500   0.6687500), wk =   0.0014276
        k( 1217) = (   0.5000000   0.3300000   0.6700000), wk =   0.0014276
        k( 1218) = (   0.5000000   0.3287500   0.6712500), wk =   0.0014276
        k( 1219) = (   0.5000000   0.3275000   0.6725000), wk =   0.0014276
        k( 1220) = (   0.5000000   0.3262500   0.6737500), wk =   0.0014276
        k( 1221) = (   0.5000000   0.3250000   0.6750000), wk =   0.0014276
        k( 1222) = (   0.5000000   0.3237500   0.6762500), wk =   0.0014276
        k( 1223) = (   0.5000000   0.3225000   0.6775000), wk =   0.0014276
        k( 1224) = (   0.5000000   0.3212500   0.6787500), wk =   0.0014276
        k( 1225) = (   0.5000000   0.3200000   0.6800000), wk =   0.0014276
        k( 1226) = (   0.5000000   0.3187500   0.6812500), wk =   0.0014276
        k( 1227) = (   0.5000000   0.3175000   0.6825000), wk =   0.0014276
        k( 1228) = (   0.5000000   0.3162500   0.6837500), wk =   0.0014276
        k( 1229) = (   0.5000000   0.3150000   0.6850000), wk =   0.0014276
        k( 1230) = (   0.5000000   0.3137500   0.6862500), wk =   0.0014276
        k( 1231) = (   0.5000000   0.3125000   0.6875000), wk =   0.0014276
        k( 1232) = (   0.5000000   0.3112500   0.6887500), wk =   0.0014276
        k( 1233) = (   0.5000000   0.3100000   0.6900000), wk =   0.0014276
        k( 1234) = (   0.5000000   0.3087500   0.6912500), wk =   0.0014276
        k( 1235) = (   0.5000000   0.3075000   0.6925000), wk =   0.0014276
        k( 1236) = (   0.5000000   0.3062500   0.6937500), wk =   0.0014276
        k( 1237) = (   0.5000000   0.3050000   0.6950000), wk =   0.0014276
        k( 1238) = (   0.5000000   0.3037500   0.6962500), wk =   0.0014276
        k( 1239) = (   0.5000000   0.3025000   0.6975000), wk =   0.0014276
        k( 1240) = (   0.5000000   0.3012500   0.6987500), wk =   0.0014276
        k( 1241) = (   0.5000000   0.3000000   0.7000000), wk =   0.0014276
        k( 1242) = (   0.5000000   0.2987500   0.7012500), wk =   0.0014276
        k( 1243) = (   0.5000000   0.2975000   0.7025000), wk =   0.0014276
        k( 1244) = (   0.5000000   0.2962500   0.7037500), wk =   0.0014276
        k( 1245) = (   0.5000000   0.2950000   0.7050000), wk =   0.0014276
        k( 1246) = (   0.5000000   0.2937500   0.7062500), wk =   0.0014276
        k( 1247) = (   0.5000000   0.2925000   0.7075000), wk =   0.0014276
        k( 1248) = (   0.5000000   0.2912500   0.7087500), wk =   0.0014276
        k( 1249) = (   0.5000000   0.2900000   0.7100000), wk =   0.0014276
        k( 1250) = (   0.5000000   0.2887500   0.7112500), wk =   0.0014276
        k( 1251) = (   0.5000000   0.2875000   0.7125000), wk =   0.0014276
        k( 1252) = (   0.5000000   0.2862500   0.7137500), wk =   0.0014276
        k( 1253) = (   0.5000000   0.2850000   0.7150000), wk =   0.0014276
        k( 1254) = (   0.5000000   0.2837500   0.7162500), wk =   0.0014276
        k( 1255) = (   0.5000000   0.2825000   0.7175000), wk =   0.0014276
        k( 1256) = (   0.5000000   0.2812500   0.7187500), wk =   0.0014276
        k( 1257) = (   0.5000000   0.2800000   0.7200000), wk =   0.0014276
        k( 1258) = (   0.5000000   0.2787500   0.7212500), wk =   0.0014276
        k( 1259) = (   0.5000000   0.2775000   0.7225000), wk =   0.0014276
        k( 1260) = (   0.5000000   0.2762500   0.7237500), wk =   0.0014276
        k( 1261) = (   0.5000000   0.2750000   0.7250000), wk =   0.0014276
        k( 1262) = (   0.5000000   0.2737500   0.7262500), wk =   0.0014276
        k( 1263) = (   0.5000000   0.2725000   0.7275000), wk =   0.0014276
        k( 1264) = (   0.5000000   0.2712500   0.7287500), wk =   0.0014276
        k( 1265) = (   0.5000000   0.2700000   0.7300000), wk =   0.0014276
        k( 1266) = (   0.5000000   0.2687500   0.7312500), wk =   0.0014276
        k( 1267) = (   0.5000000   0.2675000   0.7325000), wk =   0.0014276
        k( 1268) = (   0.5000000   0.2662500   0.7337500), wk =   0.0014276
        k( 1269) = (   0.5000000   0.2650000   0.7350000), wk =   0.0014276
        k( 1270) = (   0.5000000   0.2637500   0.7362500), wk =   0.0014276
        k( 1271) = (   0.5000000   0.2625000   0.7375000), wk =   0.0014276
        k( 1272) = (   0.5000000   0.2612500   0.7387500), wk =   0.0014276
        k( 1273) = (   0.5000000   0.2600000   0.7400000), wk =   0.0014276
        k( 1274) = (   0.5000000   0.2587500   0.7412500), wk =   0.0014276
        k( 1275) = (   0.5000000   0.2575000   0.7425000), wk =   0.0014276
        k( 1276) = (   0.5000000   0.2562500   0.7437500), wk =   0.0014276
        k( 1277) = (   0.5000000   0.2550000   0.7450000), wk =   0.0014276
        k( 1278) = (   0.5000000   0.2537500   0.7462500), wk =   0.0014276
        k( 1279) = (   0.5000000   0.2525000   0.7475000), wk =   0.0014276
        k( 1280) = (   0.5000000   0.2512500   0.7487500), wk =   0.0014276
        k( 1281) = (   0.5000000   0.2500000   0.7500000), wk =   0.0014276
        k( 1282) = (   0.5000000   0.2479167   0.7479167), wk =   0.0014276
        k( 1283) = (   0.5000000   0.2458333   0.7458333), wk =   0.0014276
        k( 1284) = (   0.5000000   0.2437500   0.7437500), wk =   0.0014276
        k( 1285) = (   0.5000000   0.2416667   0.7416667), wk =   0.0014276
        k( 1286) = (   0.5000000   0.2395833   0.7395833), wk =   0.0014276
        k( 1287) = (   0.5000000   0.2375000   0.7375000), wk =   0.0014276
        k( 1288) = (   0.5000000   0.2354167   0.7354167), wk =   0.0014276
        k( 1289) = (   0.5000000   0.2333333   0.7333333), wk =   0.0014276
        k( 1290) = (   0.5000000   0.2312500   0.7312500), wk =   0.0014276
        k( 1291) = (   0.5000000   0.2291667   0.7291667), wk =   0.0014276
        k( 1292) = (   0.5000000   0.2270833   0.7270833), wk =   0.0014276
        k( 1293) = (   0.5000000   0.2250000   0.7250000), wk =   0.0014276
        k( 1294) = (   0.5000000   0.2229167   0.7229167), wk =   0.0014276
        k( 1295) = (   0.5000000   0.2208333   0.7208333), wk =   0.0014276
        k( 1296) = (   0.5000000   0.2187500   0.7187500), wk =   0.0014276
        k( 1297) = (   0.5000000   0.2166667   0.7166667), wk =   0.0014276
        k( 1298) = (   0.5000000   0.2145833   0.7145833), wk =   0.0014276
        k( 1299) = (   0.5000000   0.2125000   0.7125000), wk =   0.0014276
        k( 1300) = (   0.5000000   0.2104167   0.7104167), wk =   0.0014276
        k( 1301) = (   0.5000000   0.2083333   0.7083333), wk =   0.0014276
        k( 1302) = (   0.5000000   0.2062500   0.7062500), wk =   0.0014276
        k( 1303) = (   0.5000000   0.2041667   0.7041667), wk =   0.0014276
        k( 1304) = (   0.5000000   0.2020833   0.7020833), wk =   0.0014276
        k( 1305) = (   0.5000000   0.2000000   0.7000000), wk =   0.0014276
        k( 1306) = (   0.5000000   0.1979167   0.6979167), wk =   0.0014276
        k( 1307) = (   0.5000000   0.1958333   0.6958333), wk =   0.0014276
        k( 1308) = (   0.5000000   0.1937500   0.6937500), wk =   0.0014276
        k( 1309) = (   0.5000000   0.1916667   0.6916667), wk =   0.0014276
        k( 1310) = (   0.5000000   0.1895833   0.6895833), wk =   0.0014276
        k( 1311) = (   0.5000000   0.1875000   0.6875000), wk =   0.0014276
        k( 1312) = (   0.5000000   0.1854167   0.6854167), wk =   0.0014276
        k( 1313) = (   0.5000000   0.1833333   0.6833333), wk =   0.0014276
        k( 1314) = (   0.5000000   0.1812500   0.6812500), wk =   0.0014276
        k( 1315) = (   0.5000000   0.1791667   0.6791667), wk =   0.0014276
        k( 1316) = (   0.5000000   0.1770833   0.6770833), wk =   0.0014276
        k( 1317) = (   0.5000000   0.1750000   0.6750000), wk =   0.0014276
        k( 1318) = (   0.5000000   0.1729167   0.6729167), wk =   0.0014276
        k( 1319) = (   0.5000000   0.1708333   0.6708333), wk =   0.0014276
        k( 1320) = (   0.5000000   0.1687500   0.6687500), wk =   0.0014276
        k( 1321) = (   0.5000000   0.1666667   0.6666667), wk =   0.0014276
        k( 1322) = (   0.5000000   0.1645833   0.6645833), wk =   0.0014276
        k( 1323) = (   0.5000000   0.1625000   0.6625000), wk =   0.0014276
        k( 1324) = (   0.5000000   0.1604167   0.6604167), wk =   0.0014276
        k( 1325) = (   0.5000000   0.1583333   0.6583333), wk =   0.0014276
        k( 1326) = (   0.5000000   0.1562500   0.6562500), wk =   0.0014276
        k( 1327) = (   0.5000000   0.1541667   0.6541667), wk =   0.0014276
        k( 1328) = (   0.5000000   0.1520833   0.6520833), wk =   0.0014276
        k( 1329) = (   0.5000000   0.1500000   0.6500000), wk =   0.0014276
        k( 1330) = (   0.5000000   0.1479167   0.6479167), wk =   0.0014276
        k( 1331) = (   0.5000000   0.1458333   0.6458333), wk =   0.0014276
        k( 1332) = (   0.5000000   0.1437500   0.6437500), wk =   0.0014276
        k( 1333) = (   0.5000000   0.1416667   0.6416667), wk =   0.0014276
        k( 1334) = (   0.5000000   0.1395833   0.6395833), wk =   0.0014276
        k( 1335) = (   0.5000000   0.1375000   0.6375000), wk =   0.0014276
        k( 1336) = (   0.5000000   0.1354167   0.6354167), wk =   0.0014276
        k( 1337) = (   0.5000000   0.1333333   0.6333333), wk =   0.0014276
        k( 1338) = (   0.5000000   0.1312500   0.6312500), wk =   0.0014276
        k( 1339) = (   0.5000000   0.1291667   0.6291667), wk =   0.0014276
        k( 1340) = (   0.5000000   0.1270833   0.6270833), wk =   0.0014276
        k( 1341) = (   0.5000000   0.1250000   0.6250000), wk =   0.0014276
        k( 1342) = (   0.5000000   0.1229167   0.6229167), wk =   0.0014276
        k( 1343) = (   0.5000000   0.1208333   0.6208333), wk =   0.0014276
        k( 1344) = (   0.5000000   0.1187500   0.6187500), wk =   0.0014276
        k( 1345) = (   0.5000000   0.1166667   0.6166667), wk =   0.0014276
        k( 1346) = (   0.5000000   0.1145833   0.6145833), wk =   0.0014276
        k( 1347) = (   0.5000000   0.1125000   0.6125000), wk =   0.0014276
        k( 1348) = (   0.5000000   0.1104167   0.6104167), wk =   0.0014276
        k( 1349) = (   0.5000000   0.1083333   0.6083333), wk =   0.0014276
        k( 1350) = (   0.5000000   0.1062500   0.6062500), wk =   0.0014276
        k( 1351) = (   0.5000000   0.1041667   0.6041667), wk =   0.0014276
        k( 1352) = (   0.5000000   0.1020833   0.6020833), wk =   0.0014276
        k( 1353) = (   0.5000000   0.1000000   0.6000000), wk =   0.0014276
        k( 1354) = (   0.5000000   0.0979167   0.5979167), wk =   0.0014276
        k( 1355) = (   0.5000000   0.0958333   0.5958333), wk =   0.0014276
        k( 1356) = (   0.5000000   0.0937500   0.5937500), wk =   0.0014276
        k( 1357) = (   0.5000000   0.0916667   0.5916667), wk =   0.0014276
        k( 1358) = (   0.5000000   0.0895833   0.5895833), wk =   0.0014276
        k( 1359) = (   0.5000000   0.0875000   0.5875000), wk =   0.0014276
        k( 1360) = (   0.5000000   0.0854167   0.5854167), wk =   0.0014276
        k( 1361) = (   0.5000000   0.0833333   0.5833333), wk =   0.0014276
        k( 1362) = (   0.5000000   0.0812500   0.5812500), wk =   0.0014276
        k( 1363) = (   0.5000000   0.0791667   0.5791667), wk =   0.0014276
        k( 1364) = (   0.5000000   0.0770833   0.5770833), wk =   0.0014276
        k( 1365) = (   0.5000000   0.0750000   0.5750000), wk =   0.0014276
        k( 1366) = (   0.5000000   0.0729167   0.5729167), wk =   0.0014276
        k( 1367) = (   0.5000000   0.0708333   0.5708333), wk =   0.0014276
        k( 1368) = (   0.5000000   0.0687500   0.5687500), wk =   0.0014276
        k( 1369) = (   0.5000000   0.0666667   0.5666667), wk =   0.0014276
        k( 1370) = (   0.5000000   0.0645833   0.5645833), wk =   0.0014276
        k( 1371) = (   0.5000000   0.0625000   0.5625000), wk =   0.0014276
        k( 1372) = (   0.5000000   0.0604167   0.5604167), wk =   0.0014276
        k( 1373) = (   0.5000000   0.0583333   0.5583333), wk =   0.0014276
        k( 1374) = (   0.5000000   0.0562500   0.5562500), wk =   0.0014276
        k( 1375) = (   0.5000000   0.0541667   0.5541667), wk =   0.0014276
        k( 1376) = (   0.5000000   0.0520833   0.5520833), wk =   0.0014276
        k( 1377) = (   0.5000000   0.0500000   0.5500000), wk =   0.0014276
        k( 1378) = (   0.5000000   0.0479167   0.5479167), wk =   0.0014276
        k( 1379) = (   0.5000000   0.0458333   0.5458333), wk =   0.0014276
        k( 1380) = (   0.5000000   0.0437500   0.5437500), wk =   0.0014276
        k( 1381) = (   0.5000000   0.0416667   0.5416667), wk =   0.0014276
        k( 1382) = (   0.5000000   0.0395833   0.5395833), wk =   0.0014276
        k( 1383) = (   0.5000000   0.0375000   0.5375000), wk =   0.0014276
        k( 1384) = (   0.5000000   0.0354167   0.5354167), wk =   0.0014276
        k( 1385) = (   0.5000000   0.0333333   0.5333333), wk =   0.0014276
        k( 1386) = (   0.5000000   0.0312500   0.5312500), wk =   0.0014276
        k( 1387) = (   0.5000000   0.0291667   0.5291667), wk =   0.0014276
        k( 1388) = (   0.5000000   0.0270833   0.5270833), wk =   0.0014276
        k( 1389) = (   0.5000000   0.0250000   0.5250000), wk =   0.0014276
        k( 1390) = (   0.5000000   0.0229167   0.5229167), wk =   0.0014276
        k( 1391) = (   0.5000000   0.0208333   0.5208333), wk =   0.0014276
        k( 1392) = (   0.5000000   0.0187500   0.5187500), wk =   0.0014276
        k( 1393) = (   0.5000000   0.0166667   0.5166667), wk =   0.0014276
        k( 1394) = (   0.5000000   0.0145833   0.5145833), wk =   0.0014276
        k( 1395) = (   0.5000000   0.0125000   0.5125000), wk =   0.0014276
        k( 1396) = (   0.5000000   0.0104167   0.5104167), wk =   0.0014276
        k( 1397) = (   0.5000000   0.0083333   0.5083333), wk =   0.0014276
        k( 1398) = (   0.5000000   0.0062500   0.5062500), wk =   0.0014276
        k( 1399) = (   0.5000000   0.0041667   0.5041667), wk =   0.0014276
        k( 1400) = (   0.5000000   0.0020833   0.5020833), wk =   0.0014276
        k( 1401) = (   0.5000000   0.0000000   0.5000000), wk =   0.0014276

     Dense  grid:   161653 G-vectors     FFT dimensions: (  75,  75,  75)

     Smooth grid:    87843 G-vectors     FFT dimensions: (  64,  64,  64)

     Dynamical RAM for                 wfc:       0.70 MB

     Dynamical RAM for     wfc (w. buffer):       0.70 MB

     Dynamical RAM for           str. fact:       0.82 MB

     Dynamical RAM for           local pot:       0.00 MB

     Dynamical RAM for          nlocal pot:       1.01 MB

     Dynamical RAM for                qrad:       4.31 MB

     Dynamical RAM for          rho,v,vnew:       2.91 MB

     Dynamical RAM for           G-vectors:       1.65 MB

     Dynamical RAM for          h,s,v(r/c):       0.11 MB

     Dynamical RAM for          <psi|beta>:       0.01 MB

     Dynamical RAM for                 psi:       1.40 MB

     Dynamical RAM for                hpsi:       1.40 MB

     Dynamical RAM for                spsi:       1.40 MB

     Dynamical RAM for      wfcinit/wfcrot:       1.41 MB

     Dynamical RAM for           addusdens:      76.88 MB

     Estimated static dynamical RAM per process >      15.42 MB

     Estimated max dynamical RAM per process >      92.30 MB

     Estimated total dynamical RAM >     553.79 MB

     The potential is recalculated from file :
     /home/User/opencode_workspace/DFT/calculations/hgte/production_bands_nosoc/out/pwscf.save/charge-density

     Starting wfcs are   14 randomized atomic wfcs +   11 random wfcs

     Band Structure Calculation
     Davidson diagonalization with overlap

     Computing kpt #:     1  of  1401
     total cpu time spent up to now is        2.2 secs

     Computing kpt #:     2  of  1401
     total cpu time spent up to now is        3.0 secs

     Computing kpt #:     3  of  1401
     total cpu time spent up to now is        3.8 secs

     Computing kpt #:     4  of  1401
     total cpu time spent up to now is        4.6 secs

     Computing kpt #:     5  of  1401
     total cpu time spent up to now is        5.4 secs

     Computing kpt #:     6  of  1401
     total cpu time spent up to now is        6.2 secs

     Computing kpt #:     7  of  1401
     total cpu time spent up to now is        7.0 secs

     Computing kpt #:     8  of  1401
     total cpu time spent up to now is        7.8 secs

     Computing kpt #:     9  of  1401
     total cpu time spent up to now is        8.6 secs

     Computing kpt #:    10  of  1401
     total cpu time spent up to now is        9.3 secs

     Computing kpt #:    11  of  1401
     total cpu time spent up to now is       10.1 secs

     Computing kpt #:    12  of  1401
     total cpu time spent up to now is       11.1 secs

     Computing kpt #:    13  of  1401
     total cpu time spent up to now is       11.8 secs

     Computing kpt #:    14  of  1401
     total cpu time spent up to now is       12.6 secs

     Computing kpt #:    15  of  1401
     total cpu time spent up to now is       13.4 secs

     Computing kpt #:    16  of  1401
     total cpu time spent up to now is       14.1 secs

     Computing kpt #:    17  of  1401
     total cpu time spent up to now is       14.9 secs

     Computing kpt #:    18  of  1401
     total cpu time spent up to now is       15.7 secs

     Computing kpt #:    19  of  1401
     total cpu time spent up to now is       16.4 secs

     Computing kpt #:    20  of  1401
     total cpu time spent up to now is       17.2 secs

     Computing kpt #:    21  of  1401
     total cpu time spent up to now is       17.9 secs

     Computing kpt #:    22  of  1401
     total cpu time spent up to now is       18.7 secs

     Computing kpt #:    23  of  1401
     total cpu time spent up to now is       19.5 secs

     Computing kpt #:    24  of  1401
     total cpu time spent up to now is       20.3 secs

     Computing kpt #:    25  of  1401
     total cpu time spent up to now is       21.3 secs

     Computing kpt #:    26  of  1401
     total cpu time spent up to now is       22.1 secs

     Computing kpt #:    27  of  1401
     total cpu time spent up to now is       22.9 secs

     Computing kpt #:    28  of  1401
     total cpu time spent up to now is       23.7 secs

     Computing kpt #:    29  of  1401
     total cpu time spent up to now is       24.5 secs

     Computing kpt #:    30  of  1401
     total cpu time spent up to now is       25.3 secs

     Computing kpt #:    31  of  1401
     total cpu time spent up to now is       26.1 secs

     Computing kpt #:    32  of  1401
     total cpu time spent up to now is       26.9 secs

     Computing kpt #:    33  of  1401
     total cpu time spent up to now is       27.8 secs

     Computing kpt #:    34  of  1401
     total cpu time spent up to now is       28.5 secs

     Computing kpt #:    35  of  1401
     total cpu time spent up to now is       29.3 secs

     Computing kpt #:    36  of  1401
     total cpu time spent up to now is       30.2 secs

     Computing kpt #:    37  of  1401
     total cpu time spent up to now is       31.0 secs

     Computing kpt #:    38  of  1401
     total cpu time spent up to now is       31.7 secs

     Computing kpt #:    39  of  1401
     total cpu time spent up to now is       32.6 secs

     Computing kpt #:    40  of  1401
     total cpu time spent up to now is       33.4 secs

     Computing kpt #:    41  of  1401
     total cpu time spent up to now is       34.2 secs

     Computing kpt #:    42  of  1401
     total cpu time spent up to now is       35.2 secs

     Computing kpt #:    43  of  1401
     total cpu time spent up to now is       36.0 secs

     Computing kpt #:    44  of  1401
     total cpu time spent up to now is       36.8 secs

     Computing kpt #:    45  of  1401
     total cpu time spent up to now is       37.9 secs

     Computing kpt #:    46  of  1401
     total cpu time spent up to now is       38.7 secs

     Computing kpt #:    47  of  1401
     total cpu time spent up to now is       39.7 secs

     Computing kpt #:    48  of  1401
     total cpu time spent up to now is       40.6 secs

     Computing kpt #:    49  of  1401
     total cpu time spent up to now is       41.7 secs

     Computing kpt #:    50  of  1401
     total cpu time spent up to now is       43.1 secs

     Computing kpt #:    51  of  1401
     total cpu time spent up to now is       43.9 secs

     Computing kpt #:    52  of  1401
     total cpu time spent up to now is       44.7 secs

     Computing kpt #:    53  of  1401
     total cpu time spent up to now is       45.5 secs

     Computing kpt #:    54  of  1401
     total cpu time spent up to now is       46.3 secs

     Computing kpt #:    55  of  1401
     total cpu time spent up to now is       47.2 secs

     Computing kpt #:    56  of  1401
     total cpu time spent up to now is       48.0 secs

     Computing kpt #:    57  of  1401
     total cpu time spent up to now is       48.7 secs

     Computing kpt #:    58  of  1401
     total cpu time spent up to now is       49.5 secs

     Computing kpt #:    59  of  1401
     total cpu time spent up to now is       50.2 secs

     Computing kpt #:    60  of  1401
     total cpu time spent up to now is       51.0 secs

     Computing kpt #:    61  of  1401
     total cpu time spent up to now is       51.9 secs

     Computing kpt #:    62  of  1401
     total cpu time spent up to now is       52.8 secs

     Computing kpt #:    63  of  1401
     total cpu time spent up to now is       53.6 secs

     Computing kpt #:    64  of  1401
     total cpu time spent up to now is       54.4 secs

     Computing kpt #:    65  of  1401
     total cpu time spent up to now is       55.2 secs

     Computing kpt #:    66  of  1401
     total cpu time spent up to now is       56.1 secs

     Computing kpt #:    67  of  1401
     total cpu time spent up to now is       56.9 secs

     Computing kpt #:    68  of  1401
     total cpu time spent up to now is       57.7 secs

     Computing kpt #:    69  of  1401
     total cpu time spent up to now is       58.5 secs

     Computing kpt #:    70  of  1401
     total cpu time spent up to now is       59.3 secs

     Computing kpt #:    71  of  1401
     total cpu time spent up to now is       60.0 secs

     Computing kpt #:    72  of  1401
     total cpu time spent up to now is       60.9 secs

     Computing kpt #:    73  of  1401
     total cpu time spent up to now is       61.7 secs

     Computing kpt #:    74  of  1401
     total cpu time spent up to now is       62.5 secs

     Computing kpt #:    75  of  1401
     total cpu time spent up to now is       63.4 secs

     Computing kpt #:    76  of  1401
     total cpu time spent up to now is       64.2 secs

     Computing kpt #:    77  of  1401
     total cpu time spent up to now is       65.0 secs

     Computing kpt #:    78  of  1401
     total cpu time spent up to now is       65.8 secs

     Computing kpt #:    79  of  1401
     total cpu time spent up to now is       66.6 secs

     Computing kpt #:    80  of  1401
     total cpu time spent up to now is       67.6 secs

     Computing kpt #:    81  of  1401
     total cpu time spent up to now is       68.4 secs

     Computing kpt #:    82  of  1401
     total cpu time spent up to now is       69.2 secs

     Computing kpt #:    83  of  1401
     total cpu time spent up to now is       69.9 secs

     Computing kpt #:    84  of  1401
     total cpu time spent up to now is       70.6 secs

     Computing kpt #:    85  of  1401
     total cpu time spent up to now is       71.5 secs

     Computing kpt #:    86  of  1401
     total cpu time spent up to now is       72.3 secs

     Computing kpt #:    87  of  1401
     total cpu time spent up to now is       73.0 secs

     Computing kpt #:    88  of  1401
     total cpu time spent up to now is       73.7 secs

     Computing kpt #:    89  of  1401
     total cpu time spent up to now is       74.4 secs

     Computing kpt #:    90  of  1401
     total cpu time spent up to now is       75.2 secs

     Computing kpt #:    91  of  1401
     total cpu time spent up to now is       76.0 secs

     Computing kpt #:    92  of  1401
     total cpu time spent up to now is       76.8 secs

     Computing kpt #:    93  of  1401
     total cpu time spent up to now is       77.5 secs

     Computing kpt #:    94  of  1401
     total cpu time spent up to now is       78.2 secs

     Computing kpt #:    95  of  1401
     total cpu time spent up to now is       78.9 secs

     Computing kpt #:    96  of  1401
     total cpu time spent up to now is       79.6 secs

     Computing kpt #:    97  of  1401
     total cpu time spent up to now is       80.3 secs

     Computing kpt #:    98  of  1401
     total cpu time spent up to now is       81.0 secs

     Computing kpt #:    99  of  1401
     total cpu time spent up to now is       81.8 secs

     Computing kpt #:   100  of  1401
     total cpu time spent up to now is       82.5 secs

     Computing kpt #:   101  of  1401
     total cpu time spent up to now is       83.3 secs

     Computing kpt #:   102  of  1401
     total cpu time spent up to now is       84.0 secs

     Computing kpt #:   103  of  1401
     total cpu time spent up to now is       84.8 secs

     Computing kpt #:   104  of  1401
     total cpu time spent up to now is       85.5 secs

     Computing kpt #:   105  of  1401
     total cpu time spent up to now is       86.2 secs

     Computing kpt #:   106  of  1401
     total cpu time spent up to now is       87.0 secs

     Computing kpt #:   107  of  1401
     total cpu time spent up to now is       87.8 secs

     Computing kpt #:   108  of  1401
     total cpu time spent up to now is       88.6 secs

     Computing kpt #:   109  of  1401
     total cpu time spent up to now is       89.3 secs

     Computing kpt #:   110  of  1401
     total cpu time spent up to now is       90.1 secs

     Computing kpt #:   111  of  1401
     total cpu time spent up to now is       90.8 secs

     Computing kpt #:   112  of  1401
     total cpu time spent up to now is       91.5 secs

     Computing kpt #:   113  of  1401
     total cpu time spent up to now is       92.3 secs

     Computing kpt #:   114  of  1401
     total cpu time spent up to now is       93.0 secs

     Computing kpt #:   115  of  1401
     total cpu time spent up to now is       93.7 secs

     Computing kpt #:   116  of  1401
     total cpu time spent up to now is       94.4 secs

     Computing kpt #:   117  of  1401
     total cpu time spent up to now is       95.1 secs

     Computing kpt #:   118  of  1401
     total cpu time spent up to now is       95.8 secs

     Computing kpt #:   119  of  1401
     total cpu time spent up to now is       96.5 secs

     Computing kpt #:   120  of  1401
     total cpu time spent up to now is       97.3 secs

     Computing kpt #:   121  of  1401
     total cpu time spent up to now is       98.0 secs

     Computing kpt #:   122  of  1401
     total cpu time spent up to now is       98.7 secs

     Computing kpt #:   123  of  1401
     total cpu time spent up to now is       99.5 secs

     Computing kpt #:   124  of  1401
     total cpu time spent up to now is      100.3 secs

     Computing kpt #:   125  of  1401
     total cpu time spent up to now is      101.2 secs

     Computing kpt #:   126  of  1401
     total cpu time spent up to now is      102.3 secs

     Computing kpt #:   127  of  1401
     total cpu time spent up to now is      103.2 secs

     Computing kpt #:   128  of  1401
     total cpu time spent up to now is      104.1 secs

     Computing kpt #:   129  of  1401
     total cpu time spent up to now is      104.9 secs

     Computing kpt #:   130  of  1401
     total cpu time spent up to now is      105.6 secs

     Computing kpt #:   131  of  1401
     total cpu time spent up to now is      106.4 secs

     Computing kpt #:   132  of  1401
     total cpu time spent up to now is      107.2 secs

     Computing kpt #:   133  of  1401
     total cpu time spent up to now is      108.1 secs

     Computing kpt #:   134  of  1401
     total cpu time spent up to now is      109.0 secs

     Computing kpt #:   135  of  1401
     total cpu time spent up to now is      109.9 secs

     Computing kpt #:   136  of  1401
     total cpu time spent up to now is      110.7 secs

     Computing kpt #:   137  of  1401
     total cpu time spent up to now is      111.5 secs

     Computing kpt #:   138  of  1401
     total cpu time spent up to now is      112.4 secs

     Computing kpt #:   139  of  1401
     total cpu time spent up to now is      113.2 secs

     Computing kpt #:   140  of  1401
     total cpu time spent up to now is      113.9 secs

     Computing kpt #:   141  of  1401
     total cpu time spent up to now is      114.6 secs

     Computing kpt #:   142  of  1401
     total cpu time spent up to now is      115.4 secs

     Computing kpt #:   143  of  1401
     total cpu time spent up to now is      116.1 secs

     Computing kpt #:   144  of  1401
     total cpu time spent up to now is      116.9 secs

     Computing kpt #:   145  of  1401
     total cpu time spent up to now is      117.8 secs

     Computing kpt #:   146  of  1401
     total cpu time spent up to now is      118.9 secs

     Computing kpt #:   147  of  1401
     total cpu time spent up to now is      119.9 secs

     Computing kpt #:   148  of  1401
     total cpu time spent up to now is      120.6 secs

     Computing kpt #:   149  of  1401
     total cpu time spent up to now is      121.4 secs

     Computing kpt #:   150  of  1401
     total cpu time spent up to now is      122.2 secs

     Computing kpt #:   151  of  1401
     total cpu time spent up to now is      123.0 secs

     Computing kpt #:   152  of  1401
     total cpu time spent up to now is      123.8 secs

     Computing kpt #:   153  of  1401
     total cpu time spent up to now is      124.6 secs

     Computing kpt #:   154  of  1401
     total cpu time spent up to now is      125.4 secs

     Computing kpt #:   155  of  1401
     total cpu time spent up to now is      126.2 secs

     Computing kpt #:   156  of  1401
     total cpu time spent up to now is      127.1 secs

     Computing kpt #:   157  of  1401
     total cpu time spent up to now is      128.0 secs

     Computing kpt #:   158  of  1401
     total cpu time spent up to now is      128.7 secs

     Computing kpt #:   159  of  1401
     total cpu time spent up to now is      129.4 secs

     Computing kpt #:   160  of  1401
     total cpu time spent up to now is      130.2 secs

     Computing kpt #:   161  of  1401
     total cpu time spent up to now is      130.9 secs

     Computing kpt #:   162  of  1401
     total cpu time spent up to now is      131.8 secs

     Computing kpt #:   163  of  1401
     total cpu time spent up to now is      132.7 secs

     Computing kpt #:   164  of  1401
     total cpu time spent up to now is      133.6 secs

     Computing kpt #:   165  of  1401
     total cpu time spent up to now is      134.3 secs

     Computing kpt #:   166  of  1401
     total cpu time spent up to now is      135.0 secs

     Computing kpt #:   167  of  1401
     total cpu time spent up to now is      135.7 secs

     Computing kpt #:   168  of  1401
     total cpu time spent up to now is      136.4 secs

     Computing kpt #:   169  of  1401
     total cpu time spent up to now is      137.2 secs

     Computing kpt #:   170  of  1401
     total cpu time spent up to now is      137.9 secs

     Computing kpt #:   171  of  1401
     total cpu time spent up to now is      138.8 secs

     Computing kpt #:   172  of  1401
     total cpu time spent up to now is      139.7 secs

     Computing kpt #:   173  of  1401
     total cpu time spent up to now is      140.4 secs

     Computing kpt #:   174  of  1401
     total cpu time spent up to now is      141.2 secs

     Computing kpt #:   175  of  1401
     total cpu time spent up to now is      142.0 secs

     Computing kpt #:   176  of  1401
     total cpu time spent up to now is      142.8 secs

     Computing kpt #:   177  of  1401
     total cpu time spent up to now is      143.7 secs

     Computing kpt #:   178  of  1401
     total cpu time spent up to now is      144.4 secs

     Computing kpt #:   179  of  1401
     total cpu time spent up to now is      145.2 secs

     Computing kpt #:   180  of  1401
     total cpu time spent up to now is      146.0 secs

     Computing kpt #:   181  of  1401
     total cpu time spent up to now is      146.7 secs

     Computing kpt #:   182  of  1401
     total cpu time spent up to now is      147.5 secs

     Computing kpt #:   183  of  1401
     total cpu time spent up to now is      148.3 secs

     Computing kpt #:   184  of  1401
     total cpu time spent up to now is      149.1 secs

     Computing kpt #:   185  of  1401
     total cpu time spent up to now is      149.9 secs

     Computing kpt #:   186  of  1401
     total cpu time spent up to now is      150.6 secs

     Computing kpt #:   187  of  1401
     total cpu time spent up to now is      151.4 secs

     Computing kpt #:   188  of  1401
     total cpu time spent up to now is      152.3 secs

     Computing kpt #:   189  of  1401
     total cpu time spent up to now is      153.1 secs

     Computing kpt #:   190  of  1401
     total cpu time spent up to now is      153.8 secs

     Computing kpt #:   191  of  1401
     total cpu time spent up to now is      154.6 secs

     Computing kpt #:   192  of  1401
     total cpu time spent up to now is      155.4 secs

     Computing kpt #:   193  of  1401
     total cpu time spent up to now is      156.1 secs

     Computing kpt #:   194  of  1401
     total cpu time spent up to now is      156.9 secs

     Computing kpt #:   195  of  1401
     total cpu time spent up to now is      157.7 secs

     Computing kpt #:   196  of  1401
     total cpu time spent up to now is      158.5 secs

     Computing kpt #:   197  of  1401
     total cpu time spent up to now is      159.3 secs

     Computing kpt #:   198  of  1401
     total cpu time spent up to now is      160.2 secs

     Computing kpt #:   199  of  1401
     total cpu time spent up to now is      161.4 secs

     Computing kpt #:   200  of  1401
     total cpu time spent up to now is      162.7 secs

     Computing kpt #:   201  of  1401
     total cpu time spent up to now is      163.6 secs

     Computing kpt #:   202  of  1401
     total cpu time spent up to now is      164.3 secs

     Computing kpt #:   203  of  1401
     total cpu time spent up to now is      165.1 secs

     Computing kpt #:   204  of  1401
     total cpu time spent up to now is      165.8 secs

     Computing kpt #:   205  of  1401
     total cpu time spent up to now is      166.6 secs

     Computing kpt #:   206  of  1401
     total cpu time spent up to now is      167.3 secs

     Computing kpt #:   207  of  1401
     total cpu time spent up to now is      168.0 secs

     Computing kpt #:   208  of  1401
     total cpu time spent up to now is      168.8 secs

     Computing kpt #:   209  of  1401
     total cpu time spent up to now is      169.8 secs

     Computing kpt #:   210  of  1401
     total cpu time spent up to now is      170.6 secs

     Computing kpt #:   211  of  1401
     total cpu time spent up to now is      171.4 secs

     Computing kpt #:   212  of  1401
     total cpu time spent up to now is      172.2 secs

     Computing kpt #:   213  of  1401
     total cpu time spent up to now is      173.0 secs

     Computing kpt #:   214  of  1401
     total cpu time spent up to now is      173.8 secs

     Computing kpt #:   215  of  1401
     total cpu time spent up to now is      174.6 secs

     Computing kpt #:   216  of  1401
     total cpu time spent up to now is      175.6 secs

     Computing kpt #:   217  of  1401
     total cpu time spent up to now is      176.4 secs

     Computing kpt #:   218  of  1401
     total cpu time spent up to now is      177.2 secs

     Computing kpt #:   219  of  1401
     total cpu time spent up to now is      177.9 secs

     Computing kpt #:   220  of  1401
     total cpu time spent up to now is      178.7 secs

     Computing kpt #:   221  of  1401
     total cpu time spent up to now is      179.5 secs

     Computing kpt #:   222  of  1401
     total cpu time spent up to now is      180.2 secs

     Computing kpt #:   223  of  1401
     total cpu time spent up to now is      181.1 secs

     Computing kpt #:   224  of  1401
     total cpu time spent up to now is      181.8 secs

     Computing kpt #:   225  of  1401
     total cpu time spent up to now is      182.6 secs

     Computing kpt #:   226  of  1401
     total cpu time spent up to now is      183.4 secs

     Computing kpt #:   227  of  1401
     total cpu time spent up to now is      184.2 secs

     Computing kpt #:   228  of  1401
     total cpu time spent up to now is      185.0 secs

     Computing kpt #:   229  of  1401
     total cpu time spent up to now is      185.7 secs

     Computing kpt #:   230  of  1401
     total cpu time spent up to now is      186.5 secs

     Computing kpt #:   231  of  1401
     total cpu time spent up to now is      187.2 secs

     Computing kpt #:   232  of  1401
     total cpu time spent up to now is      188.1 secs

     Computing kpt #:   233  of  1401
     total cpu time spent up to now is      188.9 secs

     Computing kpt #:   234  of  1401
     total cpu time spent up to now is      189.7 secs

     Computing kpt #:   235  of  1401
     total cpu time spent up to now is      190.5 secs

     Computing kpt #:   236  of  1401
     total cpu time spent up to now is      191.3 secs

     Computing kpt #:   237  of  1401
     total cpu time spent up to now is      192.0 secs

     Computing kpt #:   238  of  1401
     total cpu time spent up to now is      192.8 secs

     Computing kpt #:   239  of  1401
     total cpu time spent up to now is      193.5 secs

     Computing kpt #:   240  of  1401
     total cpu time spent up to now is      194.3 secs

     Computing kpt #:   241  of  1401
     total cpu time spent up to now is      195.1 secs

     Computing kpt #:   242  of  1401
     total cpu time spent up to now is      195.8 secs

     Computing kpt #:   243  of  1401
     total cpu time spent up to now is      196.5 secs

     Computing kpt #:   244  of  1401
     total cpu time spent up to now is      197.2 secs

     Computing kpt #:   245  of  1401
     total cpu time spent up to now is      198.0 secs

     Computing kpt #:   246  of  1401
     total cpu time spent up to now is      198.7 secs

     Computing kpt #:   247  of  1401
     total cpu time spent up to now is      199.4 secs

     Computing kpt #:   248  of  1401
     total cpu time spent up to now is      200.2 secs

     Computing kpt #:   249  of  1401
     total cpu time spent up to now is      200.9 secs

     Computing kpt #:   250  of  1401
     total cpu time spent up to now is      201.7 secs

     Computing kpt #:   251  of  1401
     total cpu time spent up to now is      202.4 secs

     Computing kpt #:   252  of  1401
     total cpu time spent up to now is      203.2 secs

     Computing kpt #:   253  of  1401
     total cpu time spent up to now is      203.9 secs

     Computing kpt #:   254  of  1401
     total cpu time spent up to now is      204.7 secs

     Computing kpt #:   255  of  1401
     total cpu time spent up to now is      205.5 secs

     Computing kpt #:   256  of  1401
     total cpu time spent up to now is      206.2 secs

     Computing kpt #:   257  of  1401
     total cpu time spent up to now is      207.0 secs

     Computing kpt #:   258  of  1401
     total cpu time spent up to now is      207.7 secs

     Computing kpt #:   259  of  1401
     total cpu time spent up to now is      208.5 secs

     Computing kpt #:   260  of  1401
     total cpu time spent up to now is      209.4 secs

     Computing kpt #:   261  of  1401
     total cpu time spent up to now is      210.2 secs

     Computing kpt #:   262  of  1401
     total cpu time spent up to now is      211.2 secs

     Computing kpt #:   263  of  1401
     total cpu time spent up to now is      212.0 secs

     Computing kpt #:   264  of  1401
     total cpu time spent up to now is      212.8 secs

     Computing kpt #:   265  of  1401
     total cpu time spent up to now is      213.6 secs

     Computing kpt #:   266  of  1401
     total cpu time spent up to now is      214.5 secs

     Computing kpt #:   267  of  1401
     total cpu time spent up to now is      215.3 secs

     Computing kpt #:   268  of  1401
     total cpu time spent up to now is      216.1 secs

     Computing kpt #:   269  of  1401
     total cpu time spent up to now is      216.9 secs

     Computing kpt #:   270  of  1401
     total cpu time spent up to now is      217.6 secs

     Computing kpt #:   271  of  1401
     total cpu time spent up to now is      218.4 secs

     Computing kpt #:   272  of  1401
     total cpu time spent up to now is      219.3 secs

     Computing kpt #:   273  of  1401
     total cpu time spent up to now is      220.2 secs

     Computing kpt #:   274  of  1401
     total cpu time spent up to now is      221.4 secs

     Computing kpt #:   275  of  1401
     total cpu time spent up to now is      223.5 secs

     Computing kpt #:   276  of  1401
     total cpu time spent up to now is      224.6 secs

     Computing kpt #:   277  of  1401
     total cpu time spent up to now is      225.7 secs

     Computing kpt #:   278  of  1401
     total cpu time spent up to now is      226.9 secs

     Computing kpt #:   279  of  1401
     total cpu time spent up to now is      227.8 secs

     Computing kpt #:   280  of  1401
     total cpu time spent up to now is      228.8 secs

     Computing kpt #:   281  of  1401
     total cpu time spent up to now is      229.7 secs

     Computing kpt #:   282  of  1401
     total cpu time spent up to now is      230.6 secs

     Computing kpt #:   283  of  1401
     total cpu time spent up to now is      231.4 secs

     Computing kpt #:   284  of  1401
     total cpu time spent up to now is      232.3 secs

     Computing kpt #:   285  of  1401
     total cpu time spent up to now is      233.2 secs

     Computing kpt #:   286  of  1401
     total cpu time spent up to now is      234.0 secs

     Computing kpt #:   287  of  1401
     total cpu time spent up to now is      234.8 secs

     Computing kpt #:   288  of  1401
     total cpu time spent up to now is      235.6 secs

     Computing kpt #:   289  of  1401
     total cpu time spent up to now is      236.4 secs

     Computing kpt #:   290  of  1401
     total cpu time spent up to now is      237.2 secs

     Computing kpt #:   291  of  1401
     total cpu time spent up to now is      238.0 secs

     Computing kpt #:   292  of  1401
     total cpu time spent up to now is      238.8 secs

     Computing kpt #:   293  of  1401
     total cpu time spent up to now is      239.9 secs

     Computing kpt #:   294  of  1401
     total cpu time spent up to now is      240.9 secs

     Computing kpt #:   295  of  1401
     total cpu time spent up to now is      241.7 secs

     Computing kpt #:   296  of  1401
     total cpu time spent up to now is      242.5 secs

     Computing kpt #:   297  of  1401
     total cpu time spent up to now is      243.3 secs

     Computing kpt #:   298  of  1401
     total cpu time spent up to now is      244.1 secs

     Computing kpt #:   299  of  1401
     total cpu time spent up to now is      245.0 secs

     Computing kpt #:   300  of  1401
     total cpu time spent up to now is      246.0 secs

     Computing kpt #:   301  of  1401
     total cpu time spent up to now is      247.0 secs

     Computing kpt #:   302  of  1401
     total cpu time spent up to now is      248.0 secs

     Computing kpt #:   303  of  1401
     total cpu time spent up to now is      248.8 secs

     Computing kpt #:   304  of  1401
     total cpu time spent up to now is      249.9 secs

     Computing kpt #:   305  of  1401
     total cpu time spent up to now is      251.0 secs

     Computing kpt #:   306  of  1401
     total cpu time spent up to now is      251.9 secs

     Computing kpt #:   307  of  1401
     total cpu time spent up to now is      252.8 secs

     Computing kpt #:   308  of  1401
     total cpu time spent up to now is      253.6 secs

     Computing kpt #:   309  of  1401
     total cpu time spent up to now is      254.6 secs

     Computing kpt #:   310  of  1401
     total cpu time spent up to now is      255.6 secs

     Computing kpt #:   311  of  1401
     total cpu time spent up to now is      256.5 secs

     Computing kpt #:   312  of  1401
     total cpu time spent up to now is      257.3 secs

     Computing kpt #:   313  of  1401
     total cpu time spent up to now is      258.1 secs

     Computing kpt #:   314  of  1401
     total cpu time spent up to now is      259.0 secs

     Computing kpt #:   315  of  1401
     total cpu time spent up to now is      259.8 secs

     Computing kpt #:   316  of  1401
     total cpu time spent up to now is      260.7 secs

     Computing kpt #:   317  of  1401
     total cpu time spent up to now is      261.5 secs

     Computing kpt #:   318  of  1401
     total cpu time spent up to now is      262.4 secs

     Computing kpt #:   319  of  1401
     total cpu time spent up to now is      263.4 secs

     Computing kpt #:   320  of  1401
     total cpu time spent up to now is      264.3 secs

     Computing kpt #:   321  of  1401
     total cpu time spent up to now is      265.1 secs

     Computing kpt #:   322  of  1401
     c_bands:  1 eigenvalues not converged
     total cpu time spent up to now is      266.1 secs

     Computing kpt #:   323  of  1401
     total cpu time spent up to now is      267.2 secs

     Computing kpt #:   324  of  1401
     total cpu time spent up to now is      268.2 secs

     Computing kpt #:   325  of  1401
     total cpu time spent up to now is      269.3 secs

     Computing kpt #:   326  of  1401
     total cpu time spent up to now is      270.4 secs

     Computing kpt #:   327  of  1401
     total cpu time spent up to now is      271.3 secs

     Computing kpt #:   328  of  1401
     total cpu time spent up to now is      272.2 secs

     Computing kpt #:   329  of  1401
     total cpu time spent up to now is      273.1 secs

     Computing kpt #:   330  of  1401
     total cpu time spent up to now is      274.0 secs

     Computing kpt #:   331  of  1401
     total cpu time spent up to now is      274.8 secs

     Computing kpt #:   332  of  1401
     total cpu time spent up to now is      275.7 secs

     Computing kpt #:   333  of  1401
     total cpu time spent up to now is      276.5 secs

     Computing kpt #:   334  of  1401
     total cpu time spent up to now is      277.4 secs

     Computing kpt #:   335  of  1401
     total cpu time spent up to now is      278.2 secs

     Computing kpt #:   336  of  1401
     total cpu time spent up to now is      279.2 secs

     Computing kpt #:   337  of  1401
     total cpu time spent up to now is      280.5 secs

     Computing kpt #:   338  of  1401
     total cpu time spent up to now is      281.8 secs

     Computing kpt #:   339  of  1401
     total cpu time spent up to now is      282.9 secs

     Computing kpt #:   340  of  1401
     c_bands:  1 eigenvalues not converged
     total cpu time spent up to now is      284.0 secs

     Computing kpt #:   341  of  1401
     total cpu time spent up to now is      285.0 secs

     Computing kpt #:   342  of  1401
     total cpu time spent up to now is      285.8 secs

     Computing kpt #:   343  of  1401
     total cpu time spent up to now is      286.7 secs

     Computing kpt #:   344  of  1401
     total cpu time spent up to now is      287.6 secs

     Computing kpt #:   345  of  1401
     total cpu time spent up to now is      288.5 secs

     Computing kpt #:   346  of  1401
     total cpu time spent up to now is      289.3 secs

     Computing kpt #:   347  of  1401
     total cpu time spent up to now is      290.5 secs

     Computing kpt #:   348  of  1401
     total cpu time spent up to now is      291.6 secs

     Computing kpt #:   349  of  1401
     total cpu time spent up to now is      292.6 secs

     Computing kpt #:   350  of  1401
     total cpu time spent up to now is      293.4 secs

     Computing kpt #:   351  of  1401
     total cpu time spent up to now is      294.2 secs

     Computing kpt #:   352  of  1401
     total cpu time spent up to now is      295.0 secs

     Computing kpt #:   353  of  1401
     total cpu time spent up to now is      295.9 secs

     Computing kpt #:   354  of  1401
     total cpu time spent up to now is      296.6 secs

     Computing kpt #:   355  of  1401
     total cpu time spent up to now is      297.4 secs

     Computing kpt #:   356  of  1401
     total cpu time spent up to now is      298.2 secs

     Computing kpt #:   357  of  1401
     total cpu time spent up to now is      299.0 secs

     Computing kpt #:   358  of  1401
     total cpu time spent up to now is      299.8 secs

     Computing kpt #:   359  of  1401
     total cpu time spent up to now is      300.6 secs

     Computing kpt #:   360  of  1401
     total cpu time spent up to now is      301.3 secs

     Computing kpt #:   361  of  1401
     total cpu time spent up to now is      302.1 secs

     Computing kpt #:   362  of  1401
     total cpu time spent up to now is      302.9 secs

     Computing kpt #:   363  of  1401
     total cpu time spent up to now is      303.8 secs

     Computing kpt #:   364  of  1401
     total cpu time spent up to now is      304.8 secs

     Computing kpt #:   365  of  1401
     total cpu time spent up to now is      305.5 secs

     Computing kpt #:   366  of  1401
     total cpu time spent up to now is      306.3 secs

     Computing kpt #:   367  of  1401
     total cpu time spent up to now is      307.1 secs

     Computing kpt #:   368  of  1401
     total cpu time spent up to now is      307.9 secs

     Computing kpt #:   369  of  1401
     total cpu time spent up to now is      308.8 secs

     Computing kpt #:   370  of  1401
     total cpu time spent up to now is      309.5 secs

     Computing kpt #:   371  of  1401
     total cpu time spent up to now is      310.5 secs

     Computing kpt #:   372  of  1401
     total cpu time spent up to now is      311.4 secs

     Computing kpt #:   373  of  1401
     total cpu time spent up to now is      312.4 secs

     Computing kpt #:   374  of  1401
     total cpu time spent up to now is      313.1 secs

     Computing kpt #:   375  of  1401
     total cpu time spent up to now is      313.9 secs

     Computing kpt #:   376  of  1401
     total cpu time spent up to now is      314.7 secs

     Computing kpt #:   377  of  1401
     total cpu time spent up to now is      315.5 secs

     Computing kpt #:   378  of  1401
     total cpu time spent up to now is      316.2 secs

     Computing kpt #:   379  of  1401
     total cpu time spent up to now is      317.0 secs

     Computing kpt #:   380  of  1401
     total cpu time spent up to now is      317.7 secs

     Computing kpt #:   381  of  1401
     total cpu time spent up to now is      318.4 secs

     Computing kpt #:   382  of  1401
     total cpu time spent up to now is      319.2 secs

     Computing kpt #:   383  of  1401
     total cpu time spent up to now is      319.9 secs

     Computing kpt #:   384  of  1401
     total cpu time spent up to now is      320.7 secs

     Computing kpt #:   385  of  1401
     total cpu time spent up to now is      321.4 secs

     Computing kpt #:   386  of  1401
     total cpu time spent up to now is      322.1 secs

     Computing kpt #:   387  of  1401
     total cpu time spent up to now is      322.9 secs

     Computing kpt #:   388  of  1401
     total cpu time spent up to now is      323.6 secs

     Computing kpt #:   389  of  1401
     total cpu time spent up to now is      324.4 secs

     Computing kpt #:   390  of  1401
     total cpu time spent up to now is      325.1 secs

     Computing kpt #:   391  of  1401
     total cpu time spent up to now is      325.9 secs

     Computing kpt #:   392  of  1401
     total cpu time spent up to now is      326.6 secs

     Computing kpt #:   393  of  1401
     total cpu time spent up to now is      327.4 secs

     Computing kpt #:   394  of  1401
     total cpu time spent up to now is      328.2 secs

     Computing kpt #:   395  of  1401
     total cpu time spent up to now is      328.9 secs

     Computing kpt #:   396  of  1401
     total cpu time spent up to now is      329.6 secs

     Computing kpt #:   397  of  1401
     total cpu time spent up to now is      330.3 secs

     Computing kpt #:   398  of  1401
     total cpu time spent up to now is      331.1 secs

     Computing kpt #:   399  of  1401
     total cpu time spent up to now is      331.9 secs

     Computing kpt #:   400  of  1401
     total cpu time spent up to now is      332.6 secs

     Computing kpt #:   401  of  1401
     total cpu time spent up to now is      333.3 secs

     Computing kpt #:   402  of  1401
     total cpu time spent up to now is      334.0 secs

     Computing kpt #:   403  of  1401
     total cpu time spent up to now is      334.8 secs

     Computing kpt #:   404  of  1401
     total cpu time spent up to now is      335.5 secs

     Computing kpt #:   405  of  1401
     total cpu time spent up to now is      336.2 secs

     Computing kpt #:   406  of  1401
     total cpu time spent up to now is      337.0 secs

     Computing kpt #:   407  of  1401
     total cpu time spent up to now is      337.8 secs

     Computing kpt #:   408  of  1401
     total cpu time spent up to now is      338.7 secs

     Computing kpt #:   409  of  1401
     total cpu time spent up to now is      339.5 secs

     Computing kpt #:   410  of  1401
     total cpu time spent up to now is      340.4 secs

     Computing kpt #:   411  of  1401
     total cpu time spent up to now is      341.7 secs

     Computing kpt #:   412  of  1401
     total cpu time spent up to now is      342.9 secs

     Computing kpt #:   413  of  1401
     total cpu time spent up to now is      343.8 secs

     Computing kpt #:   414  of  1401
     total cpu time spent up to now is      344.6 secs

     Computing kpt #:   415  of  1401
     total cpu time spent up to now is      345.4 secs

     Computing kpt #:   416  of  1401
     total cpu time spent up to now is      346.4 secs

     Computing kpt #:   417  of  1401
     total cpu time spent up to now is      347.3 secs

     Computing kpt #:   418  of  1401
     total cpu time spent up to now is      348.1 secs

     Computing kpt #:   419  of  1401
     total cpu time spent up to now is      348.9 secs

     Computing kpt #:   420  of  1401
     total cpu time spent up to now is      349.6 secs

     Computing kpt #:   421  of  1401
     total cpu time spent up to now is      350.4 secs

     Computing kpt #:   422  of  1401
     total cpu time spent up to now is      351.2 secs

     Computing kpt #:   423  of  1401
     total cpu time spent up to now is      352.1 secs

     Computing kpt #:   424  of  1401
     total cpu time spent up to now is      352.9 secs

     Computing kpt #:   425  of  1401
     total cpu time spent up to now is      353.6 secs

     Computing kpt #:   426  of  1401
     total cpu time spent up to now is      354.3 secs

     Computing kpt #:   427  of  1401
     total cpu time spent up to now is      355.2 secs

     Computing kpt #:   428  of  1401
     total cpu time spent up to now is      356.0 secs

     Computing kpt #:   429  of  1401
     total cpu time spent up to now is      356.8 secs

     Computing kpt #:   430  of  1401
     total cpu time spent up to now is      357.6 secs

     Computing kpt #:   431  of  1401
     total cpu time spent up to now is      358.4 secs

     Computing kpt #:   432  of  1401
     total cpu time spent up to now is      359.2 secs

     Computing kpt #:   433  of  1401
     total cpu time spent up to now is      360.0 secs

     Computing kpt #:   434  of  1401
     total cpu time spent up to now is      360.8 secs

     Computing kpt #:   435  of  1401
     total cpu time spent up to now is      361.5 secs

     Computing kpt #:   436  of  1401
     total cpu time spent up to now is      362.3 secs

     Computing kpt #:   437  of  1401
     total cpu time spent up to now is      363.1 secs

     Computing kpt #:   438  of  1401
     total cpu time spent up to now is      363.9 secs

     Computing kpt #:   439  of  1401
     total cpu time spent up to now is      364.8 secs

     Computing kpt #:   440  of  1401
     total cpu time spent up to now is      365.7 secs

     Computing kpt #:   441  of  1401
     total cpu time spent up to now is      366.5 secs

     Computing kpt #:   442  of  1401
     total cpu time spent up to now is      367.2 secs

     Computing kpt #:   443  of  1401
     total cpu time spent up to now is      367.9 secs

     Computing kpt #:   444  of  1401
     total cpu time spent up to now is      368.7 secs

     Computing kpt #:   445  of  1401
     total cpu time spent up to now is      369.4 secs

     Computing kpt #:   446  of  1401
     total cpu time spent up to now is      370.2 secs

     Computing kpt #:   447  of  1401
     total cpu time spent up to now is      371.0 secs

     Computing kpt #:   448  of  1401
     total cpu time spent up to now is      371.7 secs

     Computing kpt #:   449  of  1401
     total cpu time spent up to now is      372.5 secs

     Computing kpt #:   450  of  1401
     total cpu time spent up to now is      373.2 secs

     Computing kpt #:   451  of  1401
     total cpu time spent up to now is      374.0 secs

     Computing kpt #:   452  of  1401
     total cpu time spent up to now is      374.7 secs

     Computing kpt #:   453  of  1401
     total cpu time spent up to now is      375.3 secs

     Computing kpt #:   454  of  1401
     total cpu time spent up to now is      376.0 secs

     Computing kpt #:   455  of  1401
     total cpu time spent up to now is      376.8 secs

     Computing kpt #:   456  of  1401
     total cpu time spent up to now is      377.5 secs

     Computing kpt #:   457  of  1401
     total cpu time spent up to now is      378.4 secs

     Computing kpt #:   458  of  1401
     total cpu time spent up to now is      379.3 secs

     Computing kpt #:   459  of  1401
     total cpu time spent up to now is      380.1 secs

     Computing kpt #:   460  of  1401
     total cpu time spent up to now is      380.8 secs

     Computing kpt #:   461  of  1401
     total cpu time spent up to now is      381.6 secs

     Computing kpt #:   462  of  1401
     total cpu time spent up to now is      382.3 secs

     Computing kpt #:   463  of  1401
     total cpu time spent up to now is      383.1 secs

     Computing kpt #:   464  of  1401
     total cpu time spent up to now is      383.8 secs

     Computing kpt #:   465  of  1401
     total cpu time spent up to now is      384.6 secs

     Computing kpt #:   466  of  1401
     total cpu time spent up to now is      385.3 secs

     Computing kpt #:   467  of  1401
     total cpu time spent up to now is      386.1 secs

     Computing kpt #:   468  of  1401
     total cpu time spent up to now is      386.9 secs

     Computing kpt #:   469  of  1401
     total cpu time spent up to now is      387.6 secs

     Computing kpt #:   470  of  1401
     total cpu time spent up to now is      388.3 secs

     Computing kpt #:   471  of  1401
     total cpu time spent up to now is      389.1 secs

     Computing kpt #:   472  of  1401
     total cpu time spent up to now is      389.8 secs

     Computing kpt #:   473  of  1401
     total cpu time spent up to now is      390.6 secs

     Computing kpt #:   474  of  1401
     total cpu time spent up to now is      391.3 secs

     Computing kpt #:   475  of  1401
     total cpu time spent up to now is      392.1 secs

     Computing kpt #:   476  of  1401
     total cpu time spent up to now is      392.9 secs

     Computing kpt #:   477  of  1401
     total cpu time spent up to now is      393.6 secs

     Computing kpt #:   478  of  1401
     total cpu time spent up to now is      394.4 secs

     Computing kpt #:   479  of  1401
     total cpu time spent up to now is      395.1 secs

     Computing kpt #:   480  of  1401
     total cpu time spent up to now is      395.8 secs

     Computing kpt #:   481  of  1401
     total cpu time spent up to now is      396.5 secs

     Computing kpt #:   482  of  1401
     total cpu time spent up to now is      397.4 secs

     Computing kpt #:   483  of  1401
     total cpu time spent up to now is      398.1 secs

     Computing kpt #:   484  of  1401
     total cpu time spent up to now is      398.9 secs

     Computing kpt #:   485  of  1401
     total cpu time spent up to now is      399.6 secs

     Computing kpt #:   486  of  1401
     total cpu time spent up to now is      400.4 secs

     Computing kpt #:   487  of  1401
     total cpu time spent up to now is      401.4 secs

     Computing kpt #:   488  of  1401
     total cpu time spent up to now is      402.4 secs

     Computing kpt #:   489  of  1401
     total cpu time spent up to now is      403.2 secs

     Computing kpt #:   490  of  1401
     total cpu time spent up to now is      404.0 secs

     Computing kpt #:   491  of  1401
     total cpu time spent up to now is      404.8 secs

     Computing kpt #:   492  of  1401
     total cpu time spent up to now is      405.6 secs

     Computing kpt #:   493  of  1401
     total cpu time spent up to now is      406.3 secs

     Computing kpt #:   494  of  1401
     total cpu time spent up to now is      407.0 secs

     Computing kpt #:   495  of  1401
     total cpu time spent up to now is      407.7 secs

     Computing kpt #:   496  of  1401
     total cpu time spent up to now is      408.5 secs

     Computing kpt #:   497  of  1401
     total cpu time spent up to now is      409.2 secs

     Computing kpt #:   498  of  1401
     total cpu time spent up to now is      409.9 secs

     Computing kpt #:   499  of  1401
     total cpu time spent up to now is      410.6 secs

     Computing kpt #:   500  of  1401
     total cpu time spent up to now is      411.4 secs

     Computing kpt #:   501  of  1401
     total cpu time spent up to now is      412.1 secs

     Computing kpt #:   502  of  1401
     total cpu time spent up to now is      412.9 secs

     Computing kpt #:   503  of  1401
     total cpu time spent up to now is      413.6 secs

     Computing kpt #:   504  of  1401
     total cpu time spent up to now is      414.4 secs

     Computing kpt #:   505  of  1401
     total cpu time spent up to now is      415.1 secs

     Computing kpt #:   506  of  1401
     total cpu time spent up to now is      415.9 secs

     Computing kpt #:   507  of  1401
     total cpu time spent up to now is      416.7 secs

     Computing kpt #:   508  of  1401
     total cpu time spent up to now is      417.4 secs

     Computing kpt #:   509  of  1401
     total cpu time spent up to now is      418.2 secs

     Computing kpt #:   510  of  1401
     total cpu time spent up to now is      419.0 secs

     Computing kpt #:   511  of  1401
     total cpu time spent up to now is      419.8 secs

     Computing kpt #:   512  of  1401
     total cpu time spent up to now is      420.5 secs

     Computing kpt #:   513  of  1401
     total cpu time spent up to now is      421.3 secs

     Computing kpt #:   514  of  1401
     total cpu time spent up to now is      422.1 secs

     Computing kpt #:   515  of  1401
     total cpu time spent up to now is      422.9 secs

     Computing kpt #:   516  of  1401
     total cpu time spent up to now is      423.7 secs

     Computing kpt #:   517  of  1401
     total cpu time spent up to now is      424.5 secs

     Computing kpt #:   518  of  1401
     total cpu time spent up to now is      425.3 secs

     Computing kpt #:   519  of  1401
     total cpu time spent up to now is      426.1 secs

     Computing kpt #:   520  of  1401
     total cpu time spent up to now is      426.9 secs

     Computing kpt #:   521  of  1401
     total cpu time spent up to now is      427.7 secs

     Computing kpt #:   522  of  1401
     total cpu time spent up to now is      428.5 secs

     Computing kpt #:   523  of  1401
     total cpu time spent up to now is      429.4 secs

     Computing kpt #:   524  of  1401
     total cpu time spent up to now is      430.2 secs

     Computing kpt #:   525  of  1401
     total cpu time spent up to now is      431.0 secs

     Computing kpt #:   526  of  1401
     total cpu time spent up to now is      431.9 secs

     Computing kpt #:   527  of  1401
     total cpu time spent up to now is      432.8 secs

     Computing kpt #:   528  of  1401
     total cpu time spent up to now is      433.6 secs

     Computing kpt #:   529  of  1401
     total cpu time spent up to now is      434.4 secs

     Computing kpt #:   530  of  1401
     total cpu time spent up to now is      435.2 secs

     Computing kpt #:   531  of  1401
     total cpu time spent up to now is      436.0 secs

     Computing kpt #:   532  of  1401
     total cpu time spent up to now is      436.8 secs

     Computing kpt #:   533  of  1401
     total cpu time spent up to now is      437.7 secs

     Computing kpt #:   534  of  1401
     total cpu time spent up to now is      438.5 secs

     Computing kpt #:   535  of  1401
     total cpu time spent up to now is      439.4 secs

     Computing kpt #:   536  of  1401
     total cpu time spent up to now is      440.2 secs

     Computing kpt #:   537  of  1401
     total cpu time spent up to now is      441.0 secs

     Computing kpt #:   538  of  1401
     total cpu time spent up to now is      441.7 secs

     Computing kpt #:   539  of  1401
     total cpu time spent up to now is      442.5 secs

     Computing kpt #:   540  of  1401
     total cpu time spent up to now is      443.4 secs

     Computing kpt #:   541  of  1401
     total cpu time spent up to now is      444.2 secs

     Computing kpt #:   542  of  1401
     total cpu time spent up to now is      445.0 secs

     Computing kpt #:   543  of  1401
     total cpu time spent up to now is      445.8 secs

     Computing kpt #:   544  of  1401
     total cpu time spent up to now is      446.6 secs

     Computing kpt #:   545  of  1401
     total cpu time spent up to now is      447.4 secs

     Computing kpt #:   546  of  1401
     total cpu time spent up to now is      448.2 secs

     Computing kpt #:   547  of  1401
     total cpu time spent up to now is      449.0 secs

     Computing kpt #:   548  of  1401
     total cpu time spent up to now is      449.8 secs

     Computing kpt #:   549  of  1401
     total cpu time spent up to now is      450.5 secs

     Computing kpt #:   550  of  1401
     total cpu time spent up to now is      451.3 secs

     Computing kpt #:   551  of  1401
     total cpu time spent up to now is      452.0 secs

     Computing kpt #:   552  of  1401
     total cpu time spent up to now is      452.8 secs

     Computing kpt #:   553  of  1401
     total cpu time spent up to now is      453.6 secs

     Computing kpt #:   554  of  1401
     total cpu time spent up to now is      454.3 secs

     Computing kpt #:   555  of  1401
     total cpu time spent up to now is      455.1 secs

     Computing kpt #:   556  of  1401
     total cpu time spent up to now is      455.8 secs

     Computing kpt #:   557  of  1401
     total cpu time spent up to now is      456.6 secs

     Computing kpt #:   558  of  1401
     total cpu time spent up to now is      457.3 secs

     Computing kpt #:   559  of  1401
     total cpu time spent up to now is      458.1 secs

     Computing kpt #:   560  of  1401
     total cpu time spent up to now is      458.8 secs

     Computing kpt #:   561  of  1401
     total cpu time spent up to now is      459.6 secs

     Computing kpt #:   562  of  1401
     total cpu time spent up to now is      460.3 secs

     Computing kpt #:   563  of  1401
     total cpu time spent up to now is      461.3 secs

     Computing kpt #:   564  of  1401
     total cpu time spent up to now is      462.4 secs

     Computing kpt #:   565  of  1401
     total cpu time spent up to now is      463.3 secs

     Computing kpt #:   566  of  1401
     total cpu time spent up to now is      464.1 secs

     Computing kpt #:   567  of  1401
     total cpu time spent up to now is      464.9 secs

     Computing kpt #:   568  of  1401
     total cpu time spent up to now is      465.6 secs

     Computing kpt #:   569  of  1401
     total cpu time spent up to now is      466.4 secs

     Computing kpt #:   570  of  1401
     total cpu time spent up to now is      467.1 secs

     Computing kpt #:   571  of  1401
     total cpu time spent up to now is      467.9 secs

     Computing kpt #:   572  of  1401
     total cpu time spent up to now is      468.6 secs

     Computing kpt #:   573  of  1401
     total cpu time spent up to now is      469.4 secs

     Computing kpt #:   574  of  1401
     total cpu time spent up to now is      470.1 secs

     Computing kpt #:   575  of  1401
     total cpu time spent up to now is      470.9 secs

     Computing kpt #:   576  of  1401
     total cpu time spent up to now is      471.6 secs

     Computing kpt #:   577  of  1401
     total cpu time spent up to now is      472.4 secs

     Computing kpt #:   578  of  1401
     total cpu time spent up to now is      473.2 secs

     Computing kpt #:   579  of  1401
     total cpu time spent up to now is      474.0 secs

     Computing kpt #:   580  of  1401
     total cpu time spent up to now is      474.8 secs

     Computing kpt #:   581  of  1401
     total cpu time spent up to now is      475.6 secs

     Computing kpt #:   582  of  1401
     total cpu time spent up to now is      476.4 secs

     Computing kpt #:   583  of  1401
     total cpu time spent up to now is      477.1 secs

     Computing kpt #:   584  of  1401
     total cpu time spent up to now is      477.9 secs

     Computing kpt #:   585  of  1401
     total cpu time spent up to now is      478.7 secs

     Computing kpt #:   586  of  1401
     total cpu time spent up to now is      479.6 secs

     Computing kpt #:   587  of  1401
     total cpu time spent up to now is      480.4 secs

     Computing kpt #:   588  of  1401
     total cpu time spent up to now is      481.2 secs

     Computing kpt #:   589  of  1401
     total cpu time spent up to now is      482.0 secs

     Computing kpt #:   590  of  1401
     total cpu time spent up to now is      482.8 secs

     Computing kpt #:   591  of  1401
     total cpu time spent up to now is      483.6 secs

     Computing kpt #:   592  of  1401
     total cpu time spent up to now is      484.4 secs

     Computing kpt #:   593  of  1401
     total cpu time spent up to now is      485.2 secs

     Computing kpt #:   594  of  1401
     total cpu time spent up to now is      486.0 secs

     Computing kpt #:   595  of  1401
     total cpu time spent up to now is      486.8 secs

     Computing kpt #:   596  of  1401
     total cpu time spent up to now is      487.5 secs

     Computing kpt #:   597  of  1401
     total cpu time spent up to now is      488.3 secs

     Computing kpt #:   598  of  1401
     total cpu time spent up to now is      489.1 secs

     Computing kpt #:   599  of  1401
     total cpu time spent up to now is      489.9 secs

     Computing kpt #:   600  of  1401
     total cpu time spent up to now is      490.7 secs

     Computing kpt #:   601  of  1401
     total cpu time spent up to now is      491.4 secs

     Computing kpt #:   602  of  1401
     total cpu time spent up to now is      492.2 secs

     Computing kpt #:   603  of  1401
     total cpu time spent up to now is      492.9 secs

     Computing kpt #:   604  of  1401
     total cpu time spent up to now is      493.7 secs

     Computing kpt #:   605  of  1401
     total cpu time spent up to now is      494.6 secs

     Computing kpt #:   606  of  1401
     total cpu time spent up to now is      495.4 secs

     Computing kpt #:   607  of  1401
     total cpu time spent up to now is      496.1 secs

     Computing kpt #:   608  of  1401
     total cpu time spent up to now is      496.9 secs

     Computing kpt #:   609  of  1401
     total cpu time spent up to now is      497.6 secs

     Computing kpt #:   610  of  1401
     total cpu time spent up to now is      498.4 secs

     Computing kpt #:   611  of  1401
     total cpu time spent up to now is      499.4 secs

     Computing kpt #:   612  of  1401
     total cpu time spent up to now is      500.2 secs

     Computing kpt #:   613  of  1401
     total cpu time spent up to now is      501.1 secs

     Computing kpt #:   614  of  1401
     total cpu time spent up to now is      501.8 secs

     Computing kpt #:   615  of  1401
     total cpu time spent up to now is      502.5 secs

     Computing kpt #:   616  of  1401
     total cpu time spent up to now is      503.3 secs

     Computing kpt #:   617  of  1401
     total cpu time spent up to now is      504.0 secs

     Computing kpt #:   618  of  1401
     total cpu time spent up to now is      504.8 secs

     Computing kpt #:   619  of  1401
     total cpu time spent up to now is      505.6 secs

     Computing kpt #:   620  of  1401
     total cpu time spent up to now is      506.4 secs

     Computing kpt #:   621  of  1401
     total cpu time spent up to now is      507.1 secs

     Computing kpt #:   622  of  1401
     total cpu time spent up to now is      507.9 secs

     Computing kpt #:   623  of  1401
     total cpu time spent up to now is      508.7 secs

     Computing kpt #:   624  of  1401
     total cpu time spent up to now is      509.6 secs

     Computing kpt #:   625  of  1401
     total cpu time spent up to now is      510.4 secs

     Computing kpt #:   626  of  1401
     total cpu time spent up to now is      511.4 secs

     Computing kpt #:   627  of  1401
     total cpu time spent up to now is      512.2 secs

     Computing kpt #:   628  of  1401
     total cpu time spent up to now is      513.0 secs

     Computing kpt #:   629  of  1401
     total cpu time spent up to now is      513.9 secs

     Computing kpt #:   630  of  1401
     total cpu time spent up to now is      514.7 secs

     Computing kpt #:   631  of  1401
     total cpu time spent up to now is      515.5 secs

     Computing kpt #:   632  of  1401
     total cpu time spent up to now is      516.2 secs

     Computing kpt #:   633  of  1401
     total cpu time spent up to now is      517.0 secs

     Computing kpt #:   634  of  1401
     total cpu time spent up to now is      517.8 secs

     Computing kpt #:   635  of  1401
     total cpu time spent up to now is      518.5 secs

     Computing kpt #:   636  of  1401
     total cpu time spent up to now is      519.3 secs

     Computing kpt #:   637  of  1401
     total cpu time spent up to now is      520.0 secs

     Computing kpt #:   638  of  1401
     total cpu time spent up to now is      520.8 secs

     Computing kpt #:   639  of  1401
     total cpu time spent up to now is      522.0 secs

     Computing kpt #:   640  of  1401
     total cpu time spent up to now is      523.3 secs

     Computing kpt #:   641  of  1401
     total cpu time spent up to now is      524.1 secs

     Computing kpt #:   642  of  1401
     total cpu time spent up to now is      524.9 secs

     Computing kpt #:   643  of  1401
     total cpu time spent up to now is      525.6 secs

     Computing kpt #:   644  of  1401
     total cpu time spent up to now is      526.4 secs

     Computing kpt #:   645  of  1401
     total cpu time spent up to now is      527.2 secs

     Computing kpt #:   646  of  1401
     total cpu time spent up to now is      528.2 secs

     Computing kpt #:   647  of  1401
     total cpu time spent up to now is      529.0 secs

     Computing kpt #:   648  of  1401
     total cpu time spent up to now is      529.8 secs

     Computing kpt #:   649  of  1401
     total cpu time spent up to now is      530.5 secs

     Computing kpt #:   650  of  1401
     total cpu time spent up to now is      531.3 secs

     Computing kpt #:   651  of  1401
     total cpu time spent up to now is      532.1 secs

     Computing kpt #:   652  of  1401
     total cpu time spent up to now is      532.8 secs

     Computing kpt #:   653  of  1401
     total cpu time spent up to now is      533.5 secs

     Computing kpt #:   654  of  1401
     total cpu time spent up to now is      534.3 secs

     Computing kpt #:   655  of  1401
     total cpu time spent up to now is      535.1 secs

     Computing kpt #:   656  of  1401
     total cpu time spent up to now is      535.8 secs

     Computing kpt #:   657  of  1401
     total cpu time spent up to now is      536.7 secs

     Computing kpt #:   658  of  1401
     total cpu time spent up to now is      537.6 secs

     Computing kpt #:   659  of  1401
     total cpu time spent up to now is      538.4 secs

     Computing kpt #:   660  of  1401
     total cpu time spent up to now is      539.4 secs

     Computing kpt #:   661  of  1401
     total cpu time spent up to now is      540.1 secs

     Computing kpt #:   662  of  1401
     total cpu time spent up to now is      540.8 secs

     Computing kpt #:   663  of  1401
     total cpu time spent up to now is      541.6 secs

     Computing kpt #:   664  of  1401
     total cpu time spent up to now is      542.4 secs

     Computing kpt #:   665  of  1401
     total cpu time spent up to now is      543.1 secs

     Computing kpt #:   666  of  1401
     total cpu time spent up to now is      543.8 secs

     Computing kpt #:   667  of  1401
     total cpu time spent up to now is      544.6 secs

     Computing kpt #:   668  of  1401
     total cpu time spent up to now is      545.5 secs

     Computing kpt #:   669  of  1401
     total cpu time spent up to now is      546.4 secs

     Computing kpt #:   670  of  1401
     total cpu time spent up to now is      547.1 secs

     Computing kpt #:   671  of  1401
     total cpu time spent up to now is      548.0 secs

     Computing kpt #:   672  of  1401
     total cpu time spent up to now is      548.6 secs

     Computing kpt #:   673  of  1401
     total cpu time spent up to now is      549.3 secs

     Computing kpt #:   674  of  1401
     total cpu time spent up to now is      549.9 secs

     Computing kpt #:   675  of  1401
     total cpu time spent up to now is      550.7 secs

     Computing kpt #:   676  of  1401
     total cpu time spent up to now is      551.3 secs

     Computing kpt #:   677  of  1401
     total cpu time spent up to now is      552.0 secs

     Computing kpt #:   678  of  1401
     total cpu time spent up to now is      552.7 secs

     Computing kpt #:   679  of  1401
     total cpu time spent up to now is      553.4 secs

     Computing kpt #:   680  of  1401
     total cpu time spent up to now is      554.2 secs

     Computing kpt #:   681  of  1401
     total cpu time spent up to now is      554.9 secs

     Computing kpt #:   682  of  1401
     total cpu time spent up to now is      555.6 secs

     Computing kpt #:   683  of  1401
     total cpu time spent up to now is      556.3 secs

     Computing kpt #:   684  of  1401
     total cpu time spent up to now is      557.0 secs

     Computing kpt #:   685  of  1401
     total cpu time spent up to now is      557.9 secs

     Computing kpt #:   686  of  1401
     total cpu time spent up to now is      558.6 secs

     Computing kpt #:   687  of  1401
     total cpu time spent up to now is      559.4 secs

     Computing kpt #:   688  of  1401
     total cpu time spent up to now is      560.1 secs

     Computing kpt #:   689  of  1401
     total cpu time spent up to now is      560.9 secs

     Computing kpt #:   690  of  1401
     total cpu time spent up to now is      561.6 secs

     Computing kpt #:   691  of  1401
     total cpu time spent up to now is      562.3 secs

     Computing kpt #:   692  of  1401
     total cpu time spent up to now is      563.0 secs

     Computing kpt #:   693  of  1401
     total cpu time spent up to now is      563.7 secs

     Computing kpt #:   694  of  1401
     total cpu time spent up to now is      564.4 secs

     Computing kpt #:   695  of  1401
     total cpu time spent up to now is      565.1 secs

     Computing kpt #:   696  of  1401
     total cpu time spent up to now is      565.8 secs

     Computing kpt #:   697  of  1401
     total cpu time spent up to now is      566.5 secs

     Computing kpt #:   698  of  1401
     total cpu time spent up to now is      567.2 secs

     Computing kpt #:   699  of  1401
     total cpu time spent up to now is      568.0 secs

     Computing kpt #:   700  of  1401
     total cpu time spent up to now is      568.9 secs

     Computing kpt #:   701  of  1401
     total cpu time spent up to now is      569.8 secs

     Computing kpt #:   702  of  1401
     total cpu time spent up to now is      570.8 secs

     Computing kpt #:   703  of  1401
     total cpu time spent up to now is      571.8 secs

     Computing kpt #:   704  of  1401
     total cpu time spent up to now is      572.8 secs

     Computing kpt #:   705  of  1401
     total cpu time spent up to now is      573.6 secs

     Computing kpt #:   706  of  1401
     total cpu time spent up to now is      574.5 secs

     Computing kpt #:   707  of  1401
     total cpu time spent up to now is      575.2 secs

     Computing kpt #:   708  of  1401
     total cpu time spent up to now is      576.0 secs

     Computing kpt #:   709  of  1401
     total cpu time spent up to now is      576.9 secs

     Computing kpt #:   710  of  1401
     total cpu time spent up to now is      577.8 secs

     Computing kpt #:   711  of  1401
     total cpu time spent up to now is      578.7 secs

     Computing kpt #:   712  of  1401
     total cpu time spent up to now is      579.6 secs

     Computing kpt #:   713  of  1401
     total cpu time spent up to now is      580.5 secs

     Computing kpt #:   714  of  1401
     total cpu time spent up to now is      582.4 secs

     Computing kpt #:   715  of  1401
     total cpu time spent up to now is      583.6 secs

     Computing kpt #:   716  of  1401
     total cpu time spent up to now is      584.4 secs

     Computing kpt #:   717  of  1401
     total cpu time spent up to now is      585.3 secs

     Computing kpt #:   718  of  1401
     total cpu time spent up to now is      586.1 secs

     Computing kpt #:   719  of  1401
     total cpu time spent up to now is      587.0 secs

     Computing kpt #:   720  of  1401
     total cpu time spent up to now is      587.9 secs

     Computing kpt #:   721  of  1401
     total cpu time spent up to now is      588.6 secs

     Computing kpt #:   722  of  1401
     total cpu time spent up to now is      589.5 secs

     Computing kpt #:   723  of  1401
     total cpu time spent up to now is      590.3 secs

     Computing kpt #:   724  of  1401
     total cpu time spent up to now is      591.0 secs

     Computing kpt #:   725  of  1401
     total cpu time spent up to now is      591.9 secs

     Computing kpt #:   726  of  1401
     total cpu time spent up to now is      592.8 secs

     Computing kpt #:   727  of  1401
     total cpu time spent up to now is      593.5 secs

     Computing kpt #:   728  of  1401
     total cpu time spent up to now is      594.2 secs

     Computing kpt #:   729  of  1401
     total cpu time spent up to now is      595.0 secs

     Computing kpt #:   730  of  1401
     total cpu time spent up to now is      595.7 secs

     Computing kpt #:   731  of  1401
     total cpu time spent up to now is      596.5 secs

     Computing kpt #:   732  of  1401
     total cpu time spent up to now is      597.5 secs

     Computing kpt #:   733  of  1401
     total cpu time spent up to now is      598.5 secs

     Computing kpt #:   734  of  1401
     total cpu time spent up to now is      599.3 secs

     Computing kpt #:   735  of  1401
     total cpu time spent up to now is      600.0 secs

     Computing kpt #:   736  of  1401
     total cpu time spent up to now is      600.8 secs

     Computing kpt #:   737  of  1401
     total cpu time spent up to now is      601.5 secs

     Computing kpt #:   738  of  1401
     total cpu time spent up to now is      602.4 secs

     Computing kpt #:   739  of  1401
     total cpu time spent up to now is      603.4 secs

     Computing kpt #:   740  of  1401
     total cpu time spent up to now is      604.1 secs

     Computing kpt #:   741  of  1401
     total cpu time spent up to now is      604.9 secs

     Computing kpt #:   742  of  1401
     total cpu time spent up to now is      605.7 secs

     Computing kpt #:   743  of  1401
     total cpu time spent up to now is      606.5 secs

     Computing kpt #:   744  of  1401
     total cpu time spent up to now is      607.6 secs

     Computing kpt #:   745  of  1401
     total cpu time spent up to now is      608.7 secs

     Computing kpt #:   746  of  1401
     total cpu time spent up to now is      609.4 secs

     Computing kpt #:   747  of  1401
     total cpu time spent up to now is      610.2 secs

     Computing kpt #:   748  of  1401
     total cpu time spent up to now is      611.0 secs

     Computing kpt #:   749  of  1401
     total cpu time spent up to now is      611.8 secs

     Computing kpt #:   750  of  1401
     total cpu time spent up to now is      612.6 secs

     Computing kpt #:   751  of  1401
     total cpu time spent up to now is      613.4 secs

     Computing kpt #:   752  of  1401
     total cpu time spent up to now is      614.2 secs

     Computing kpt #:   753  of  1401
     total cpu time spent up to now is      615.2 secs

     Computing kpt #:   754  of  1401
     total cpu time spent up to now is      616.0 secs

     Computing kpt #:   755  of  1401
     total cpu time spent up to now is      616.7 secs

     Computing kpt #:   756  of  1401
     total cpu time spent up to now is      617.5 secs

     Computing kpt #:   757  of  1401
     total cpu time spent up to now is      618.3 secs

     Computing kpt #:   758  of  1401
     total cpu time spent up to now is      619.1 secs

     Computing kpt #:   759  of  1401
     total cpu time spent up to now is      619.9 secs

     Computing kpt #:   760  of  1401
     total cpu time spent up to now is      620.9 secs

     Computing kpt #:   761  of  1401
     total cpu time spent up to now is      621.7 secs

     Computing kpt #:   762  of  1401
     total cpu time spent up to now is      622.5 secs

     Computing kpt #:   763  of  1401
     total cpu time spent up to now is      623.2 secs

     Computing kpt #:   764  of  1401
     total cpu time spent up to now is      624.1 secs

     Computing kpt #:   765  of  1401
     total cpu time spent up to now is      624.9 secs

     Computing kpt #:   766  of  1401
     total cpu time spent up to now is      625.8 secs

     Computing kpt #:   767  of  1401
     total cpu time spent up to now is      626.7 secs

     Computing kpt #:   768  of  1401
     total cpu time spent up to now is      627.5 secs

     Computing kpt #:   769  of  1401
     total cpu time spent up to now is      628.4 secs

     Computing kpt #:   770  of  1401
     total cpu time spent up to now is      629.3 secs

     Computing kpt #:   771  of  1401
     total cpu time spent up to now is      630.2 secs

     Computing kpt #:   772  of  1401
     total cpu time spent up to now is      631.1 secs

     Computing kpt #:   773  of  1401
     total cpu time spent up to now is      632.0 secs

     Computing kpt #:   774  of  1401
     total cpu time spent up to now is      632.9 secs

     Computing kpt #:   775  of  1401
     total cpu time spent up to now is      633.9 secs

     Computing kpt #:   776  of  1401
     total cpu time spent up to now is      634.9 secs

     Computing kpt #:   777  of  1401
     total cpu time spent up to now is      635.9 secs

     Computing kpt #:   778  of  1401
     total cpu time spent up to now is      636.7 secs

     Computing kpt #:   779  of  1401
     total cpu time spent up to now is      637.6 secs

     Computing kpt #:   780  of  1401
     c_bands:  1 eigenvalues not converged
     total cpu time spent up to now is      638.6 secs

     Computing kpt #:   781  of  1401
     total cpu time spent up to now is      639.5 secs

     Computing kpt #:   782  of  1401
     total cpu time spent up to now is      640.4 secs

     Computing kpt #:   783  of  1401
     c_bands:  1 eigenvalues not converged
     total cpu time spent up to now is      641.7 secs

     Computing kpt #:   784  of  1401
     total cpu time spent up to now is      642.9 secs

     Computing kpt #:   785  of  1401
     total cpu time spent up to now is      643.8 secs

     Computing kpt #:   786  of  1401
     c_bands:  1 eigenvalues not converged
     total cpu time spent up to now is      644.8 secs

     Computing kpt #:   787  of  1401
     c_bands:  1 eigenvalues not converged
     total cpu time spent up to now is      645.8 secs

     Computing kpt #:   788  of  1401
     c_bands:  1 eigenvalues not converged
     total cpu time spent up to now is      646.8 secs

     Computing kpt #:   789  of  1401
     total cpu time spent up to now is      647.9 secs

     Computing kpt #:   790  of  1401
     c_bands:  1 eigenvalues not converged
     total cpu time spent up to now is      648.9 secs

     Computing kpt #:   791  of  1401
     total cpu time spent up to now is      649.9 secs

     Computing kpt #:   792  of  1401
     c_bands:  1 eigenvalues not converged
     total cpu time spent up to now is      650.9 secs

     Computing kpt #:   793  of  1401
     c_bands:  1 eigenvalues not converged
     total cpu time spent up to now is      652.0 secs

     Computing kpt #:   794  of  1401
     c_bands:  1 eigenvalues not converged
     total cpu time spent up to now is      653.2 secs

     Computing kpt #:   795  of  1401
     c_bands:  1 eigenvalues not converged
     total cpu time spent up to now is      654.3 secs

     Computing kpt #:   796  of  1401
     total cpu time spent up to now is      655.2 secs

     Computing kpt #:   797  of  1401
     c_bands:  1 eigenvalues not converged
     total cpu time spent up to now is      656.2 secs

     Computing kpt #:   798  of  1401
     total cpu time spent up to now is      657.0 secs

     Computing kpt #:   799  of  1401
     total cpu time spent up to now is      658.0 secs

     Computing kpt #:   800  of  1401
     total cpu time spent up to now is      658.9 secs

     Computing kpt #:   801  of  1401
     total cpu time spent up to now is      659.6 secs

     Computing kpt #:   802  of  1401
     total cpu time spent up to now is      660.3 secs

     Computing kpt #:   803  of  1401
     total cpu time spent up to now is      661.0 secs

     Computing kpt #:   804  of  1401
     total cpu time spent up to now is      661.7 secs

     Computing kpt #:   805  of  1401
     total cpu time spent up to now is      662.4 secs

     Computing kpt #:   806  of  1401
     total cpu time spent up to now is      663.2 secs

     Computing kpt #:   807  of  1401
     total cpu time spent up to now is      663.9 secs

     Computing kpt #:   808  of  1401
     total cpu time spent up to now is      664.7 secs

     Computing kpt #:   809  of  1401
     total cpu time spent up to now is      665.4 secs

     Computing kpt #:   810  of  1401
     total cpu time spent up to now is      666.1 secs

     Computing kpt #:   811  of  1401
     total cpu time spent up to now is      666.9 secs

     Computing kpt #:   812  of  1401
     total cpu time spent up to now is      667.7 secs

     Computing kpt #:   813  of  1401
     total cpu time spent up to now is      668.4 secs

     Computing kpt #:   814  of  1401
     total cpu time spent up to now is      669.2 secs

     Computing kpt #:   815  of  1401
     total cpu time spent up to now is      669.9 secs

     Computing kpt #:   816  of  1401
     total cpu time spent up to now is      670.7 secs

     Computing kpt #:   817  of  1401
     total cpu time spent up to now is      671.4 secs

     Computing kpt #:   818  of  1401
     total cpu time spent up to now is      672.2 secs

     Computing kpt #:   819  of  1401
     total cpu time spent up to now is      673.0 secs

     Computing kpt #:   820  of  1401
     total cpu time spent up to now is      673.7 secs

     Computing kpt #:   821  of  1401
     total cpu time spent up to now is      674.4 secs

     Computing kpt #:   822  of  1401
     total cpu time spent up to now is      675.2 secs

     Computing kpt #:   823  of  1401
     total cpu time spent up to now is      676.0 secs

     Computing kpt #:   824  of  1401
     total cpu time spent up to now is      676.7 secs

     Computing kpt #:   825  of  1401
     total cpu time spent up to now is      677.4 secs

     Computing kpt #:   826  of  1401
     total cpu time spent up to now is      678.2 secs

     Computing kpt #:   827  of  1401
     total cpu time spent up to now is      679.1 secs

     Computing kpt #:   828  of  1401
     total cpu time spent up to now is      679.9 secs

     Computing kpt #:   829  of  1401
     total cpu time spent up to now is      680.6 secs

     Computing kpt #:   830  of  1401
     total cpu time spent up to now is      681.4 secs

     Computing kpt #:   831  of  1401
     total cpu time spent up to now is      682.1 secs

     Computing kpt #:   832  of  1401
     total cpu time spent up to now is      682.9 secs

     Computing kpt #:   833  of  1401
     total cpu time spent up to now is      683.7 secs

     Computing kpt #:   834  of  1401
     total cpu time spent up to now is      684.4 secs

     Computing kpt #:   835  of  1401
     total cpu time spent up to now is      685.2 secs

     Computing kpt #:   836  of  1401
     total cpu time spent up to now is      685.9 secs

     Computing kpt #:   837  of  1401
     total cpu time spent up to now is      686.7 secs

     Computing kpt #:   838  of  1401
     total cpu time spent up to now is      687.4 secs

     Computing kpt #:   839  of  1401
     total cpu time spent up to now is      688.2 secs

     Computing kpt #:   840  of  1401
     total cpu time spent up to now is      688.9 secs

     Computing kpt #:   841  of  1401
     total cpu time spent up to now is      689.6 secs

     Computing kpt #:   842  of  1401
     total cpu time spent up to now is      690.3 secs

     Computing kpt #:   843  of  1401
     total cpu time spent up to now is      691.1 secs

     Computing kpt #:   844  of  1401
     total cpu time spent up to now is      691.8 secs

     Computing kpt #:   845  of  1401
     total cpu time spent up to now is      692.5 secs

     Computing kpt #:   846  of  1401
     total cpu time spent up to now is      693.2 secs

     Computing kpt #:   847  of  1401
     total cpu time spent up to now is      693.9 secs

     Computing kpt #:   848  of  1401
     total cpu time spent up to now is      694.6 secs

     Computing kpt #:   849  of  1401
     total cpu time spent up to now is      695.3 secs

     Computing kpt #:   850  of  1401
     total cpu time spent up to now is      696.0 secs

     Computing kpt #:   851  of  1401
     total cpu time spent up to now is      696.7 secs

     Computing kpt #:   852  of  1401
     total cpu time spent up to now is      697.3 secs

     Computing kpt #:   853  of  1401
     total cpu time spent up to now is      698.0 secs

     Computing kpt #:   854  of  1401
     total cpu time spent up to now is      698.7 secs

     Computing kpt #:   855  of  1401
     total cpu time spent up to now is      699.4 secs

     Computing kpt #:   856  of  1401
     total cpu time spent up to now is      700.2 secs

     Computing kpt #:   857  of  1401
     total cpu time spent up to now is      701.0 secs

     Computing kpt #:   858  of  1401
     total cpu time spent up to now is      701.9 secs

     Computing kpt #:   859  of  1401
     total cpu time spent up to now is      702.7 secs

     Computing kpt #:   860  of  1401
     total cpu time spent up to now is      703.5 secs

     Computing kpt #:   861  of  1401
     total cpu time spent up to now is      704.2 secs

     Computing kpt #:   862  of  1401
     total cpu time spent up to now is      704.9 secs

     Computing kpt #:   863  of  1401
     total cpu time spent up to now is      705.6 secs

     Computing kpt #:   864  of  1401
     total cpu time spent up to now is      706.3 secs

     Computing kpt #:   865  of  1401
     total cpu time spent up to now is      707.0 secs

     Computing kpt #:   866  of  1401
     total cpu time spent up to now is      707.8 secs

     Computing kpt #:   867  of  1401
     total cpu time spent up to now is      708.5 secs

     Computing kpt #:   868  of  1401
     total cpu time spent up to now is      709.2 secs

     Computing kpt #:   869  of  1401
     total cpu time spent up to now is      709.8 secs

     Computing kpt #:   870  of  1401
     total cpu time spent up to now is      710.5 secs

     Computing kpt #:   871  of  1401
     total cpu time spent up to now is      711.2 secs

     Computing kpt #:   872  of  1401
     total cpu time spent up to now is      711.9 secs

     Computing kpt #:   873  of  1401
     total cpu time spent up to now is      712.6 secs

     Computing kpt #:   874  of  1401
     total cpu time spent up to now is      713.3 secs

     Computing kpt #:   875  of  1401
     total cpu time spent up to now is      714.0 secs

     Computing kpt #:   876  of  1401
     total cpu time spent up to now is      714.6 secs

     Computing kpt #:   877  of  1401
     total cpu time spent up to now is      715.3 secs

     Computing kpt #:   878  of  1401
     total cpu time spent up to now is      716.1 secs

     Computing kpt #:   879  of  1401
     total cpu time spent up to now is      716.8 secs

     Computing kpt #:   880  of  1401
     total cpu time spent up to now is      717.5 secs

     Computing kpt #:   881  of  1401
     total cpu time spent up to now is      718.2 secs

     Computing kpt #:   882  of  1401
     total cpu time spent up to now is      718.9 secs

     Computing kpt #:   883  of  1401
     total cpu time spent up to now is      719.6 secs

     Computing kpt #:   884  of  1401
     total cpu time spent up to now is      720.3 secs

     Computing kpt #:   885  of  1401
     total cpu time spent up to now is      721.0 secs

     Computing kpt #:   886  of  1401
     total cpu time spent up to now is      721.7 secs

     Computing kpt #:   887  of  1401
     total cpu time spent up to now is      722.4 secs

     Computing kpt #:   888  of  1401
     total cpu time spent up to now is      723.1 secs

     Computing kpt #:   889  of  1401
     total cpu time spent up to now is      723.8 secs

     Computing kpt #:   890  of  1401
     total cpu time spent up to now is      724.6 secs

     Computing kpt #:   891  of  1401
     total cpu time spent up to now is      725.4 secs

     Computing kpt #:   892  of  1401
     total cpu time spent up to now is      726.1 secs

     Computing kpt #:   893  of  1401
     total cpu time spent up to now is      726.8 secs

     Computing kpt #:   894  of  1401
     total cpu time spent up to now is      727.5 secs

     Computing kpt #:   895  of  1401
     total cpu time spent up to now is      728.2 secs

     Computing kpt #:   896  of  1401
     total cpu time spent up to now is      728.9 secs

     Computing kpt #:   897  of  1401
     total cpu time spent up to now is      729.6 secs

     Computing kpt #:   898  of  1401
     total cpu time spent up to now is      730.4 secs

     Computing kpt #:   899  of  1401
     total cpu time spent up to now is      731.1 secs

     Computing kpt #:   900  of  1401
     total cpu time spent up to now is      731.8 secs

     Computing kpt #:   901  of  1401
     total cpu time spent up to now is      732.6 secs

     Computing kpt #:   902  of  1401
     total cpu time spent up to now is      733.3 secs

     Computing kpt #:   903  of  1401
     total cpu time spent up to now is      734.0 secs

     Computing kpt #:   904  of  1401
     total cpu time spent up to now is      734.7 secs

     Computing kpt #:   905  of  1401
     total cpu time spent up to now is      735.4 secs

     Computing kpt #:   906  of  1401
     total cpu time spent up to now is      736.1 secs

     Computing kpt #:   907  of  1401
     total cpu time spent up to now is      736.9 secs

     Computing kpt #:   908  of  1401
     total cpu time spent up to now is      737.6 secs

     Computing kpt #:   909  of  1401
     total cpu time spent up to now is      738.3 secs

     Computing kpt #:   910  of  1401
     total cpu time spent up to now is      739.0 secs

     Computing kpt #:   911  of  1401
     total cpu time spent up to now is      739.7 secs

     Computing kpt #:   912  of  1401
     total cpu time spent up to now is      740.4 secs

     Computing kpt #:   913  of  1401
     total cpu time spent up to now is      741.2 secs

     Computing kpt #:   914  of  1401
     total cpu time spent up to now is      742.1 secs

     Computing kpt #:   915  of  1401
     total cpu time spent up to now is      743.1 secs

     Computing kpt #:   916  of  1401
     total cpu time spent up to now is      744.0 secs

     Computing kpt #:   917  of  1401
     total cpu time spent up to now is      745.0 secs

     Computing kpt #:   918  of  1401
     total cpu time spent up to now is      745.7 secs

     Computing kpt #:   919  of  1401
     total cpu time spent up to now is      746.5 secs

     Computing kpt #:   920  of  1401
     total cpu time spent up to now is      747.2 secs

     Computing kpt #:   921  of  1401
     total cpu time spent up to now is      748.0 secs

     Computing kpt #:   922  of  1401
     total cpu time spent up to now is      748.8 secs

     Computing kpt #:   923  of  1401
     total cpu time spent up to now is      749.6 secs

     Computing kpt #:   924  of  1401
     total cpu time spent up to now is      750.4 secs

     Computing kpt #:   925  of  1401
     total cpu time spent up to now is      751.2 secs

     Computing kpt #:   926  of  1401
     total cpu time spent up to now is      752.0 secs

     Computing kpt #:   927  of  1401
     total cpu time spent up to now is      752.9 secs

     Computing kpt #:   928  of  1401
     total cpu time spent up to now is      753.6 secs

     Computing kpt #:   929  of  1401
     total cpu time spent up to now is      754.4 secs

     Computing kpt #:   930  of  1401
     total cpu time spent up to now is      755.2 secs

     Computing kpt #:   931  of  1401
     total cpu time spent up to now is      756.0 secs

     Computing kpt #:   932  of  1401
     total cpu time spent up to now is      756.8 secs

     Computing kpt #:   933  of  1401
     total cpu time spent up to now is      757.5 secs

     Computing kpt #:   934  of  1401
     total cpu time spent up to now is      758.3 secs

     Computing kpt #:   935  of  1401
     total cpu time spent up to now is      759.1 secs

     Computing kpt #:   936  of  1401
     total cpu time spent up to now is      759.9 secs

     Computing kpt #:   937  of  1401
     total cpu time spent up to now is      760.8 secs

     Computing kpt #:   938  of  1401
     total cpu time spent up to now is      761.9 secs

     Computing kpt #:   939  of  1401
     total cpu time spent up to now is      762.7 secs

     Computing kpt #:   940  of  1401
     total cpu time spent up to now is      763.6 secs

     Computing kpt #:   941  of  1401
     total cpu time spent up to now is      764.4 secs

     Computing kpt #:   942  of  1401
     total cpu time spent up to now is      765.1 secs

     Computing kpt #:   943  of  1401
     total cpu time spent up to now is      765.8 secs

     Computing kpt #:   944  of  1401
     total cpu time spent up to now is      766.6 secs

     Computing kpt #:   945  of  1401
     total cpu time spent up to now is      767.3 secs

     Computing kpt #:   946  of  1401
     total cpu time spent up to now is      768.0 secs

     Computing kpt #:   947  of  1401
     total cpu time spent up to now is      768.7 secs

     Computing kpt #:   948  of  1401
     total cpu time spent up to now is      769.4 secs

     Computing kpt #:   949  of  1401
     total cpu time spent up to now is      770.1 secs

     Computing kpt #:   950  of  1401
     total cpu time spent up to now is      770.9 secs

     Computing kpt #:   951  of  1401
     total cpu time spent up to now is      771.6 secs

     Computing kpt #:   952  of  1401
     total cpu time spent up to now is      772.3 secs

     Computing kpt #:   953  of  1401
     total cpu time spent up to now is      773.1 secs

     Computing kpt #:   954  of  1401
     total cpu time spent up to now is      773.8 secs

     Computing kpt #:   955  of  1401
     total cpu time spent up to now is      774.6 secs

     Computing kpt #:   956  of  1401
     total cpu time spent up to now is      775.5 secs

     Computing kpt #:   957  of  1401
     total cpu time spent up to now is      776.3 secs

     Computing kpt #:   958  of  1401
     total cpu time spent up to now is      777.1 secs

     Computing kpt #:   959  of  1401
     total cpu time spent up to now is      777.8 secs

     Computing kpt #:   960  of  1401
     total cpu time spent up to now is      778.6 secs

     Computing kpt #:   961  of  1401
     total cpu time spent up to now is      779.5 secs

     Computing kpt #:   962  of  1401
     total cpu time spent up to now is      780.2 secs

     Computing kpt #:   963  of  1401
     total cpu time spent up to now is      780.9 secs

     Computing kpt #:   964  of  1401
     total cpu time spent up to now is      781.6 secs

     Computing kpt #:   965  of  1401
     total cpu time spent up to now is      782.3 secs

     Computing kpt #:   966  of  1401
     total cpu time spent up to now is      783.0 secs

     Computing kpt #:   967  of  1401
     total cpu time spent up to now is      783.7 secs

     Computing kpt #:   968  of  1401
     total cpu time spent up to now is      784.5 secs

     Computing kpt #:   969  of  1401
     total cpu time spent up to now is      785.4 secs

     Computing kpt #:   970  of  1401
     total cpu time spent up to now is      786.3 secs

     Computing kpt #:   971  of  1401
     total cpu time spent up to now is      787.0 secs

     Computing kpt #:   972  of  1401
     total cpu time spent up to now is      787.7 secs

     Computing kpt #:   973  of  1401
     total cpu time spent up to now is      788.4 secs

     Computing kpt #:   974  of  1401
     total cpu time spent up to now is      789.1 secs

     Computing kpt #:   975  of  1401
     total cpu time spent up to now is      789.9 secs

     Computing kpt #:   976  of  1401
     total cpu time spent up to now is      790.8 secs

     Computing kpt #:   977  of  1401
     total cpu time spent up to now is      791.5 secs

     Computing kpt #:   978  of  1401
     total cpu time spent up to now is      792.2 secs

     Computing kpt #:   979  of  1401
     total cpu time spent up to now is      792.9 secs

     Computing kpt #:   980  of  1401
     total cpu time spent up to now is      793.6 secs

     Computing kpt #:   981  of  1401
     total cpu time spent up to now is      794.3 secs

     Computing kpt #:   982  of  1401
     total cpu time spent up to now is      794.9 secs

     Computing kpt #:   983  of  1401
     total cpu time spent up to now is      795.6 secs

     Computing kpt #:   984  of  1401
     total cpu time spent up to now is      796.3 secs

     Computing kpt #:   985  of  1401
     total cpu time spent up to now is      796.9 secs

     Computing kpt #:   986  of  1401
     total cpu time spent up to now is      797.6 secs

     Computing kpt #:   987  of  1401
     total cpu time spent up to now is      798.3 secs

     Computing kpt #:   988  of  1401
     total cpu time spent up to now is      799.0 secs

     Computing kpt #:   989  of  1401
     total cpu time spent up to now is      799.7 secs

     Computing kpt #:   990  of  1401
     total cpu time spent up to now is      800.4 secs

     Computing kpt #:   991  of  1401
     total cpu time spent up to now is      801.2 secs

     Computing kpt #:   992  of  1401
     total cpu time spent up to now is      802.0 secs

     Computing kpt #:   993  of  1401
     total cpu time spent up to now is      802.7 secs

     Computing kpt #:   994  of  1401
     total cpu time spent up to now is      803.3 secs

     Computing kpt #:   995  of  1401
     total cpu time spent up to now is      804.0 secs

     Computing kpt #:   996  of  1401
     total cpu time spent up to now is      804.7 secs

     Computing kpt #:   997  of  1401
     total cpu time spent up to now is      805.4 secs

     Computing kpt #:   998  of  1401
     total cpu time spent up to now is      806.1 secs

     Computing kpt #:   999  of  1401
     total cpu time spent up to now is      806.8 secs

     Computing kpt #:  1000  of  1401
     total cpu time spent up to now is      807.4 secs

     Computing kpt #:  1001  of  1401
     total cpu time spent up to now is      808.0 secs

     Computing kpt #:  1002  of  1401
     total cpu time spent up to now is      808.8 secs

     Computing kpt #:  1003  of  1401
     total cpu time spent up to now is      809.5 secs

     Computing kpt #:  1004  of  1401
     total cpu time spent up to now is      810.2 secs

     Computing kpt #:  1005  of  1401
     total cpu time spent up to now is      810.8 secs

     Computing kpt #:  1006  of  1401
     total cpu time spent up to now is      811.4 secs

     Computing kpt #:  1007  of  1401
     total cpu time spent up to now is      812.1 secs

     Computing kpt #:  1008  of  1401
     total cpu time spent up to now is      812.7 secs

     Computing kpt #:  1009  of  1401
     total cpu time spent up to now is      813.4 secs

     Computing kpt #:  1010  of  1401
     total cpu time spent up to now is      814.1 secs

     Computing kpt #:  1011  of  1401
     total cpu time spent up to now is      814.7 secs

     Computing kpt #:  1012  of  1401
     total cpu time spent up to now is      815.3 secs

     Computing kpt #:  1013  of  1401
     total cpu time spent up to now is      815.9 secs

     Computing kpt #:  1014  of  1401
     total cpu time spent up to now is      816.6 secs

     Computing kpt #:  1015  of  1401
     total cpu time spent up to now is      817.3 secs

     Computing kpt #:  1016  of  1401
     total cpu time spent up to now is      817.9 secs

     Computing kpt #:  1017  of  1401
     total cpu time spent up to now is      818.5 secs

     Computing kpt #:  1018  of  1401
     total cpu time spent up to now is      819.2 secs

     Computing kpt #:  1019  of  1401
     total cpu time spent up to now is      819.8 secs

     Computing kpt #:  1020  of  1401
     total cpu time spent up to now is      820.4 secs

     Computing kpt #:  1021  of  1401
     total cpu time spent up to now is      821.5 secs

     Computing kpt #:  1022  of  1401
     total cpu time spent up to now is      823.4 secs

     Computing kpt #:  1023  of  1401
     total cpu time spent up to now is      824.3 secs

     Computing kpt #:  1024  of  1401
     total cpu time spent up to now is      825.0 secs

     Computing kpt #:  1025  of  1401
     total cpu time spent up to now is      825.7 secs

     Computing kpt #:  1026  of  1401
     total cpu time spent up to now is      826.3 secs

     Computing kpt #:  1027  of  1401
     total cpu time spent up to now is      826.9 secs

     Computing kpt #:  1028  of  1401
     total cpu time spent up to now is      827.6 secs

     Computing kpt #:  1029  of  1401
     total cpu time spent up to now is      828.2 secs

     Computing kpt #:  1030  of  1401
     total cpu time spent up to now is      828.9 secs

     Computing kpt #:  1031  of  1401
     total cpu time spent up to now is      829.6 secs

     Computing kpt #:  1032  of  1401
     total cpu time spent up to now is      830.2 secs

     Computing kpt #:  1033  of  1401
     total cpu time spent up to now is      830.9 secs

     Computing kpt #:  1034  of  1401
     total cpu time spent up to now is      831.6 secs

     Computing kpt #:  1035  of  1401
     total cpu time spent up to now is      832.2 secs

     Computing kpt #:  1036  of  1401
     total cpu time spent up to now is      832.8 secs

     Computing kpt #:  1037  of  1401
     total cpu time spent up to now is      833.5 secs

     Computing kpt #:  1038  of  1401
     total cpu time spent up to now is      834.1 secs

     Computing kpt #:  1039  of  1401
     total cpu time spent up to now is      834.7 secs

     Computing kpt #:  1040  of  1401
     total cpu time spent up to now is      835.4 secs

     Computing kpt #:  1041  of  1401
     total cpu time spent up to now is      836.1 secs

     Computing kpt #:  1042  of  1401
     total cpu time spent up to now is      836.7 secs

     Computing kpt #:  1043  of  1401
     total cpu time spent up to now is      837.4 secs

     Computing kpt #:  1044  of  1401
     total cpu time spent up to now is      838.0 secs

     Computing kpt #:  1045  of  1401
     total cpu time spent up to now is      838.7 secs

     Computing kpt #:  1046  of  1401
     total cpu time spent up to now is      839.6 secs

     Computing kpt #:  1047  of  1401
     total cpu time spent up to now is      840.3 secs

     Computing kpt #:  1048  of  1401
     total cpu time spent up to now is      841.0 secs

     Computing kpt #:  1049  of  1401
     total cpu time spent up to now is      841.7 secs

     Computing kpt #:  1050  of  1401
     total cpu time spent up to now is      842.4 secs

     Computing kpt #:  1051  of  1401
     total cpu time spent up to now is      843.1 secs

     Computing kpt #:  1052  of  1401
     total cpu time spent up to now is      843.8 secs

     Computing kpt #:  1053  of  1401
     total cpu time spent up to now is      844.5 secs

     Computing kpt #:  1054  of  1401
     total cpu time spent up to now is      845.2 secs

     Computing kpt #:  1055  of  1401
     total cpu time spent up to now is      845.9 secs

     Computing kpt #:  1056  of  1401
     total cpu time spent up to now is      846.6 secs

     Computing kpt #:  1057  of  1401
     total cpu time spent up to now is      847.3 secs

     Computing kpt #:  1058  of  1401
     total cpu time spent up to now is      848.0 secs

     Computing kpt #:  1059  of  1401
     total cpu time spent up to now is      848.7 secs

     Computing kpt #:  1060  of  1401
     total cpu time spent up to now is      849.4 secs

     Computing kpt #:  1061  of  1401
     total cpu time spent up to now is      850.2 secs

     Computing kpt #:  1062  of  1401
     total cpu time spent up to now is      850.9 secs

     Computing kpt #:  1063  of  1401
     total cpu time spent up to now is      851.6 secs

     Computing kpt #:  1064  of  1401
     total cpu time spent up to now is      852.3 secs

     Computing kpt #:  1065  of  1401
     total cpu time spent up to now is      853.0 secs

     Computing kpt #:  1066  of  1401
     total cpu time spent up to now is      853.7 secs

     Computing kpt #:  1067  of  1401
     total cpu time spent up to now is      854.5 secs

     Computing kpt #:  1068  of  1401
     total cpu time spent up to now is      855.2 secs

     Computing kpt #:  1069  of  1401
     total cpu time spent up to now is      855.9 secs

     Computing kpt #:  1070  of  1401
     total cpu time spent up to now is      856.6 secs

     Computing kpt #:  1071  of  1401
     total cpu time spent up to now is      857.3 secs

     Computing kpt #:  1072  of  1401
     total cpu time spent up to now is      858.0 secs

     Computing kpt #:  1073  of  1401
     total cpu time spent up to now is      858.8 secs

     Computing kpt #:  1074  of  1401
     total cpu time spent up to now is      859.5 secs

     Computing kpt #:  1075  of  1401
     total cpu time spent up to now is      860.2 secs

     Computing kpt #:  1076  of  1401
     total cpu time spent up to now is      861.0 secs

     Computing kpt #:  1077  of  1401
     total cpu time spent up to now is      861.7 secs

     Computing kpt #:  1078  of  1401
     total cpu time spent up to now is      862.4 secs

     Computing kpt #:  1079  of  1401
     total cpu time spent up to now is      863.1 secs

     Computing kpt #:  1080  of  1401
     total cpu time spent up to now is      863.8 secs

     Computing kpt #:  1081  of  1401
     total cpu time spent up to now is      864.5 secs

     Computing kpt #:  1082  of  1401
     c_bands:  1 eigenvalues not converged
     total cpu time spent up to now is      865.5 secs

     Computing kpt #:  1083  of  1401
     c_bands:  1 eigenvalues not converged
     total cpu time spent up to now is      866.5 secs

     Computing kpt #:  1084  of  1401
     total cpu time spent up to now is      867.4 secs

     Computing kpt #:  1085  of  1401
     total cpu time spent up to now is      868.4 secs

     Computing kpt #:  1086  of  1401
     total cpu time spent up to now is      869.3 secs

     Computing kpt #:  1087  of  1401
     total cpu time spent up to now is      870.2 secs

     Computing kpt #:  1088  of  1401
     total cpu time spent up to now is      871.2 secs

     Computing kpt #:  1089  of  1401
     total cpu time spent up to now is      872.3 secs

     Computing kpt #:  1090  of  1401
     c_bands:  1 eigenvalues not converged
     total cpu time spent up to now is      873.3 secs

     Computing kpt #:  1091  of  1401
     total cpu time spent up to now is      874.1 secs

     Computing kpt #:  1092  of  1401
     total cpu time spent up to now is      875.1 secs

     Computing kpt #:  1093  of  1401
     total cpu time spent up to now is      876.1 secs

     Computing kpt #:  1094  of  1401
     total cpu time spent up to now is      876.9 secs

     Computing kpt #:  1095  of  1401
     total cpu time spent up to now is      877.9 secs

     Computing kpt #:  1096  of  1401
     total cpu time spent up to now is      878.6 secs

     Computing kpt #:  1097  of  1401
     total cpu time spent up to now is      879.5 secs

     Computing kpt #:  1098  of  1401
     total cpu time spent up to now is      880.5 secs

     Computing kpt #:  1099  of  1401
     total cpu time spent up to now is      881.6 secs

     Computing kpt #:  1100  of  1401
     total cpu time spent up to now is      882.8 secs

     Computing kpt #:  1101  of  1401
     total cpu time spent up to now is      883.9 secs

     Computing kpt #:  1102  of  1401
     total cpu time spent up to now is      884.7 secs

     Computing kpt #:  1103  of  1401
     total cpu time spent up to now is      885.5 secs

     Computing kpt #:  1104  of  1401
     total cpu time spent up to now is      886.5 secs

     Computing kpt #:  1105  of  1401
     total cpu time spent up to now is      887.4 secs

     Computing kpt #:  1106  of  1401
     total cpu time spent up to now is      888.3 secs

     Computing kpt #:  1107  of  1401
     total cpu time spent up to now is      889.2 secs

     Computing kpt #:  1108  of  1401
     total cpu time spent up to now is      890.1 secs

     Computing kpt #:  1109  of  1401
     total cpu time spent up to now is      891.1 secs

     Computing kpt #:  1110  of  1401
     total cpu time spent up to now is      892.0 secs

     Computing kpt #:  1111  of  1401
     total cpu time spent up to now is      893.0 secs

     Computing kpt #:  1112  of  1401
     total cpu time spent up to now is      893.8 secs

     Computing kpt #:  1113  of  1401
     total cpu time spent up to now is      894.7 secs

     Computing kpt #:  1114  of  1401
     total cpu time spent up to now is      895.6 secs

     Computing kpt #:  1115  of  1401
     total cpu time spent up to now is      896.6 secs

     Computing kpt #:  1116  of  1401
     total cpu time spent up to now is      897.5 secs

     Computing kpt #:  1117  of  1401
     total cpu time spent up to now is      898.3 secs

     Computing kpt #:  1118  of  1401
     total cpu time spent up to now is      899.4 secs

     Computing kpt #:  1119  of  1401
     total cpu time spent up to now is      900.3 secs

     Computing kpt #:  1120  of  1401
     total cpu time spent up to now is      901.3 secs

     Computing kpt #:  1121  of  1401
     total cpu time spent up to now is      902.2 secs

     Computing kpt #:  1122  of  1401
     total cpu time spent up to now is      903.1 secs

     Computing kpt #:  1123  of  1401
     total cpu time spent up to now is      904.0 secs

     Computing kpt #:  1124  of  1401
     total cpu time spent up to now is      904.9 secs

     Computing kpt #:  1125  of  1401
     total cpu time spent up to now is      905.7 secs

     Computing kpt #:  1126  of  1401
     total cpu time spent up to now is      906.6 secs

     Computing kpt #:  1127  of  1401
     total cpu time spent up to now is      907.5 secs

     Computing kpt #:  1128  of  1401
     total cpu time spent up to now is      908.3 secs

     Computing kpt #:  1129  of  1401
     total cpu time spent up to now is      909.2 secs

     Computing kpt #:  1130  of  1401
     total cpu time spent up to now is      910.0 secs

     Computing kpt #:  1131  of  1401
     total cpu time spent up to now is      910.9 secs

     Computing kpt #:  1132  of  1401
     total cpu time spent up to now is      911.7 secs

     Computing kpt #:  1133  of  1401
     total cpu time spent up to now is      912.6 secs

     Computing kpt #:  1134  of  1401
     total cpu time spent up to now is      913.7 secs

     Computing kpt #:  1135  of  1401
     total cpu time spent up to now is      914.6 secs

     Computing kpt #:  1136  of  1401
     total cpu time spent up to now is      915.6 secs

     Computing kpt #:  1137  of  1401
     total cpu time spent up to now is      916.4 secs

     Computing kpt #:  1138  of  1401
     total cpu time spent up to now is      917.3 secs

     Computing kpt #:  1139  of  1401
     total cpu time spent up to now is      918.7 secs

     Computing kpt #:  1140  of  1401
     total cpu time spent up to now is      919.8 secs

     Computing kpt #:  1141  of  1401
     total cpu time spent up to now is      920.7 secs

     Computing kpt #:  1142  of  1401
     total cpu time spent up to now is      921.7 secs

     Computing kpt #:  1143  of  1401
     total cpu time spent up to now is      922.5 secs

     Computing kpt #:  1144  of  1401
     total cpu time spent up to now is      923.4 secs

     Computing kpt #:  1145  of  1401
     total cpu time spent up to now is      924.3 secs

     Computing kpt #:  1146  of  1401
     total cpu time spent up to now is      925.4 secs

     Computing kpt #:  1147  of  1401
     total cpu time spent up to now is      926.2 secs

     Computing kpt #:  1148  of  1401
     total cpu time spent up to now is      928.1 secs

     Computing kpt #:  1149  of  1401
     total cpu time spent up to now is      929.0 secs

     Computing kpt #:  1150  of  1401
     total cpu time spent up to now is      930.0 secs

     Computing kpt #:  1151  of  1401
     total cpu time spent up to now is      931.0 secs

     Computing kpt #:  1152  of  1401
     total cpu time spent up to now is      932.1 secs

     Computing kpt #:  1153  of  1401
     total cpu time spent up to now is      933.1 secs

     Computing kpt #:  1154  of  1401
     total cpu time spent up to now is      934.1 secs

     Computing kpt #:  1155  of  1401
     total cpu time spent up to now is      935.0 secs

     Computing kpt #:  1156  of  1401
     total cpu time spent up to now is      935.9 secs

     Computing kpt #:  1157  of  1401
     total cpu time spent up to now is      936.8 secs

     Computing kpt #:  1158  of  1401
     total cpu time spent up to now is      937.7 secs

     Computing kpt #:  1159  of  1401
     total cpu time spent up to now is      938.7 secs

     Computing kpt #:  1160  of  1401
     total cpu time spent up to now is      939.7 secs

     Computing kpt #:  1161  of  1401
     total cpu time spent up to now is      940.8 secs

     Computing kpt #:  1162  of  1401
     total cpu time spent up to now is      942.0 secs

     Computing kpt #:  1163  of  1401
     total cpu time spent up to now is      943.2 secs

     Computing kpt #:  1164  of  1401
     total cpu time spent up to now is      944.2 secs

     Computing kpt #:  1165  of  1401
     total cpu time spent up to now is      945.2 secs

     Computing kpt #:  1166  of  1401
     total cpu time spent up to now is      946.2 secs

     Computing kpt #:  1167  of  1401
     total cpu time spent up to now is      947.0 secs

     Computing kpt #:  1168  of  1401
     total cpu time spent up to now is      947.9 secs

     Computing kpt #:  1169  of  1401
     total cpu time spent up to now is      948.9 secs

     Computing kpt #:  1170  of  1401
     total cpu time spent up to now is      949.8 secs

     Computing kpt #:  1171  of  1401
     total cpu time spent up to now is      950.6 secs

     Computing kpt #:  1172  of  1401
     total cpu time spent up to now is      951.4 secs

     Computing kpt #:  1173  of  1401
     total cpu time spent up to now is      952.4 secs

     Computing kpt #:  1174  of  1401
     total cpu time spent up to now is      953.2 secs

     Computing kpt #:  1175  of  1401
     total cpu time spent up to now is      953.9 secs

     Computing kpt #:  1176  of  1401
     total cpu time spent up to now is      954.7 secs

     Computing kpt #:  1177  of  1401
     total cpu time spent up to now is      955.6 secs

     Computing kpt #:  1178  of  1401
     total cpu time spent up to now is      956.4 secs

     Computing kpt #:  1179  of  1401
     total cpu time spent up to now is      957.1 secs

     Computing kpt #:  1180  of  1401
     total cpu time spent up to now is      957.9 secs

     Computing kpt #:  1181  of  1401
     total cpu time spent up to now is      958.7 secs

     Computing kpt #:  1182  of  1401
     total cpu time spent up to now is      959.4 secs

     Computing kpt #:  1183  of  1401
     total cpu time spent up to now is      960.2 secs

     Computing kpt #:  1184  of  1401
     total cpu time spent up to now is      960.9 secs

     Computing kpt #:  1185  of  1401
     total cpu time spent up to now is      961.7 secs

     Computing kpt #:  1186  of  1401
     total cpu time spent up to now is      962.5 secs

     Computing kpt #:  1187  of  1401
     total cpu time spent up to now is      963.3 secs

     Computing kpt #:  1188  of  1401
     total cpu time spent up to now is      964.1 secs

     Computing kpt #:  1189  of  1401
     total cpu time spent up to now is      965.0 secs

     Computing kpt #:  1190  of  1401
     total cpu time spent up to now is      965.9 secs

     Computing kpt #:  1191  of  1401
     total cpu time spent up to now is      966.9 secs

     Computing kpt #:  1192  of  1401
     total cpu time spent up to now is      967.9 secs

     Computing kpt #:  1193  of  1401
     total cpu time spent up to now is      969.0 secs

     Computing kpt #:  1194  of  1401
     total cpu time spent up to now is      969.9 secs

     Computing kpt #:  1195  of  1401
     total cpu time spent up to now is      970.9 secs

     Computing kpt #:  1196  of  1401
     total cpu time spent up to now is      971.7 secs

     Computing kpt #:  1197  of  1401
     total cpu time spent up to now is      972.5 secs

     Computing kpt #:  1198  of  1401
     total cpu time spent up to now is      973.2 secs

     Computing kpt #:  1199  of  1401
     total cpu time spent up to now is      974.1 secs

     Computing kpt #:  1200  of  1401
     total cpu time spent up to now is      974.9 secs

     Computing kpt #:  1201  of  1401
     total cpu time spent up to now is      975.8 secs

     Computing kpt #:  1202  of  1401
     total cpu time spent up to now is      976.7 secs

     Computing kpt #:  1203  of  1401
     total cpu time spent up to now is      977.8 secs

     Computing kpt #:  1204  of  1401
     total cpu time spent up to now is      978.7 secs

     Computing kpt #:  1205  of  1401
     total cpu time spent up to now is      979.5 secs

     Computing kpt #:  1206  of  1401
     total cpu time spent up to now is      980.4 secs

     Computing kpt #:  1207  of  1401
     total cpu time spent up to now is      981.3 secs

     Computing kpt #:  1208  of  1401
     total cpu time spent up to now is      982.3 secs

     Computing kpt #:  1209  of  1401
     total cpu time spent up to now is      983.2 secs

     Computing kpt #:  1210  of  1401
     total cpu time spent up to now is      984.1 secs

     Computing kpt #:  1211  of  1401
     total cpu time spent up to now is      984.8 secs

     Computing kpt #:  1212  of  1401
     total cpu time spent up to now is      985.5 secs

     Computing kpt #:  1213  of  1401
     total cpu time spent up to now is      986.3 secs

     Computing kpt #:  1214  of  1401
     total cpu time spent up to now is      987.0 secs

     Computing kpt #:  1215  of  1401
     total cpu time spent up to now is      987.8 secs

     Computing kpt #:  1216  of  1401
     total cpu time spent up to now is      988.6 secs

     Computing kpt #:  1217  of  1401
     total cpu time spent up to now is      989.4 secs

     Computing kpt #:  1218  of  1401
     total cpu time spent up to now is      990.1 secs

     Computing kpt #:  1219  of  1401
     total cpu time spent up to now is      990.9 secs

     Computing kpt #:  1220  of  1401
     total cpu time spent up to now is      991.6 secs

     Computing kpt #:  1221  of  1401
     total cpu time spent up to now is      992.4 secs

     Computing kpt #:  1222  of  1401
     total cpu time spent up to now is      993.1 secs

     Computing kpt #:  1223  of  1401
     total cpu time spent up to now is      993.8 secs

     Computing kpt #:  1224  of  1401
     total cpu time spent up to now is      994.6 secs

     Computing kpt #:  1225  of  1401
     total cpu time spent up to now is      995.3 secs

     Computing kpt #:  1226  of  1401
     total cpu time spent up to now is      996.0 secs

     Computing kpt #:  1227  of  1401
     total cpu time spent up to now is      996.7 secs

     Computing kpt #:  1228  of  1401
     total cpu time spent up to now is      997.5 secs

     Computing kpt #:  1229  of  1401
     total cpu time spent up to now is      998.2 secs

     Computing kpt #:  1230  of  1401
     total cpu time spent up to now is      998.9 secs

     Computing kpt #:  1231  of  1401
     total cpu time spent up to now is      999.6 secs

     Computing kpt #:  1232  of  1401
     total cpu time spent up to now is     1000.3 secs

     Computing kpt #:  1233  of  1401
     total cpu time spent up to now is     1001.3 secs

     Computing kpt #:  1234  of  1401
     total cpu time spent up to now is     1002.2 secs

     Computing kpt #:  1235  of  1401
     total cpu time spent up to now is     1003.2 secs

     Computing kpt #:  1236  of  1401
     total cpu time spent up to now is     1003.9 secs

     Computing kpt #:  1237  of  1401
     total cpu time spent up to now is     1004.7 secs

     Computing kpt #:  1238  of  1401
     total cpu time spent up to now is     1005.4 secs

     Computing kpt #:  1239  of  1401
     total cpu time spent up to now is     1006.2 secs

     Computing kpt #:  1240  of  1401
     total cpu time spent up to now is     1007.0 secs

     Computing kpt #:  1241  of  1401
     total cpu time spent up to now is     1007.8 secs

     Computing kpt #:  1242  of  1401
     total cpu time spent up to now is     1008.5 secs

     Computing kpt #:  1243  of  1401
     total cpu time spent up to now is     1009.3 secs

     Computing kpt #:  1244  of  1401
     total cpu time spent up to now is     1010.0 secs

     Computing kpt #:  1245  of  1401
     total cpu time spent up to now is     1010.8 secs

     Computing kpt #:  1246  of  1401
     total cpu time spent up to now is     1011.5 secs

     Computing kpt #:  1247  of  1401
     total cpu time spent up to now is     1012.3 secs

     Computing kpt #:  1248  of  1401
     total cpu time spent up to now is     1013.1 secs

     Computing kpt #:  1249  of  1401
     total cpu time spent up to now is     1013.9 secs

     Computing kpt #:  1250  of  1401
     total cpu time spent up to now is     1014.6 secs

     Computing kpt #:  1251  of  1401
     total cpu time spent up to now is     1015.3 secs

     Computing kpt #:  1252  of  1401
     total cpu time spent up to now is     1016.0 secs

     Computing kpt #:  1253  of  1401
     total cpu time spent up to now is     1016.8 secs

     Computing kpt #:  1254  of  1401
     total cpu time spent up to now is     1017.5 secs

     Computing kpt #:  1255  of  1401
     total cpu time spent up to now is     1018.2 secs

     Computing kpt #:  1256  of  1401
     total cpu time spent up to now is     1019.0 secs

     Computing kpt #:  1257  of  1401
     total cpu time spent up to now is     1019.7 secs

     Computing kpt #:  1258  of  1401
     total cpu time spent up to now is     1020.5 secs

     Computing kpt #:  1259  of  1401
     total cpu time spent up to now is     1021.2 secs

     Computing kpt #:  1260  of  1401
     total cpu time spent up to now is     1021.9 secs

     Computing kpt #:  1261  of  1401
     total cpu time spent up to now is     1022.7 secs

     Computing kpt #:  1262  of  1401
     total cpu time spent up to now is     1023.4 secs

     Computing kpt #:  1263  of  1401
     total cpu time spent up to now is     1024.2 secs

     Computing kpt #:  1264  of  1401
     total cpu time spent up to now is     1025.0 secs

     Computing kpt #:  1265  of  1401
     total cpu time spent up to now is     1025.7 secs

     Computing kpt #:  1266  of  1401
     total cpu time spent up to now is     1026.4 secs

     Computing kpt #:  1267  of  1401
     total cpu time spent up to now is     1027.2 secs

     Computing kpt #:  1268  of  1401
     total cpu time spent up to now is     1028.0 secs

     Computing kpt #:  1269  of  1401
     total cpu time spent up to now is     1028.8 secs

     Computing kpt #:  1270  of  1401
     total cpu time spent up to now is     1029.6 secs

     Computing kpt #:  1271  of  1401
     total cpu time spent up to now is     1030.4 secs

     Computing kpt #:  1272  of  1401
     total cpu time spent up to now is     1031.3 secs

     Computing kpt #:  1273  of  1401
     total cpu time spent up to now is     1032.2 secs

     Computing kpt #:  1274  of  1401
     total cpu time spent up to now is     1033.1 secs

     Computing kpt #:  1275  of  1401
     total cpu time spent up to now is     1033.9 secs

     Computing kpt #:  1276  of  1401
     total cpu time spent up to now is     1034.6 secs

     Computing kpt #:  1277  of  1401
     total cpu time spent up to now is     1035.4 secs

     Computing kpt #:  1278  of  1401
     total cpu time spent up to now is     1036.1 secs

     Computing kpt #:  1279  of  1401
     total cpu time spent up to now is     1036.9 secs

     Computing kpt #:  1280  of  1401
     total cpu time spent up to now is     1037.6 secs

     Computing kpt #:  1281  of  1401
     total cpu time spent up to now is     1038.3 secs

     Computing kpt #:  1282  of  1401
     total cpu time spent up to now is     1039.1 secs

     Computing kpt #:  1283  of  1401
     total cpu time spent up to now is     1040.0 secs

     Computing kpt #:  1284  of  1401
     total cpu time spent up to now is     1040.8 secs

     Computing kpt #:  1285  of  1401
     total cpu time spent up to now is     1041.6 secs

     Computing kpt #:  1286  of  1401
     total cpu time spent up to now is     1042.5 secs

     Computing kpt #:  1287  of  1401
     total cpu time spent up to now is     1043.3 secs

     Computing kpt #:  1288  of  1401
     total cpu time spent up to now is     1044.0 secs

     Computing kpt #:  1289  of  1401
     total cpu time spent up to now is     1044.8 secs

     Computing kpt #:  1290  of  1401
     total cpu time spent up to now is     1045.5 secs

     Computing kpt #:  1291  of  1401
     total cpu time spent up to now is     1046.3 secs

     Computing kpt #:  1292  of  1401
     total cpu time spent up to now is     1047.1 secs

     Computing kpt #:  1293  of  1401
     total cpu time spent up to now is     1047.9 secs

     Computing kpt #:  1294  of  1401
     total cpu time spent up to now is     1048.7 secs

     Computing kpt #:  1295  of  1401
     total cpu time spent up to now is     1049.4 secs

     Computing kpt #:  1296  of  1401
     total cpu time spent up to now is     1050.2 secs

     Computing kpt #:  1297  of  1401
     total cpu time spent up to now is     1050.9 secs

     Computing kpt #:  1298  of  1401
     total cpu time spent up to now is     1051.7 secs

     Computing kpt #:  1299  of  1401
     total cpu time spent up to now is     1052.4 secs

     Computing kpt #:  1300  of  1401
     total cpu time spent up to now is     1053.2 secs

     Computing kpt #:  1301  of  1401
     total cpu time spent up to now is     1053.9 secs

     Computing kpt #:  1302  of  1401
     total cpu time spent up to now is     1054.7 secs

     Computing kpt #:  1303  of  1401
     total cpu time spent up to now is     1055.4 secs

     Computing kpt #:  1304  of  1401
     total cpu time spent up to now is     1056.1 secs

     Computing kpt #:  1305  of  1401
     total cpu time spent up to now is     1056.8 secs

     Computing kpt #:  1306  of  1401
     total cpu time spent up to now is     1057.6 secs

     Computing kpt #:  1307  of  1401
     total cpu time spent up to now is     1058.3 secs

     Computing kpt #:  1308  of  1401
     total cpu time spent up to now is     1059.1 secs

     Computing kpt #:  1309  of  1401
     total cpu time spent up to now is     1059.9 secs

     Computing kpt #:  1310  of  1401
     total cpu time spent up to now is     1060.6 secs

     Computing kpt #:  1311  of  1401
     total cpu time spent up to now is     1061.8 secs

     Computing kpt #:  1312  of  1401
     total cpu time spent up to now is     1063.1 secs

     Computing kpt #:  1313  of  1401
     total cpu time spent up to now is     1063.9 secs

     Computing kpt #:  1314  of  1401
     total cpu time spent up to now is     1064.8 secs

     Computing kpt #:  1315  of  1401
     total cpu time spent up to now is     1065.6 secs

     Computing kpt #:  1316  of  1401
     total cpu time spent up to now is     1066.3 secs

     Computing kpt #:  1317  of  1401
     total cpu time spent up to now is     1067.0 secs

     Computing kpt #:  1318  of  1401
     total cpu time spent up to now is     1067.8 secs

     Computing kpt #:  1319  of  1401
     total cpu time spent up to now is     1068.5 secs

     Computing kpt #:  1320  of  1401
     total cpu time spent up to now is     1069.3 secs

     Computing kpt #:  1321  of  1401
     total cpu time spent up to now is     1070.1 secs

     Computing kpt #:  1322  of  1401
     total cpu time spent up to now is     1070.8 secs

     Computing kpt #:  1323  of  1401
     total cpu time spent up to now is     1071.6 secs

     Computing kpt #:  1324  of  1401
     total cpu time spent up to now is     1072.4 secs

     Computing kpt #:  1325  of  1401
     total cpu time spent up to now is     1073.2 secs

     Computing kpt #:  1326  of  1401
     total cpu time spent up to now is     1073.9 secs

     Computing kpt #:  1327  of  1401
     total cpu time spent up to now is     1074.7 secs

     Computing kpt #:  1328  of  1401
     total cpu time spent up to now is     1075.6 secs

     Computing kpt #:  1329  of  1401
     total cpu time spent up to now is     1076.6 secs

     Computing kpt #:  1330  of  1401
     total cpu time spent up to now is     1077.4 secs

     Computing kpt #:  1331  of  1401
     total cpu time spent up to now is     1078.2 secs

     Computing kpt #:  1332  of  1401
     total cpu time spent up to now is     1079.0 secs

     Computing kpt #:  1333  of  1401
     total cpu time spent up to now is     1079.8 secs

     Computing kpt #:  1334  of  1401
     total cpu time spent up to now is     1080.6 secs

     Computing kpt #:  1335  of  1401
     total cpu time spent up to now is     1081.3 secs

     Computing kpt #:  1336  of  1401
     total cpu time spent up to now is     1082.1 secs

     Computing kpt #:  1337  of  1401
     total cpu time spent up to now is     1083.1 secs

     Computing kpt #:  1338  of  1401
     total cpu time spent up to now is     1084.0 secs

     Computing kpt #:  1339  of  1401
     total cpu time spent up to now is     1085.0 secs

     Computing kpt #:  1340  of  1401
     total cpu time spent up to now is     1085.8 secs

     Computing kpt #:  1341  of  1401
     total cpu time spent up to now is     1086.7 secs

     Computing kpt #:  1342  of  1401
     total cpu time spent up to now is     1087.6 secs

     Computing kpt #:  1343  of  1401
     total cpu time spent up to now is     1088.4 secs

     Computing kpt #:  1344  of  1401
     total cpu time spent up to now is     1089.3 secs

     Computing kpt #:  1345  of  1401
     total cpu time spent up to now is     1090.1 secs

     Computing kpt #:  1346  of  1401
     total cpu time spent up to now is     1090.9 secs

     Computing kpt #:  1347  of  1401
     total cpu time spent up to now is     1091.6 secs

     Computing kpt #:  1348  of  1401
     total cpu time spent up to now is     1092.4 secs

     Computing kpt #:  1349  of  1401
     total cpu time spent up to now is     1093.2 secs

     Computing kpt #:  1350  of  1401
     total cpu time spent up to now is     1094.2 secs

     Computing kpt #:  1351  of  1401
     total cpu time spent up to now is     1095.0 secs

     Computing kpt #:  1352  of  1401
     total cpu time spent up to now is     1095.8 secs

     Computing kpt #:  1353  of  1401
     total cpu time spent up to now is     1096.6 secs

     Computing kpt #:  1354  of  1401
     total cpu time spent up to now is     1097.5 secs

     Computing kpt #:  1355  of  1401
     total cpu time spent up to now is     1098.4 secs

     Computing kpt #:  1356  of  1401
     total cpu time spent up to now is     1099.1 secs

     Computing kpt #:  1357  of  1401
     total cpu time spent up to now is     1099.9 secs

     Computing kpt #:  1358  of  1401
     total cpu time spent up to now is     1100.8 secs

     Computing kpt #:  1359  of  1401
     total cpu time spent up to now is     1101.7 secs

     Computing kpt #:  1360  of  1401
     total cpu time spent up to now is     1102.4 secs

     Computing kpt #:  1361  of  1401
     total cpu time spent up to now is     1103.2 secs

     Computing kpt #:  1362  of  1401
     total cpu time spent up to now is     1104.1 secs

     Computing kpt #:  1363  of  1401
     total cpu time spent up to now is     1104.8 secs

     Computing kpt #:  1364  of  1401
     total cpu time spent up to now is     1105.7 secs

     Computing kpt #:  1365  of  1401
     total cpu time spent up to now is     1106.4 secs

     Computing kpt #:  1366  of  1401
     total cpu time spent up to now is     1107.2 secs

     Computing kpt #:  1367  of  1401
     total cpu time spent up to now is     1107.9 secs

     Computing kpt #:  1368  of  1401
     total cpu time spent up to now is     1108.8 secs

     Computing kpt #:  1369  of  1401
     total cpu time spent up to now is     1109.6 secs

     Computing kpt #:  1370  of  1401
     total cpu time spent up to now is     1110.4 secs

     Computing kpt #:  1371  of  1401
     total cpu time spent up to now is     1111.1 secs

     Computing kpt #:  1372  of  1401
     total cpu time spent up to now is     1111.9 secs

     Computing kpt #:  1373  of  1401
     total cpu time spent up to now is     1112.7 secs

     Computing kpt #:  1374  of  1401
     total cpu time spent up to now is     1113.4 secs

     Computing kpt #:  1375  of  1401
     total cpu time spent up to now is     1114.2 secs

     Computing kpt #:  1376  of  1401
     total cpu time spent up to now is     1115.0 secs

     Computing kpt #:  1377  of  1401
     total cpu time spent up to now is     1115.8 secs

     Computing kpt #:  1378  of  1401
     total cpu time spent up to now is     1116.4 secs

     Computing kpt #:  1379  of  1401
     total cpu time spent up to now is     1117.2 secs

     Computing kpt #:  1380  of  1401
     total cpu time spent up to now is     1118.0 secs

     Computing kpt #:  1381  of  1401
     total cpu time spent up to now is     1118.7 secs

     Computing kpt #:  1382  of  1401
     total cpu time spent up to now is     1119.6 secs

     Computing kpt #:  1383  of  1401
     total cpu time spent up to now is     1120.4 secs

     Computing kpt #:  1384  of  1401
     total cpu time spent up to now is     1121.3 secs

     Computing kpt #:  1385  of  1401
     total cpu time spent up to now is     1123.0 secs

     Computing kpt #:  1386  of  1401
     total cpu time spent up to now is     1124.0 secs

     Computing kpt #:  1387  of  1401
     total cpu time spent up to now is     1124.8 secs

     Computing kpt #:  1388  of  1401
     total cpu time spent up to now is     1125.6 secs

     Computing kpt #:  1389  of  1401
     total cpu time spent up to now is     1126.4 secs

     Computing kpt #:  1390  of  1401
     total cpu time spent up to now is     1127.3 secs

     Computing kpt #:  1391  of  1401
     total cpu time spent up to now is     1128.3 secs

     Computing kpt #:  1392  of  1401
     total cpu time spent up to now is     1129.3 secs

     Computing kpt #:  1393  of  1401
     total cpu time spent up to now is     1130.2 secs

     Computing kpt #:  1394  of  1401
     total cpu time spent up to now is     1131.1 secs

     Computing kpt #:  1395  of  1401
     total cpu time spent up to now is     1132.0 secs

     Computing kpt #:  1396  of  1401
     total cpu time spent up to now is     1133.0 secs

     Computing kpt #:  1397  of  1401
     total cpu time spent up to now is     1133.9 secs

     Computing kpt #:  1398  of  1401
     total cpu time spent up to now is     1134.8 secs

     Computing kpt #:  1399  of  1401
     c_bands:  1 eigenvalues not converged
     total cpu time spent up to now is     1135.9 secs

     Computing kpt #:  1400  of  1401
     c_bands:  1 eigenvalues not converged
     total cpu time spent up to now is     1136.9 secs

     Computing kpt #:  1401  of  1401
     total cpu time spent up to now is     1137.8 secs

     ethr =  3.85E-13,  avg # of iterations = 58.1

     total cpu time spent up to now is     1137.8 secs

     End of band structure calculation

          k = 0.0000 0.0000 0.0000 ( 11017 PWs)   bands (ev):

  -108.5857 -56.9169 -56.9169 -56.9169  -5.2392  -0.7040  -0.7040  -0.7040
    -0.2711  -0.2711   5.2543   6.1770   6.1770   6.1770  10.5602  10.5602
    10.5602  12.7203  15.7331  15.7331  16.1846  16.1846  16.1846  18.1771
    24.9243

          k = 0.0000 0.0022 0.0000 ( 11001 PWs)   bands (ev):

  -108.5857 -56.9169 -56.9169 -56.9169  -5.2392  -0.7040  -0.7040  -0.7040
    -0.2711  -0.2711   5.2540   6.1769   6.1769   6.1773  10.5601  10.5603
    10.5603  12.7205  15.7318  15.7331  16.1846  16.1846  16.1857  18.1774
    24.9240

          k = 0.0000 0.0044 0.0000 ( 10993 PWs)   bands (ev):

  -108.5857 -56.9169 -56.9169 -56.9169  -5.2391  -0.7040  -0.7040  -0.7040
    -0.2711  -0.2711   5.2529   6.1767   6.1767   6.1783  10.5596  10.5606
    10.5606  12.7212  15.7280  15.7331  16.1848  16.1848  16.1891  18.1783
    24.9233

          k = 0.0000 0.0066 0.0000 ( 10993 PWs)   bands (ev):

  -108.5857 -56.9169 -56.9169 -56.9169  -5.2390  -0.7040  -0.7040  -0.7040
    -0.2711  -0.2711   5.2512   6.1764   6.1764   6.1801  10.5587  10.5611
    10.5611  12.7225  15.7219  15.7332  16.1852  16.1852  16.1945  18.1798
    24.9222

          k = 0.0000 0.0088 0.0000 ( 10993 PWs)   bands (ev):

  -108.5857 -56.9169 -56.9169 -56.9169  -5.2390  -0.7040  -0.7039  -0.7039
    -0.2711  -0.2711   5.2488   6.1759   6.1759   6.1824  10.5576  10.5617
    10.5617  12.7242  15.7135  15.7333  16.1856  16.1856  16.2020  18.1819
    24.9206

          k = 0.0000 0.0110 0.0000 ( 10993 PWs)   bands (ev):

  -108.5857 -56.9169 -56.9169 -56.9169  -5.2388  -0.7039  -0.7039  -0.7039
    -0.2711  -0.2710   5.2458   6.1753   6.1753   6.1855  10.5561  10.5625
    10.5625  12.7264  15.7030  15.7334  16.1862  16.1862  16.2111  18.1845
    24.9185

          k = 0.0000 0.0133 0.0000 ( 10993 PWs)   bands (ev):

  -108.5857 -56.9169 -56.9169 -56.9169  -5.2387  -0.7039  -0.7038  -0.7038
    -0.2712  -0.2710   5.2421   6.1745   6.1745   6.1892  10.5543  10.5635
    10.5635  12.7291  15.6908  15.7335  16.1870  16.1870  16.2218  18.1878
    24.9159

          k = 0.0000 0.0155 0.0000 ( 10993 PWs)   bands (ev):

  -108.5857 -56.9169 -56.9169 -56.9169  -5.2385  -0.7039  -0.7037  -0.7037
    -0.2712  -0.2710   5.2377   6.1737   6.1737   6.1935  10.5522  10.5647
    10.5647  12.7323  15.6770  15.7337  16.1878  16.1878  16.2338  18.1917
    24.9129

          k = 0.0000 0.0177 0.0000 ( 10993 PWs)   bands (ev):

  -108.5857 -56.9169 -56.9169 -56.9169  -5.2383  -0.7039  -0.7036  -0.7036
    -0.2712  -0.2710   5.2327   6.1726   6.1726   6.1984  10.5498  10.5661
    10.5661  12.7360  15.6618  15.7338  16.1888  16.1888  16.2469  18.1961
    24.9095

          k = 0.0000 0.0199 0.0000 ( 10993 PWs)   bands (ev):

  -108.5857 -56.9169 -56.9169 -56.9169  -5.2380  -0.7038  -0.7036  -0.7036
    -0.2712  -0.2710   5.2272   6.1715   6.1715   6.2040  10.5470  10.5676
    10.5676  12.7401  15.6454  15.7341  16.1899  16.1899  16.2609  18.2012
    24.9056

          k = 0.0000 0.0221 0.0000 ( 10993 PWs)   bands (ev):

  -108.5857 -56.9169 -56.9169 -56.9169  -5.2378  -0.7038  -0.7034  -0.7034
    -0.2713  -0.2710   5.2210   6.1702   6.1702   6.2101  10.5439  10.5693
    10.5693  12.7448  15.6280  15.7343  16.1912  16.1912  16.2757  18.2068
    24.9013

          k = 0.0000 0.0243 0.0000 ( 10993 PWs)   bands (ev):

  -108.5857 -56.9169 -56.9169 -56.9169  -5.2375  -0.7037  -0.7033  -0.7033
    -0.2713  -0.2709   5.2143   6.1688   6.1688   6.2167  10.5406  10.5713
    10.5713  12.7499  15.6097  15.7345  16.1926  16.1926  16.2911  18.2131
    24.8965

          k = 0.0000 0.0265 0.0000 ( 10993 PWs)   bands (ev):

  -108.5857 -56.9169 -56.9169 -56.9169  -5.2372  -0.7037  -0.7032  -0.7032
    -0.2714  -0.2709   5.2070   6.1672   6.1672   6.2239  10.5369  10.5734
    10.5734  12.7554  15.5907  15.7348  16.1941  16.1941  16.3070  18.2199
    24.8912

          k = 0.0000 0.0287 0.0000 ( 10993 PWs)   bands (ev):

  -108.5857 -56.9169 -56.9169 -56.9169  -5.2368  -0.7036  -0.7031  -0.7031
    -0.2714  -0.2709   5.1993   6.1656   6.1656   6.2316  10.5329  10.5756
    10.5756  12.7615  15.5709  15.7351  16.1957  16.1957  16.3232  18.2273
    24.8856

          k = 0.0000 0.0309 0.0000 ( 10993 PWs)   bands (ev):

  -108.5857 -56.9169 -56.9169 -56.9169  -5.2364  -0.7036  -0.7029  -0.7029
    -0.2715  -0.2708   5.1910   6.1638   6.1638   6.2398  10.5286  10.5781
    10.5781  12.7679  15.5506  15.7354  16.1975  16.1975  16.3397  18.2353
    24.8795

          k = 0.0000 0.0331 0.0000 ( 10993 PWs)   bands (ev):

  -108.5857 -56.9169 -56.9169 -56.9169  -5.2360  -0.7035  -0.7027  -0.7027
    -0.2715  -0.2708   5.1823   6.1618   6.1618   6.2485  10.5241  10.5807
    10.5807  12.7749  15.5298  15.7358  16.1994  16.1994  16.3565  18.2439
    24.8730

          k = 0.0000 0.0354 0.0000 ( 10993 PWs)   bands (ev):

  -108.5857 -56.9169 -56.9169 -56.9169  -5.2356  -0.7034  -0.7026  -0.7026
    -0.2716  -0.2708   5.1731   6.1597   6.1597   6.2576  10.5193  10.5835
    10.5835  12.7822  15.5086  15.7362  16.2014  16.2014  16.3734  18.2531
    24.8660

          k = 0.0000 0.0376 0.0000 ( 10993 PWs)   bands (ev):

  -108.5857 -56.9169 -56.9169 -56.9169  -5.2351  -0.7033  -0.7024  -0.7024
    -0.2717  -0.2707   5.1636   6.1575   6.1575   6.2671  10.5142  10.5865
    10.5865  12.7900  15.4870  15.7366  16.2036  16.2036  16.3904  18.2629
    24.8587

          k = 0.0000 0.0398 0.0000 ( 10993 PWs)   bands (ev):

  -108.5857 -56.9169 -56.9169 -56.9169  -5.2347  -0.7033  -0.7022  -0.7022
    -0.2717  -0.2707   5.1536   6.1552   6.1552   6.2770  10.5088  10.5897
    10.5897  12.7983  15.4651  15.7370  16.2059  16.2059  16.4075  18.2733
    24.8509

          k = 0.0000 0.0420 0.0000 ( 10993 PWs)   bands (ev):

  -108.5857 -56.9169 -56.9169 -56.9169  -5.2341  -0.7032  -0.7020  -0.7020
    -0.2718  -0.2706   5.1432   6.1527   6.1527   6.2873  10.5032  10.5930
    10.5930  12.8069  15.4429  15.7374  16.2083  16.2083  16.4246  18.2843
    24.8428

          k = 0.0000 0.0442 0.0000 ( 10993 PWs)   bands (ev):

  -108.5857 -56.9169 -56.9169 -56.9169  -5.2336  -0.7031  -0.7018  -0.7018
    -0.2719  -0.2706   5.1325   6.1501   6.1501   6.2979  10.4973  10.5965
    10.5965  12.8160  15.4205  15.7379  16.2109  16.2109  16.4416  18.2959
    24.8342

          k = 0.0000 0.0464 0.0000 ( 10993 PWs)   bands (ev):

  -108.5857 -56.9169 -56.9169 -56.9169  -5.2330  -0.7030  -0.7015  -0.7015
    -0.2720  -0.2705   5.1214   6.1474   6.1474   6.3088  10.4911  10.6002
    10.6002  12.8255  15.3978  15.7384  16.2136  16.2136  16.4586  18.3080
    24.8253

          k = 0.0000 0.0486 0.0000 ( 10993 PWs)   bands (ev):

  -108.5857 -56.9169 -56.9169 -56.9169  -5.2324  -0.7029  -0.7013  -0.7013
    -0.2721  -0.2705   5.1101   6.1446   6.1446   6.3201  10.4848  10.6041
    10.6041  12.8354  15.3750  15.7389  16.2164  16.2164  16.4755  18.3207
    24.8159

          k = 0.0000 0.0508 0.0000 ( 10993 PWs)   bands (ev):

  -108.5857 -56.9169 -56.9169 -56.9169  -5.2318  -0.7028  -0.7010  -0.7010
    -0.2722  -0.2704   5.0984   6.1416   6.1416   6.3317  10.4782  10.6081
    10.6081  12.8457  15.3520  15.7395  16.2194  16.2194  16.4924  18.3341
    24.8062

          k = 0.0000 0.0530 0.0000 ( 10993 PWs)   bands (ev):

  -108.5857 -56.9169 -56.9169 -56.9169  -5.2312  -0.7027  -0.7008  -0.7008
    -0.2723  -0.2703   5.0864   6.1385   6.1385   6.3435  10.4713  10.6123
    10.6123  12.8564  15.3288  15.7400  16.2225  16.2225  16.5091  18.3479
    24.7961

          k = 0.0000 0.0552 0.0000 ( 10993 PWs)   bands (ev):

  -108.5857 -56.9169 -56.9169 -56.9169  -5.2305  -0.7025  -0.7005  -0.7005
    -0.2724  -0.2703   5.0742   6.1353   6.1353   6.3556  10.4643  10.6167
    10.6167  12.8674  15.3055  15.7406  16.2257  16.2257  16.5257  18.3624
    24.7857

          k = 0.0000 0.0575 0.0000 ( 11001 PWs)   bands (ev):

  -108.5857 -56.9169 -56.9169 -56.9169  -5.2298  -0.7024  -0.7002  -0.7002
    -0.2725  -0.2702   5.0617   6.1319   6.1319   6.3679  10.4570  10.6212
    10.6212  12.8789  15.2821  15.7412  16.2291  16.2291  16.5421  18.3774
    24.7749

          k = 0.0000 0.0597 0.0000 ( 11001 PWs)   bands (ev):

  -108.5857 -56.9169 -56.9169 -56.9169  -5.2290  -0.7023  -0.6999  -0.6999
    -0.2726  -0.2701   5.0490   6.1284   6.1284   6.3805  10.4495  10.6260
    10.6260  12.8907  15.2587  15.7419  16.2326  16.2326  16.5584  18.3930
    24.7638

          k = 0.0000 0.0619 0.0000 ( 11001 PWs)   bands (ev):

  -108.5857 -56.9169 -56.9169 -56.9169  -5.2283  -0.7022  -0.6996  -0.6996
    -0.2727  -0.2701   5.0360   6.1249   6.1249   6.3933  10.4419  10.6309
    10.6309  12.9028  15.2351  15.7426  16.2362  16.2362  16.5745  18.4092
    24.7523

          k = 0.0000 0.0641 0.0000 ( 11010 PWs)   bands (ev):

  -108.5857 -56.9169 -56.9169 -56.9169  -5.2275  -0.7020  -0.6993  -0.6993
    -0.2728  -0.2700   5.0229   6.1211   6.1211   6.4062  10.4340  10.6359
    10.6359  12.9153  15.2115  15.7432  16.2399  16.2399  16.5905  18.4259
    24.7405

          k = 0.0000 0.0663 0.0000 ( 11010 PWs)   bands (ev):

  -108.5857 -56.9169 -56.9169 -56.9169  -5.2267  -0.7019  -0.6990  -0.6990
    -0.2729  -0.2699   5.0095   6.1173   6.1173   6.4194  10.4260  10.6411
    10.6411  12.9282  15.1879  15.7440  16.2438  16.2438  16.6062  18.4432
    24.7283

          k = 0.0000 0.0685 0.0000 ( 11010 PWs)   bands (ev):

  -108.5857 -56.9169 -56.9169 -56.9169  -5.2258  -0.7017  -0.6986  -0.6986
    -0.2730  -0.2699   4.9960   6.1134   6.1134   6.4327  10.4178  10.6465
    10.6465  12.9414  15.1642  15.7447  16.2478  16.2478  16.6218  18.4610
    24.7159

          k = 0.0000 0.0707 0.0000 ( 11010 PWs)   bands (ev):

  -108.5857 -56.9169 -56.9169 -56.9169  -5.2250  -0.7016  -0.6983  -0.6983
    -0.2732  -0.2698   4.9823   6.1093   6.1093   6.4462  10.4094  10.6521
    10.6521  12.9549  15.1404  15.7454  16.2519  16.2519  16.6372  18.4794
    24.7031

          k = 0.0000 0.0729 0.0000 ( 11010 PWs)   bands (ev):

  -108.5857 -56.9169 -56.9169 -56.9169  -5.2241  -0.7014  -0.6979  -0.6979
    -0.2733  -0.2697   4.9684   6.1051   6.1051   6.4599  10.4008  10.6578
    10.6578  12.9687  15.1167  15.7462  16.2562  16.2562  16.6524  18.4983
    24.6900

          k = 0.0000 0.0751 0.0000 ( 11010 PWs)   bands (ev):

  -108.5857 -56.9169 -56.9169 -56.9169  -5.2231  -0.7013  -0.6976  -0.6976
    -0.2734  -0.2696   4.9544   6.1008   6.1008   6.4737  10.3921  10.6637
    10.6637  12.9829  15.0929  15.7470  16.2606  16.2606  16.6674  18.5177
    24.6767

          k = 0.0000 0.0773 0.0000 ( 11010 PWs)   bands (ev):

  -108.5857 -56.9169 -56.9169 -56.9169  -5.2222  -0.7011  -0.6972  -0.6972
    -0.2736  -0.2695   4.9402   6.0964   6.0964   6.4876  10.3833  10.6698
    10.6698  12.9973  15.0692  15.7479  16.2651  16.2651  16.6822  18.5377
    24.6630

          k = 0.0000 0.0795 0.0000 ( 11018 PWs)   bands (ev):

  -108.5857 -56.9169 -56.9169 -56.9169  -5.2212  -0.7009  -0.6968  -0.6968
    -0.2737  -0.2694   4.9259   6.0919   6.0919   6.5017  10.3743  10.6760
    10.6760  13.0121  15.0454  15.7487  16.2698  16.2698  16.6968  18.5582
    24.6490

          k = 0.0000 0.0818 0.0000 ( 11026 PWs)   bands (ev):

  -108.5857 -56.9169 -56.9169 -56.9169  -5.2202  -0.7007  -0.6964  -0.6964
    -0.2738  -0.2693   4.9115   6.0873   6.0873   6.5159  10.3652  10.6823
    10.6823  13.0271  15.0216  15.7496  16.2746  16.2746  16.7113  18.5792
    24.6348

          k = 0.0000 0.0840 0.0000 ( 11026 PWs)   bands (ev):

  -108.5857 -56.9169 -56.9169 -56.9169  -5.2192  -0.7005  -0.6960  -0.6960
    -0.2740  -0.2692   4.8969   6.0825   6.0825   6.5301  10.3559  10.6889
    10.6889  13.0425  14.9979  15.7505  16.2795  16.2795  16.7255  18.6007
    24.6203

          k = 0.0000 0.0862 0.0000 ( 11018 PWs)   bands (ev):

  -108.5857 -56.9169 -56.9169 -56.9169  -5.2181  -0.7003  -0.6955  -0.6955
    -0.2741  -0.2692   4.8822   6.0777   6.0777   6.5445  10.3466  10.6955
    10.6955  13.0581  14.9742  15.7514  16.2846  16.2846  16.7396  18.6226
    24.6056

          k = 0.0000 0.0884 0.0000 ( 11018 PWs)   bands (ev):

  -108.5857 -56.9169 -56.9169 -56.9169  -5.2170  -0.7001  -0.6951  -0.6951
    -0.2743  -0.2691   4.8674   6.0727   6.0727   6.5590  10.3371  10.7024
    10.7024  13.0739  14.9506  15.7524  16.2897  16.2897  16.7534  18.6451
    24.5906

          k = 0.0000 0.0906 0.0000 ( 11018 PWs)   bands (ev):

  -108.5857 -56.9169 -56.9169 -56.9169  -5.2159  -0.6999  -0.6946  -0.6946
    -0.2744  -0.2690   4.8525   6.0676   6.0676   6.5736  10.3275  10.7094
    10.7094  13.0901  14.9269  15.7534  16.2951  16.2951  16.7671  18.6681
    24.5753

          k = 0.0000 0.0928 0.0000 ( 11018 PWs)   bands (ev):

  -108.5857 -56.9169 -56.9169 -56.9169  -5.2148  -0.6997  -0.6942  -0.6942
    -0.2746  -0.2689   4.8375   6.0624   6.0624   6.5882  10.3178  10.7165
    10.7165  13.1065  14.9033  15.7544  16.3005  16.3005  16.7806  18.6915
    24.5599

          k = 0.0000 0.0950 0.0000 ( 11018 PWs)   bands (ev):

  -108.5857 -56.9169 -56.9169 -56.9169  -5.2136  -0.6995  -0.6937  -0.6937
    -0.2748  -0.2687   4.8224   6.0572   6.0572   6.6029  10.3080  10.7238
    10.7238  13.1231  14.8798  15.7554  16.3061  16.3061  16.7939  18.7154
    24.5441

          k = 0.0000 0.0972 0.0000 ( 11026 PWs)   bands (ev):

  -108.5857 -56.9169 -56.9169 -56.9169  -5.2125  -0.6993  -0.6932  -0.6932
    -0.2749  -0.2686   4.8073   6.0518   6.0518   6.6177  10.2981  10.7313
    10.7313  13.1400  14.8563  15.7564  16.3118  16.3118  16.8070  18.7397
    24.5282

          k = 0.0000 0.0994 0.0000 ( 11026 PWs)   bands (ev):

  -108.5857 -56.9169 -56.9169 -56.9169  -5.2112  -0.6991  -0.6927  -0.6927
    -0.2751  -0.2685   4.7920   6.0463   6.0463   6.6325  10.2881  10.7389
    10.7389  13.1571  14.8329  15.7575  16.3176  16.3176  16.8200  18.7645
    24.5120

          k = 0.0000 0.1016 0.0000 ( 11030 PWs)   bands (ev):

  -108.5857 -56.9169 -56.9169 -56.9169  -5.2100  -0.6988  -0.6922  -0.6922
    -0.2753  -0.2684   4.7767   6.0407   6.0407   6.6474  10.2780  10.7466
    10.7466  13.1745  14.8096  15.7586  16.3236  16.3236  16.8328  18.7898
    24.4934

          k = 0.0000 0.1039 0.0000 ( 11030 PWs)   bands (ev):

  -108.5857 -56.9169 -56.9169 -56.9169  -5.2087  -0.6986  -0.6917  -0.6917
    -0.2755  -0.2683   4.7613   6.0350   6.0350   6.6624  10.2679  10.7545
    10.7545  13.1921  14.7863  15.7597  16.3296  16.3296  16.8454  18.8154
    24.4725

          k = 0.0000 0.1061 0.0000 ( 11030 PWs)   bands (ev):

  -108.5857 -56.9169 -56.9169 -56.9169  -5.2074  -0.6983  -0.6912  -0.6912
    -0.2756  -0.2682   4.7458   6.0293   6.0293   6.6774  10.2577  10.7626
    10.7626  13.2098  14.7631  15.7609  16.3359  16.3359  16.8579  18.8415
    24.4512

          k = 0.0000 0.1083 0.0000 ( 11030 PWs)   bands (ev):

  -108.5857 -56.9169 -56.9169 -56.9169  -5.2061  -0.6981  -0.6907  -0.6907
    -0.2758  -0.2681   4.7303   6.0234   6.0234   6.6924  10.2474  10.7708
    10.7708  13.2278  14.7400  15.7620  16.3422  16.3422  16.8703  18.8680
    24.4293

          k = 0.0000 0.1105 0.0000 ( 11030 PWs)   bands (ev):

  -108.5857 -56.9169 -56.9169 -56.9169  -5.2048  -0.6978  -0.6901  -0.6901
    -0.2760  -0.2679   4.7147   6.0174   6.0174   6.7075  10.2371  10.7791
    10.7791  13.2460  14.7170  15.7632  16.3487  16.3487  16.8824  18.8949
    24.4071

          k = 0.0000 0.1127 0.0000 ( 11030 PWs)   bands (ev):

  -108.5857 -56.9169 -56.9169 -56.9169  -5.2034  -0.6976  -0.6896  -0.6896
    -0.2762  -0.2678   4.6991   6.0113   6.0113   6.7226  10.2267  10.7876
    10.7876  13.2644  14.6941  15.7644  16.3553  16.3553  16.8945  18.9222
    24.3844

          k = 0.0000 0.1149 0.0000 ( 11030 PWs)   bands (ev):

  -108.5857 -56.9169 -56.9169 -56.9169  -5.2020  -0.6973  -0.6890  -0.6890
    -0.2764  -0.2677   4.6834   6.0052   6.0052   6.7378  10.2163  10.7962
    10.7962  13.2830  14.6713  15.7657  16.3620  16.3620  16.9064  18.9499
    24.3613

          k = 0.0000 0.1171 0.0000 ( 11030 PWs)   bands (ev):

  -108.5857 -56.9169 -56.9169 -56.9169  -5.2006  -0.6970  -0.6884  -0.6884
    -0.2766  -0.2676   4.6676   5.9989   5.9989   6.7530  10.2058  10.8049
    10.8049  13.3017  14.6486  15.7669  16.3689  16.3689  16.9182  18.9780
    24.3378

          k = 0.0000 0.1193 0.0000 ( 11030 PWs)   bands (ev):

  -108.5857 -56.9169 -56.9169 -56.9169  -5.1992  -0.6967  -0.6879  -0.6879
    -0.2768  -0.2674   4.6518   5.9926   5.9926   6.7682  10.1953  10.8138
    10.8138  13.3206  14.6260  15.7682  16.3759  16.3759  16.9299  19.0064
    24.3139

          k = 0.0000 0.1215 0.0000 ( 11030 PWs)   bands (ev):

  -108.5857 -56.9169 -56.9169 -56.9169  -5.1977  -0.6964  -0.6873  -0.6873
    -0.2770  -0.2673   4.6360   5.9862   5.9862   6.7834  10.1847  10.8229
    10.8229  13.3397  14.6036  15.7695  16.3830  16.3830  16.9414  19.0352
    24.2896

          k = 0.0000 0.1237 0.0000 ( 11030 PWs)   bands (ev):

  -108.5857 -56.9169 -56.9169 -56.9169  -5.1962  -0.6961  -0.6867  -0.6867
    -0.2772  -0.2672   4.6201   5.9797   5.9797   6.7986  10.1741  10.8320
    10.8320  13.3589  14.5813  15.7708  16.3903  16.3903  16.9529  19.0644
    24.2650

          k = 0.0000 0.1260 0.0000 ( 11030 PWs)   bands (ev):

  -108.5857 -56.9169 -56.9169 -56.9169  -5.1947  -0.6958  -0.6860  -0.6860
    -0.2774  -0.2670   4.6041   5.9731   5.9731   6.8139  10.1635  10.8413
    10.8413  13.3783  14.5591  15.7722  16.3976  16.3976  16.9642  19.0939
    24.2400

          k = 0.0000 0.1282 0.0000 ( 11030 PWs)   bands (ev):

  -108.5857 -56.9169 -56.9169 -56.9169  -5.1931  -0.6955  -0.6854  -0.6854
    -0.2776  -0.2669   4.5882   5.9664   5.9664   6.8291  10.1528  10.8508
    10.8508  13.3978  14.5370  15.7736  16.4051  16.4051  16.9754  19.1238
    24.2146

          k = 0.0000 0.1304 0.0000 ( 11034 PWs)   bands (ev):

  -108.5857 -56.9169 -56.9169 -56.9169  -5.1916  -0.6952  -0.6848  -0.6848
    -0.2778  -0.2667   4.5721   5.9596   5.9596   6.8444  10.1422  10.8603
    10.8603  13.4174  14.5152  15.7750  16.4128  16.4128  16.9866  19.1540
    24.1890

          k = 0.0000 0.1326 0.0000 ( 11034 PWs)   bands (ev):

  -108.5857 -56.9169 -56.9169 -56.9169  -5.1900  -0.6949  -0.6841  -0.6841
    -0.2780  -0.2666   4.5561   5.9528   5.9528   6.8596  10.1315  10.8700
    10.8700  13.4372  14.4935  15.7764  16.4205  16.4205  16.9976  19.1845
    24.1630

          k = 0.0000 0.1348 0.0000 ( 11034 PWs)   bands (ev):

  -108.5857 -56.9169 -56.9169 -56.9169  -5.1884  -0.6945  -0.6835  -0.6835
    -0.2782  -0.2665   4.5400   5.9459   5.9459   6.8749  10.1208  10.8798
    10.8798  13.4570  14.4719  15.7778  16.4284  16.4284  17.0086  19.2153
    24.1367

          k = 0.0000 0.1370 0.0000 ( 11026 PWs)   bands (ev):

  -108.5857 -56.9169 -56.9169 -56.9169  -5.1867  -0.6942  -0.6828  -0.6828
    -0.2784  -0.2663   4.5239   5.9389   5.9389   6.8901  10.1101  10.8898
    10.8898  13.4769  14.4506  15.7793  16.4365  16.4365  17.0195  19.2464
    24.1101

          k = 0.0000 0.1392 0.0000 ( 11026 PWs)   bands (ev):

  -108.5857 -56.9169 -56.9169 -56.9169  -5.1851  -0.6939  -0.6821  -0.6821
    -0.2787  -0.2662   4.5078   5.9318   5.9318   6.9054  10.0993  10.8999
    10.8999  13.4969  14.4295  15.7808  16.4446  16.4446  17.0303  19.2779
    24.0833

          k = 0.0000 0.1414 0.0000 ( 11022 PWs)   bands (ev):

  -108.5857 -56.9169 -56.9169 -56.9169  -5.1834  -0.6935  -0.6814  -0.6814
    -0.2789  -0.2660   4.4916   5.9246   5.9246   6.9206  10.0886  10.9101
    10.9101  13.5169  14.4086  15.7823  16.4529  16.4529  17.0410  19.3096
    24.0561

          k = 0.0000 0.1436 0.0000 ( 11022 PWs)   bands (ev):

  -108.5857 -56.9169 -56.9169 -56.9169  -5.1817  -0.6931  -0.6807  -0.6807
    -0.2791  -0.2658   4.4755   5.9174   5.9174   6.9359  10.0779  10.9204
    10.9204  13.5370  14.3880  15.7839  16.4613  16.4613  17.0517  19.3417
    24.0288

          k = 0.0000 0.1458 0.0000 ( 11022 PWs)   bands (ev):

  -108.5857 -56.9169 -56.9169 -56.9169  -5.1799  -0.6928  -0.6800  -0.6800
    -0.2793  -0.2657   4.4592   5.9101   5.9101   6.9511  10.0672  10.9309
    10.9309  13.5570  14.3676  15.7854  16.4698  16.4698  17.0624  19.3740
    24.0011

          k = 0.0000 0.1481 0.0000 ( 11022 PWs)   bands (ev):

  -108.5857 -56.9169 -56.9169 -56.9169  -5.1782  -0.6924  -0.6793  -0.6793
    -0.2796  -0.2655   4.4430   5.9027   5.9027   6.9663  10.0565  10.9414
    10.9414  13.5770  14.3476  15.7870  16.4785  16.4785  17.0729  19.4066
    23.9733

          k = 0.0000 0.1503 0.0000 ( 11022 PWs)   bands (ev):

  -108.5857 -56.9169 -56.9169 -56.9169  -5.1764  -0.6920  -0.6786  -0.6786
    -0.2798  -0.2654   4.4268   5.8953   5.8953   6.9815  10.0457  10.9521
    10.9521  13.5970  14.3278  15.7886  16.4872  16.4872  17.0835  19.4394
    23.9452

          k = 0.0000 0.1525 0.0000 ( 11022 PWs)   bands (ev):

  -108.5857 -56.9169 -56.9169 -56.9169  -5.1746  -0.6916  -0.6779  -0.6779
    -0.2800  -0.2652   4.4105   5.8878   5.8878   6.9966  10.0351  10.9629
    10.9629  13.6168  14.3085  15.7902  16.4961  16.4961  17.0939  19.4726
    23.9169

          k = 0.0000 0.1547 0.0000 ( 11022 PWs)   bands (ev):

  -108.5857 -56.9169 -56.9169 -56.9169  -5.1727  -0.6912  -0.6771  -0.6771
    -0.2803  -0.2650   4.3942   5.8802   5.8802   7.0118  10.0244  10.9739
    10.9739  13.6365  14.2896  15.7919  16.5052  16.5052  17.1044  19.5060
    23.8884

          k = 0.0000 0.1569 0.0000 ( 11014 PWs)   bands (ev):

  -108.5857 -56.9169 -56.9169 -56.9169  -5.1709  -0.6908  -0.6764  -0.6764
    -0.2805  -0.2649   4.3779   5.8726   5.8726   7.0269  10.0137  10.9849
    10.9849  13.6560  14.2711  15.7936  16.5143  16.5143  17.1148  19.5396
    23.8597

          k = 0.0000 0.1591 0.0000 ( 11022 PWs)   bands (ev):

  -108.5857 -56.9169 -56.9169 -56.9169  -5.1690  -0.6904  -0.6756  -0.6756
    -0.2807  -0.2647   4.3616   5.8649   5.8649   7.0420  10.0031  10.9961
    10.9961  13.6752  14.2533  15.7953  16.5236  16.5236  17.1251  19.5735
    23.8309

          k = 0.0000 0.1613 0.0000 ( 11022 PWs)   bands (ev):

  -108.5857 -56.9169 -56.9169 -56.9169  -5.1671  -0.6900  -0.6748  -0.6748
    -0.2810  -0.2645   4.3452   5.8571   5.8571   7.0570   9.9925  11.0073
    11.0073  13.6939  14.2361  15.7970  16.5330  16.5330  17.1355  19.6076
    23.8018

          k = 0.0000 0.1635 0.0000 ( 11022 PWs)   bands (ev):

  -108.5857 -56.9169 -56.9169 -56.9169  -5.1652  -0.6895  -0.6740  -0.6740
    -0.2812  -0.2644   4.3289   5.8493   5.8493   7.0720   9.9819  11.0187
    11.0187  13.7122  14.2196  15.7987  16.5426  16.5426  17.1458  19.6420
    23.7726

          k = 0.0000 0.1657 0.0000 ( 11022 PWs)   bands (ev):

  -108.5857 -56.9169 -56.9169 -56.9169  -5.1632  -0.6891  -0.6732  -0.6732
    -0.2814  -0.2642   4.3125   5.8414   5.8414   7.0870   9.9713  11.0302
    11.0302  13.7299  14.2041  15.8005  16.5522  16.5522  17.1561  19.6766
    23.7432

          k = 0.0000 0.1679 0.0000 ( 11022 PWs)   bands (ev):

  -108.5857 -56.9169 -56.9169 -56.9169  -5.1613  -0.6886  -0.6724  -0.6724
    -0.2817  -0.2640   4.2961   5.8334   5.8334   7.1020   9.9608  11.0418
    11.0418  13.7467  14.1897  15.8023  16.5620  16.5620  17.1664  19.7115
    23.7137

          k = 0.0000 0.1701 0.0000 ( 11022 PWs)   bands (ev):

  -108.5857 -56.9169 -56.9169 -56.9169  -5.1593  -0.6882  -0.6716  -0.6716
    -0.2819  -0.2638   4.2798   5.8254   5.8254   7.1169   9.9503  11.0535
    11.0535  13.7625  14.1765  15.8041  16.5719  16.5719  17.1767  19.7465
    23.6840

          k = 0.0000 0.1724 0.0000 ( 11022 PWs)   bands (ev):

  -108.5857 -56.9169 -56.9169 -56.9169  -5.1573  -0.6877  -0.6708  -0.6708
    -0.2822  -0.2637   4.2634   5.8174   5.8174   7.1317   9.9398  11.0654
    11.0654  13.7769  14.1650  15.8060  16.5820  16.5820  17.1869  19.7818
    23.6542

          k = 0.0000 0.1746 0.0000 ( 11022 PWs)   bands (ev):

  -108.5857 -56.9169 -56.9169 -56.9169  -5.1552  -0.6872  -0.6700  -0.6700
    -0.2824  -0.2635   4.2470   5.8092   5.8092   7.1466   9.9294  11.0773
    11.0773  13.7897  14.1554  15.8078  16.5921  16.5921  17.1972  19.8173
    23.6242

          k = 0.0000 0.1768 0.0000 ( 11022 PWs)   bands (ev):

  -108.5857 -56.9169 -56.9169 -56.9169  -5.1532  -0.6867  -0.6691  -0.6691
    -0.2826  -0.2633   4.2306   5.8011   5.8011   7.1613   9.9190  11.0893
    11.0893  13.8006  14.1479  15.8097  16.6024  16.6024  17.2075  19.8530
    23.5942

          k = 0.0000 0.1790 0.0000 ( 11030 PWs)   bands (ev):

  -108.5857 -56.9169 -56.9169 -56.9169  -5.1511  -0.6863  -0.6683  -0.6683
    -0.2829  -0.2631   4.2141   5.7929   5.7929   7.1761   9.9086  11.1015
    11.1015  13.8092  14.1431  15.8116  16.6128  16.6128  17.2177  19.8889
    23.5640

          k = 0.0000 0.1812 0.0000 ( 11030 PWs)   bands (ev):

  -108.5857 -56.9169 -56.9169 -56.9169  -5.1490  -0.6858  -0.6674  -0.6674
    -0.2831  -0.2629   4.1977   5.7846   5.7846   7.1907   9.8983  11.1137
    11.1137  13.8151  14.1411  15.8135  16.6234  16.6234  17.2280  19.9250
    23.5337

          k = 0.0000 0.1834 0.0000 ( 11030 PWs)   bands (ev):

  -108.5857 -56.9169 -56.9169 -56.9169  -5.1469  -0.6852  -0.6665  -0.6665
    -0.2834  -0.2627   4.1813   5.7763   5.7763   7.2054   9.8880  11.1260
    11.1260  13.8182  14.1422  15.8155  16.6340  16.6340  17.2383  19.9613
    23.5033

          k = 0.0000 0.1856 0.0000 ( 11030 PWs)   bands (ev):

  -108.5857 -56.9169 -56.9169 -56.9169  -5.1447  -0.6847  -0.6657  -0.6657
    -0.2836  -0.2625   4.1648   5.7679   5.7679   7.2199   9.8778  11.1385
    11.1385  13.8185  14.1465  15.8174  16.6448  16.6448  17.2485  19.9978
    23.4728

          k = 0.0000 0.1878 0.0000 ( 11042 PWs)   bands (ev):

  -108.5857 -56.9169 -56.9169 -56.9169  -5.1426  -0.6842  -0.6648  -0.6648
    -0.2839  -0.2623   4.1484   5.7595   5.7595   7.2344   9.8677  11.1510
    11.1510  13.8161  14.1537  15.8194  16.6557  16.6557  17.2588  20.0344
    23.4422

          k = 0.0000 0.1900 0.0000 ( 11042 PWs)   bands (ev):

  -108.5857 -56.9169 -56.9169 -56.9169  -5.1404  -0.6837  -0.6639  -0.6639
    -0.2841  -0.2621   4.1320   5.7510   5.7510   7.2489   9.8575  11.1637
    11.1637  13.8111  14.1637  15.8214  16.6668  16.6668  17.2692  20.0713
    23.4115

          k = 0.0000 0.1922 0.0000 ( 11042 PWs)   bands (ev):

  -108.5857 -56.9169 -56.9169 -56.9169  -5.1382  -0.6831  -0.6630  -0.6630
    -0.2844  -0.2619   4.1155   5.7425   5.7425   7.2633   9.8475  11.1764
    11.1764  13.8040  14.1761  15.8235  16.6779  16.6779  17.2795  20.1084
    23.3807

          k = 0.0000 0.1945 0.0000 ( 11046 PWs)   bands (ev):

  -108.5857 -56.9169 -56.9169 -56.9169  -5.1360  -0.6825  -0.6621  -0.6621
    -0.2846  -0.2617   4.0991   5.7340   5.7340   7.2776   9.8375  11.1892
    11.1892  13.7950  14.1907  15.8255  16.6892  16.6892  17.2899  20.1456
    23.3498

          k = 0.0000 0.1967 0.0000 ( 11038 PWs)   bands (ev):

  -108.5857 -56.9169 -56.9169 -56.9169  -5.1337  -0.6820  -0.6611  -0.6611
    -0.2848  -0.2615   4.0826   5.7254   5.7254   7.2918   9.8275  11.2021
    11.2021  13.7845  14.2070  15.8276  16.7006  16.7006  17.3002  20.1830
    23.3189

          k = 0.0000 0.1989 0.0000 ( 11038 PWs)   bands (ev):

  -108.5857 -56.9169 -56.9169 -56.9169  -5.1315  -0.6814  -0.6602  -0.6602
    -0.2851  -0.2613   4.0662   5.7167   5.7167   7.3060   9.8176  11.2152
    11.2152  13.7728  14.2248  15.8297  16.7121  16.7121  17.3107  20.2205
    23.2879

          k = 0.0000 0.2011 0.0000 ( 11038 PWs)   bands (ev):

  -108.5857 -56.9169 -56.9169 -56.9169  -5.1292  -0.6808  -0.6593  -0.6593
    -0.2853  -0.2611   4.0497   5.7081   5.7081   7.3201   9.8078  11.2283
    11.2283  13.7602  14.2438  15.8318  16.7237  16.7237  17.3211  20.2583
    23.2569

          k = 0.0000 0.2033 0.0000 ( 11038 PWs)   bands (ev):

  -108.5857 -56.9169 -56.9169 -56.9169  -5.1269  -0.6802  -0.6583  -0.6583
    -0.2856  -0.2609   4.0333   5.6993   5.6993   7.3342   9.7980  11.2415
    11.2415  13.7469  14.2637  15.8340  16.7355  16.7355  17.3316  20.2962
    23.2257

          k = 0.0000 0.2055 0.0000 ( 11046 PWs)   bands (ev):

  -108.5857 -56.9169 -56.9169 -56.9169  -5.1246  -0.6796  -0.6574  -0.6574
    -0.2858  -0.2607   4.0168   5.6906   5.6906   7.3481   9.7883  11.2547
    11.2547  13.7329  14.2846  15.8362  16.7474  16.7474  17.3421  20.3342
    23.1945

          k = 0.0000 0.2077 0.0000 ( 11062 PWs)   bands (ev):

  -108.5857 -56.9169 -56.9169 -56.9169  -5.1222  -0.6790  -0.6564  -0.6564
    -0.2861  -0.2605   4.0004   5.6818   5.6818   7.3620   9.7787  11.2681
    11.2681  13.7186  14.3061  15.8383  16.7594  16.7594  17.3526  20.3724
    23.1633

          k = 0.0000 0.2099 0.0000 ( 11062 PWs)   bands (ev):

  -108.5857 -56.9169 -56.9169 -56.9169  -5.1199  -0.6784  -0.6554  -0.6554
    -0.2863  -0.2603   3.9839   5.6730   5.6730   7.3759   9.7691  11.2816
    11.2816  13.7038  14.3283  15.8406  16.7715  16.7715  17.3632  20.4108
    23.1320

          k = 0.0000 0.2121 0.0000 ( 11054 PWs)   bands (ev):

  -108.5857 -56.9169 -56.9169 -56.9169  -5.1175  -0.6778  -0.6544  -0.6544
    -0.2865  -0.2601   3.9675   5.6641   5.6641   7.3896   9.7596  11.2951
    11.2951  13.6889  14.3509  15.8428  16.7838  16.7838  17.3738  20.4493
    23.1007

          k = 0.0000 0.2143 0.0000 ( 11054 PWs)   bands (ev):

  -108.5857 -56.9169 -56.9169 -56.9169  -5.1151  -0.6771  -0.6535  -0.6535
    -0.2868  -0.2599   3.9510   5.6553   5.6553   7.4032   9.7501  11.3088
    11.3088  13.6737  14.3740  15.8450  16.7962  16.7962  17.3845  20.4880
    23.0693

          k = 0.0000 0.2166 0.0000 ( 11054 PWs)   bands (ev):

  -108.5857 -56.9169 -56.9169 -56.9169  -5.1127  -0.6765  -0.6525  -0.6525
    -0.2870  -0.2597   3.9346   5.6463   5.6463   7.4168   9.7407  11.3225
    11.3225  13.6585  14.3975  15.8473  16.8087  16.8087  17.3952  20.5268
    23.0379

          k = 0.0000 0.2188 0.0000 ( 11054 PWs)   bands (ev):

  -108.5857 -56.9169 -56.9169 -56.9169  -5.1102  -0.6758  -0.6515  -0.6515
    -0.2873  -0.2595   3.9181   5.6374   5.6374   7.4303   9.7314  11.3363
    11.3363  13.6431  14.4213  15.8496  16.8213  16.8213  17.4060  20.5658
    23.0064

          k = 0.0000 0.2210 0.0000 ( 11054 PWs)   bands (ev):

  -108.5857 -56.9169 -56.9169 -56.9169  -5.1078  -0.6751  -0.6504  -0.6504
    -0.2875  -0.2592   3.9017   5.6284   5.6284   7.4437   9.7222  11.3502
    11.3502  13.6278  14.4455  15.8519  16.8340  16.8340  17.4168  20.6049
    22.9749

          k = 0.0000 0.2232 0.0000 ( 11054 PWs)   bands (ev):

  -108.5857 -56.9169 -56.9169 -56.9169  -5.1053  -0.6744  -0.6494  -0.6494
    -0.2877  -0.2590   3.8853   5.6194   5.6194   7.4570   9.7130  11.3642
    11.3642  13.6124  14.4699  15.8543  16.8469  16.8469  17.4276  20.6441
    22.9434

          k = 0.0000 0.2254 0.0000 ( 11054 PWs)   bands (ev):

  -108.5857 -56.9169 -56.9169 -56.9169  -5.1028  -0.6737  -0.6484  -0.6484
    -0.2879  -0.2588   3.8688   5.6104   5.6104   7.4702   9.7040  11.3782
    11.3782  13.5970  14.4946  15.8566  16.8598  16.8598  17.4385  20.6835
    22.9118

          k = 0.0000 0.2276 0.0000 ( 11054 PWs)   bands (ev):

  -108.5857 -56.9169 -56.9169 -56.9169  -5.1003  -0.6730  -0.6473  -0.6473
    -0.2882  -0.2586   3.8524   5.6013   5.6013   7.4833   9.6950  11.3924
    11.3924  13.5817  14.5195  15.8590  16.8729  16.8729  17.4495  20.7230
    22.8802

          k = 0.0000 0.2298 0.0000 ( 11054 PWs)   bands (ev):

  -108.5857 -56.9169 -56.9169 -56.9169  -5.0978  -0.6723  -0.6463  -0.6463
    -0.2884  -0.2584   3.8360   5.5923   5.5923   7.4963   9.6860  11.4066
    11.4066  13.5664  14.5446  15.8614  16.8861  16.8861  17.4605  20.7627
    22.8486

          k = 0.0000 0.2320 0.0000 ( 11062 PWs)   bands (ev):

  -108.5857 -56.9169 -56.9169 -56.9169  -5.0952  -0.6716  -0.6452  -0.6452
    -0.2886  -0.2581   3.8196   5.5832   5.5832   7.5092   9.6772  11.4208
    11.4208  13.5512  14.5699  15.8638  16.8995  16.8995  17.4716  20.8024
    22.8170

          k = 0.0000 0.2342 0.0000 ( 11050 PWs)   bands (ev):

  -108.5857 -56.9169 -56.9169 -56.9169  -5.0927  -0.6709  -0.6442  -0.6442
    -0.2888  -0.2579   3.8032   5.5740   5.5740   7.5220   9.6684  11.4352
    11.4352  13.5361  14.5954  15.8663  16.9129  16.9129  17.4827  20.8423
    22.7853

          k = 0.0000 0.2364 0.0000 ( 11050 PWs)   bands (ev):

  -108.5857 -56.9169 -56.9169 -56.9169  -5.0901  -0.6701  -0.6431  -0.6431
    -0.2891  -0.2577   3.7868   5.5649   5.5649   7.5347   9.6597  11.4497
    11.4497  13.5211  14.6210  15.8687  16.9265  16.9265  17.4939  20.8823
    22.7537

          k = 0.0000 0.2386 0.0000 ( 11050 PWs)   bands (ev):

  -108.5857 -56.9169 -56.9169 -56.9169  -5.0875  -0.6694  -0.6420  -0.6420
    -0.2893  -0.2575   3.7704   5.5557   5.5557   7.5473   9.6511  11.4642
    11.4642  13.5062  14.6468  15.8712  16.9402  16.9402  17.5052  20.9225
    22.7220

          k = 0.0000 0.2409 0.0000 ( 11042 PWs)   bands (ev):

  -108.5857 -56.9169 -56.9169 -56.9169  -5.0849  -0.6686  -0.6410  -0.6410
    -0.2895  -0.2572   3.7540   5.5466   5.5466   7.5598   9.6426  11.4788
    11.4788  13.4915  14.6727  15.8737  16.9540  16.9540  17.5165  20.9627
    22.6903

          k = 0.0000 0.2431 0.0000 ( 11042 PWs)   bands (ev):

  -108.5857 -56.9169 -56.9169 -56.9169  -5.0823  -0.6678  -0.6399  -0.6399
    -0.2897  -0.2570   3.7377   5.5374   5.5374   7.5722   9.6341  11.4934
    11.4934  13.4769  14.6988  15.8762  16.9679  16.9679  17.5279  21.0031
    22.6586

          k = 0.0000 0.2453 0.0000 ( 11042 PWs)   bands (ev):

  -108.5857 -56.9169 -56.9169 -56.9169  -5.0796  -0.6670  -0.6388  -0.6388
    -0.2899  -0.2568   3.7213   5.5281   5.5281   7.5844   9.6258  11.5082
    11.5082  13.4624  14.7250  15.8788  16.9819  16.9819  17.5393  21.0435
    22.6269

          k = 0.0000 0.2475 0.0000 ( 11042 PWs)   bands (ev):

  -108.5857 -56.9169 -56.9169 -56.9169  -5.0770  -0.6662  -0.6377  -0.6377
    -0.2901  -0.2565   3.7049   5.5189   5.5189   7.5966   9.6175  11.5230
    11.5230  13.4480  14.7514  15.8813  16.9961  16.9961  17.5508  21.0841
    22.5951

          k = 0.0000 0.2497 0.0000 ( 11042 PWs)   bands (ev):

  -108.5857 -56.9169 -56.9169 -56.9169  -5.0743  -0.6654  -0.6365  -0.6365
    -0.2903  -0.2563   3.6886   5.5097   5.5097   7.6086   9.6093  11.5378
    11.5378  13.4338  14.7778  15.8839  17.0103  17.0103  17.5624  21.1248
    22.5634

          k = 0.0000 0.2519 0.0000 ( 11042 PWs)   bands (ev):

  -108.5857 -56.9169 -56.9169 -56.9169  -5.0716  -0.6646  -0.6354  -0.6354
    -0.2905  -0.2561   3.6722   5.5004   5.5004   7.6205   9.6012  11.5528
    11.5528  13.4198  14.8044  15.8865  17.0247  17.0247  17.5741  21.1656
    22.5317

          k = 0.0000 0.2541 0.0000 ( 11042 PWs)   bands (ev):

  -108.5857 -56.9169 -56.9169 -56.9169  -5.0689  -0.6638  -0.6343  -0.6343
    -0.2906  -0.2558   3.6559   5.4911   5.4911   7.6323   9.5932  11.5678
    11.5678  13.4059  14.8311  15.8891  17.0392  17.0392  17.5858  21.2065
    22.4999

          k = 0.0000 0.2563 0.0000 ( 11042 PWs)   bands (ev):

  -108.5857 -56.9169 -56.9169 -56.9169  -5.0662  -0.6629  -0.6332  -0.6332
    -0.2908  -0.2556   3.6396   5.4818   5.4818   7.6440   9.5853  11.5829
    11.5829  13.3922  14.8579  15.8918  17.0538  17.0538  17.5976  21.2474
    22.4682

          k = 0.0000 0.2585 0.0000 ( 11042 PWs)   bands (ev):

  -108.5857 -56.9169 -56.9169 -56.9169  -5.0634  -0.6621  -0.6320  -0.6320
    -0.2910  -0.2554   3.6233   5.4725   5.4725   7.6556   9.5774  11.5980
    11.5980  13.3787  14.8848  15.8944  17.0686  17.0686  17.6094  21.2885
    22.4365

          k = 0.0000 0.2607 0.0000 ( 11042 PWs)   bands (ev):

  -108.5857 -56.9169 -56.9169 -56.9169  -5.0607  -0.6612  -0.6309  -0.6309
    -0.2912  -0.2551   3.6070   5.4632   5.4632   7.6670   9.5697  11.6132
    11.6132  13.3654  14.9117  15.8971  17.0834  17.0834  17.6214  21.3297
    22.4048

          k = 0.0000 0.2630 0.0000 ( 11034 PWs)   bands (ev):

  -108.5857 -56.9169 -56.9169 -56.9169  -5.0579  -0.6603  -0.6297  -0.6297
    -0.2913  -0.2549   3.5907   5.4539   5.4539   7.6783   9.5620  11.6285
    11.6285  13.3522  14.9388  15.8998  17.0983  17.0983  17.6334  21.3709
    22.3731

          k = 0.0000 0.2652 0.0000 ( 11034 PWs)   bands (ev):

  -108.5857 -56.9169 -56.9169 -56.9169  -5.0552  -0.6595  -0.6286  -0.6286
    -0.2915  -0.2546   3.5744   5.4446   5.4446   7.6894   9.5545  11.6439
    11.6439  13.3392  14.9660  15.9025  17.1134  17.1134  17.6455  21.4122
    22.3413

          k = 0.0000 0.2674 0.0000 ( 11034 PWs)   bands (ev):

  -108.5857 -56.9169 -56.9169 -56.9169  -5.0524  -0.6586  -0.6274  -0.6274
    -0.2916  -0.2544   3.5581   5.4352   5.4352   7.7005   9.5470  11.6593
    11.6593  13.3264  14.9932  15.9053  17.1286  17.1286  17.6577  21.4536
    22.3096

          k = 0.0000 0.2696 0.0000 ( 11026 PWs)   bands (ev):

  -108.5857 -56.9169 -56.9169 -56.9169  -5.0496  -0.6577  -0.6262  -0.6262
    -0.2918  -0.2541   3.5419   5.4259   5.4259   7.7114   9.5396  11.6748
    11.6748  13.3138  15.0206  15.9080  17.1439  17.1439  17.6699  21.4950
    22.2780

          k = 0.0000 0.2718 0.0000 ( 11026 PWs)   bands (ev):

  -108.5857 -56.9169 -56.9169 -56.9169  -5.0467  -0.6567  -0.6250  -0.6250
    -0.2919  -0.2539   3.5256   5.4166   5.4166   7.7221   9.5323  11.6903
    11.6903  13.3014  15.0480  15.9108  17.1593  17.1593  17.6823  21.5366
    22.2463

          k = 0.0000 0.2740 0.0000 ( 11026 PWs)   bands (ev):

  -108.5857 -56.9169 -56.9169 -56.9169  -5.0439  -0.6558  -0.6238  -0.6238
    -0.2921  -0.2537   3.5094   5.4072   5.4072   7.7328   9.5251  11.7059
    11.7059  13.2892  15.0755  15.9136  17.1748  17.1748  17.6947  21.5781
    22.2146

          k = 0.0000 0.2762 0.0000 ( 11026 PWs)   bands (ev):

  -108.5857 -56.9169 -56.9169 -56.9169  -5.0411  -0.6549  -0.6227  -0.6227
    -0.2922  -0.2534   3.4932   5.3979   5.3979   7.7433   9.5180  11.7215
    11.7215  13.2772  15.1031  15.9164  17.1905  17.1905  17.7072  21.6197
    22.1830

          k = 0.0000 0.2784 0.0000 ( 11026 PWs)   bands (ev):

  -108.5857 -56.9169 -56.9169 -56.9169  -5.0382  -0.6539  -0.6215  -0.6215
    -0.2923  -0.2532   3.4770   5.3885   5.3885   7.7536   9.5110  11.7373
    11.7373  13.2654  15.1307  15.9192  17.2062  17.2062  17.7198  21.6613
    22.1513

          k = 0.0000 0.2806 0.0000 ( 11022 PWs)   bands (ev):

  -108.5857 -56.9169 -56.9169 -56.9169  -5.0354  -0.6530  -0.6203  -0.6203
    -0.2924  -0.2529   3.4608   5.3792   5.3792   7.7638   9.5041  11.7530
    11.7530  13.2538  15.1584  15.9221  17.2220  17.2220  17.7325  21.7030
    22.1197

          k = 0.0000 0.2828 0.0000 ( 11022 PWs)   bands (ev):

  -108.5857 -56.9169 -56.9169 -56.9169  -5.0325  -0.6520  -0.6190  -0.6190
    -0.2925  -0.2527   3.4446   5.3698   5.3698   7.7739   9.4972  11.7689
    11.7689  13.2424  15.1862  15.9249  17.2380  17.2380  17.7452  21.7446
    22.0881

          k = 0.0000 0.2851 0.0000 ( 11022 PWs)   bands (ev):

  -108.5857 -56.9169 -56.9169 -56.9169  -5.0296  -0.6510  -0.6178  -0.6178
    -0.2926  -0.2524   3.4284   5.3604   5.3604   7.7838   9.4905  11.7848
    11.7848  13.2312  15.2141  15.9278  17.2541  17.2541  17.7581  21.7862
    22.0565

          k = 0.0000 0.2873 0.0000 ( 11022 PWs)   bands (ev):

  -108.5857 -56.9169 -56.9169 -56.9169  -5.0267  -0.6500  -0.6166  -0.6166
    -0.2927  -0.2522   3.4123   5.3511   5.3511   7.7936   9.4839  11.8007
    11.8007  13.2203  15.2420  15.9307  17.2703  17.2703  17.7710  21.8278
    22.0250

          k = 0.0000 0.2895 0.0000 ( 11030 PWs)   bands (ev):

  -108.5857 -56.9169 -56.9169 -56.9169  -5.0238  -0.6490  -0.6154  -0.6154
    -0.2928  -0.2519   3.3961   5.3417   5.3417   7.8032   9.4773  11.8167
    11.8167  13.2095  15.2700  15.9336  17.2866  17.2866  17.7840  21.8692
    21.9934

          k = 0.0000 0.2917 0.0000 ( 11030 PWs)   bands (ev):

  -108.5857 -56.9169 -56.9169 -56.9169  -5.0208  -0.6480  -0.6141  -0.6141
    -0.2929  -0.2517   3.3800   5.3324   5.3324   7.8127   9.4709  11.8328
    11.8328  13.1990  15.2980  15.9366  17.3030  17.3030  17.7971  21.9106
    21.9619

          k = 0.0000 0.2939 0.0000 ( 11030 PWs)   bands (ev):

  -108.5857 -56.9169 -56.9169 -56.9169  -5.0179  -0.6470  -0.6129  -0.6129
    -0.2929  -0.2514   3.3639   5.3230   5.3230   7.8220   9.4645  11.8489
    11.8489  13.1886  15.3261  15.9395  17.3195  17.3195  17.8103  21.9304
    21.9304

          k = 0.0000 0.2961 0.0000 ( 11030 PWs)   bands (ev):

  -108.5857 -56.9169 -56.9169 -56.9169  -5.0150  -0.6460  -0.6117  -0.6117
    -0.2930  -0.2512   3.3478   5.3137   5.3137   7.8312   9.4582  11.8651
    11.8651  13.1786  15.3543  15.9425  17.3361  17.3361  17.8236  21.8990
    21.8990

          k = 0.0000 0.2983 0.0000 ( 11030 PWs)   bands (ev):

  -108.5857 -56.9169 -56.9169 -56.9169  -5.0120  -0.6449  -0.6104  -0.6104
    -0.2930  -0.2509   3.3317   5.3043   5.3043   7.8402   9.4521  11.8813
    11.8813  13.1687  15.3825  15.9455  17.3528  17.3528  17.8370  21.8675
    21.8675

          k = 0.0000 0.3005 0.0000 ( 11022 PWs)   bands (ev):

  -108.5857 -56.9169 -56.9169 -56.9169  -5.0090  -0.6439  -0.6092  -0.6092
    -0.2930  -0.2506   3.3156   5.2950   5.2950   7.8490   9.4460  11.8976
    11.8976  13.1590  15.4107  15.9485  17.3696  17.3696  17.8505  21.8361
    21.8361

          k = 0.0000 0.3027 0.0000 ( 11022 PWs)   bands (ev):

  -108.5857 -56.9169 -56.9169 -56.9169  -5.0061  -0.6428  -0.6079  -0.6079
    -0.2931  -0.2504   3.2996   5.2857   5.2857   7.8578   9.4400  11.9139
    11.9139  13.1496  15.4390  15.9515  17.3866  17.3866  17.8641  21.8048
    21.8048

          k = 0.0000 0.3049 0.0000 ( 11018 PWs)   bands (ev):

  -108.5857 -56.9169 -56.9169 -56.9169  -5.0031  -0.6417  -0.6066  -0.6066
    -0.2931  -0.2501   3.2835   5.2763   5.2763   7.8663   9.4341  11.9303
    11.9303  13.1404  15.4674  15.9546  17.4036  17.4036  17.8777  21.7734
    21.7734

          k = 0.0000 0.3071 0.0000 ( 11026 PWs)   bands (ev):

  -108.5857 -56.9169 -56.9169 -56.9169  -5.0001  -0.6407  -0.6054  -0.6054
    -0.2931  -0.2499   3.2675   5.2670   5.2670   7.8747   9.4283  11.9467
    11.9467  13.1315  15.4958  15.9576  17.4207  17.4207  17.8915  21.7421
    21.7421

          k = 0.0000 0.3094 0.0000 ( 11026 PWs)   bands (ev):

  -108.5857 -56.9169 -56.9169 -56.9169  -4.9971  -0.6396  -0.6041  -0.6041
    -0.2930  -0.2496   3.2515   5.2577   5.2577   7.8830   9.4225  11.9632
    11.9632  13.1228  15.5242  15.9607  17.4380  17.4380  17.9054  21.7108
    21.7108

          k = 0.0000 0.3116 0.0000 ( 11026 PWs)   bands (ev):

  -108.5857 -56.9169 -56.9169 -56.9169  -4.9941  -0.6385  -0.6028  -0.6028
    -0.2930  -0.2494   3.2355   5.2484   5.2484   7.8910   9.4169  11.9798
    11.9798  13.1143  15.5527  15.9638  17.4553  17.4553  17.9193  21.6796
    21.6796

          k = 0.0000 0.3138 0.0000 ( 11026 PWs)   bands (ev):

  -108.5857 -56.9169 -56.9169 -56.9169  -4.9911  -0.6374  -0.6015  -0.6015
    -0.2930  -0.2491   3.2196   5.2392   5.2392   7.8990   9.4114  11.9964
    11.9964  13.1060  15.5813  15.9669  17.4728  17.4728  17.9334  21.6483
    21.6483

          k = 0.0000 0.3160 0.0000 ( 11026 PWs)   bands (ev):

  -108.5857 -56.9169 -56.9169 -56.9169  -4.9880  -0.6362  -0.6003  -0.6003
    -0.2929  -0.2488   3.2036   5.2299   5.2299   7.9067   9.4059  12.0130
    12.0130  13.0980  15.6098  15.9700  17.4903  17.4903  17.9475  21.6172
    21.6172

          k = 0.0000 0.3182 0.0000 ( 11026 PWs)   bands (ev):

  -108.5857 -56.9169 -56.9169 -56.9169  -4.9850  -0.6351  -0.5990  -0.5990
    -0.2929  -0.2486   3.1877   5.2206   5.2206   7.9143   9.4005  12.0297
    12.0297  13.0902  15.6384  15.9731  17.5080  17.5080  17.9618  21.5860
    21.5860

          k = 0.0000 0.3204 0.0000 ( 11026 PWs)   bands (ev):

  -108.5857 -56.9169 -56.9169 -56.9169  -4.9819  -0.6340  -0.5977  -0.5977
    -0.2928  -0.2483   3.1718   5.2114   5.2114   7.9218   9.3953  12.0464
    12.0464  13.0827  15.6671  15.9763  17.5258  17.5258  17.9762  21.5549
    21.5549

          k = 0.0000 0.3226 0.0000 ( 11026 PWs)   bands (ev):

  -108.5857 -56.9169 -56.9169 -56.9169  -4.9789  -0.6328  -0.5964  -0.5964
    -0.2927  -0.2481   3.1559   5.2021   5.2021   7.9291   9.3901  12.0632
    12.0632  13.0754  15.6957  15.9795  17.5436  17.5436  17.9906  21.5239
    21.5239

          k = 0.0000 0.3248 0.0000 ( 11038 PWs)   bands (ev):

  -108.5857 -56.9169 -56.9169 -56.9169  -4.9758  -0.6317  -0.5951  -0.5951
    -0.2926  -0.2478   3.1400   5.1929   5.1929   7.9362   9.3850  12.0800
    12.0800  13.0683  15.7244  15.9826  17.5616  17.5616  18.0052  21.4928
    21.4928

          k = 0.0000 0.3270 0.0000 ( 11038 PWs)   bands (ev):

  -108.5857 -56.9169 -56.9169 -56.9169  -4.9728  -0.6305  -0.5938  -0.5938
    -0.2925  -0.2475   3.1241   5.1837   5.1837   7.9431   9.3799  12.0969
    12.0969  13.0615  15.7532  15.9858  17.5796  17.5796  18.0199  21.4619
    21.4619

          k = 0.0000 0.3292 0.0000 ( 11038 PWs)   bands (ev):

  -108.5857 -56.9169 -56.9169 -56.9169  -4.9697  -0.6293  -0.5924  -0.5924
    -0.2923  -0.2473   3.1083   5.1745   5.1745   7.9500   9.3750  12.1138
    12.1138  13.0550  15.7819  15.9890  17.5978  17.5978  18.0347  21.4309
    21.4309

          k = 0.0000 0.3315 0.0000 ( 11038 PWs)   bands (ev):

  -108.5857 -56.9169 -56.9169 -56.9169  -4.9666  -0.6282  -0.5911  -0.5911
    -0.2922  -0.2470   3.0925   5.1653   5.1653   7.9566   9.3701  12.1307
    12.1307  13.0487  15.8107  15.9923  17.6161  17.6161  18.0495  21.4000
    21.4000

          k = 0.0000 0.3337 0.0000 ( 11038 PWs)   bands (ev):

  -108.5857 -56.9169 -56.9169 -56.9169  -4.9635  -0.6270  -0.5898  -0.5898
    -0.2920  -0.2468   3.0767   5.1562   5.1562   7.9631   9.3653  12.1477
    12.1477  13.0426  15.8395  15.9955  17.6344  17.6344  18.0645  21.3692
    21.3692

          k = 0.0000 0.3359 0.0000 ( 11038 PWs)   bands (ev):

  -108.5857 -56.9169 -56.9169 -56.9169  -4.9605  -0.6258  -0.5885  -0.5885
    -0.2918  -0.2465   3.0609   5.1470   5.1470   7.9694   9.3606  12.1648
    12.1648  13.0368  15.8684  15.9988  17.6529  17.6529  18.0796  21.3384
    21.3384

          k = 0.0000 0.3381 0.0000 ( 11038 PWs)   bands (ev):

  -108.5857 -56.9169 -56.9169 -56.9169  -4.9574  -0.6246  -0.5872  -0.5872
    -0.2916  -0.2462   3.0451   5.1379   5.1379   7.9756   9.3560  12.1818
    12.1818  13.0312  15.8972  16.0020  17.6714  17.6714  18.0949  21.3076
    21.3076

          k = 0.0000 0.3403 0.0000 ( 11026 PWs)   bands (ev):

  -108.5857 -56.9169 -56.9169 -56.9169  -4.9543  -0.6234  -0.5858  -0.5858
    -0.2914  -0.2460   3.0294   5.1288   5.1288   7.9816   9.3514  12.1990
    12.1990  13.0259  15.9261  16.0053  17.6900  17.6900  18.1102  21.2769
    21.2769

          k = 0.0000 0.3425 0.0000 ( 11026 PWs)   bands (ev):

  -108.5857 -56.9169 -56.9169 -56.9169  -4.9512  -0.6222  -0.5845  -0.5845
    -0.2912  -0.2457   3.0137   5.1197   5.1197   7.9874   9.3469  12.2161
    12.2161  13.0208  15.9549  16.0086  17.7088  17.7088  18.1256  21.2462
    21.2462

          k = 0.0000 0.3447 0.0000 ( 11026 PWs)   bands (ev):

  -108.5857 -56.9169 -56.9169 -56.9169  -4.9481  -0.6209  -0.5832  -0.5832
    -0.2909  -0.2455   2.9980   5.1107   5.1107   7.9931   9.3425  12.2333
    12.2333  13.0160  15.9838  16.0119  17.7276  17.7276  18.1412  21.2156
    21.2156

          k = 0.0000 0.3469 0.0000 ( 11026 PWs)   bands (ev):

  -108.5857 -56.9169 -56.9169 -56.9169  -4.9449  -0.6197  -0.5818  -0.5818
    -0.2906  -0.2452   2.9823   5.1016   5.1016   7.9987   9.3382  12.2506
    12.2506  13.0114  16.0127  16.0152  17.7465  17.7465  18.1568  21.1851
    21.1851

          k = 0.0000 0.3491 0.0000 ( 11006 PWs)   bands (ev):

  -108.5857 -56.9169 -56.9169 -56.9169  -4.9418  -0.6185  -0.5805  -0.5805
    -0.2903  -0.2449   2.9667   5.0926   5.0926   8.0040   9.3339  12.2679
    12.2679  13.0071  16.0186  16.0416  17.7655  17.7655  18.1726  21.1546
    21.1546

          k = 0.0000 0.3513 0.0000 ( 11002 PWs)   bands (ev):

  -108.5857 -56.9169 -56.9169 -56.9169  -4.9387  -0.6172  -0.5792  -0.5792
    -0.2900  -0.2447   2.9510   5.0836   5.0836   8.0093   9.3297  12.2852
    12.2852  13.0030  16.0219  16.0705  17.7846  17.7846  18.1885  21.1241
    21.1241

          k = 0.0000 0.3536 0.0000 ( 11002 PWs)   bands (ev):

  -108.5857 -56.9169 -56.9169 -56.9169  -4.9356  -0.6160  -0.5778  -0.5778
    -0.2897  -0.2444   2.9354   5.0746   5.0746   8.0143   9.3255  12.3026
    12.3026  12.9992  16.0253  16.0994  17.8038  17.8038  18.2045  21.0937
    21.0937

          k = 0.0000 0.3558 0.0000 ( 11002 PWs)   bands (ev):

  -108.5857 -56.9169 -56.9169 -56.9169  -4.9325  -0.6147  -0.5765  -0.5765
    -0.2893  -0.2441   2.9198   5.0657   5.0657   8.0193   9.3214  12.3200
    12.3200  12.9957  16.0286  16.1283  17.8230  17.8230  18.2206  21.0634
    21.0634

          k = 0.0000 0.3580 0.0000 ( 11014 PWs)   bands (ev):

  -108.5857 -56.9169 -56.9169 -56.9169  -4.9293  -0.6135  -0.5751  -0.5751
    -0.2889  -0.2439   2.9043   5.0567   5.0567   8.0240   9.3174  12.3374
    12.3374  12.9924  16.0320  16.1572  17.8424  17.8424  18.2368  21.0331
    21.0331

          k = 0.0000 0.3602 0.0000 ( 11014 PWs)   bands (ev):

  -108.5857 -56.9169 -56.9169 -56.9169  -4.9262  -0.6122  -0.5738  -0.5738
    -0.2885  -0.2436   2.8887   5.0478   5.0478   8.0287   9.3134  12.3549
    12.3549  12.9893  16.0354  16.1861  17.8618  17.8618  18.2532  21.0029
    21.0029

          k = 0.0000 0.3624 0.0000 ( 11030 PWs)   bands (ev):

  -108.5857 -56.9169 -56.9169 -56.9169  -4.9231  -0.6110  -0.5724  -0.5724
    -0.2881  -0.2434   2.8732   5.0390   5.0390   8.0331   9.3095  12.3724
    12.3724  12.9865  16.0388  16.2150  17.8814  17.8814  18.2697  20.9728
    20.9728

          k = 0.0000 0.3646 0.0000 ( 11038 PWs)   bands (ev):

  -108.5857 -56.9169 -56.9169 -56.9169  -4.9199  -0.6097  -0.5711  -0.5711
    -0.2876  -0.2431   2.8577   5.0301   5.0301   8.0375   9.3057  12.3900
    12.3900  12.9840  16.0422  16.2439  17.9010  17.9010  18.2863  20.9427
    20.9427

          k = 0.0000 0.3668 0.0000 ( 11038 PWs)   bands (ev):

  -108.5857 -56.9169 -56.9169 -56.9169  -4.9168  -0.6084  -0.5697  -0.5697
    -0.2872  -0.2428   2.8423   5.0213   5.0213   8.0416   9.3019  12.4075
    12.4075  12.9817  16.0457  16.2728  17.9206  17.9206  18.3030  20.9127
    20.9127

          k = 0.0000 0.3690 0.0000 ( 11038 PWs)   bands (ev):

  -108.5857 -56.9170 -56.9169 -56.9169  -4.9137  -0.6072  -0.5684  -0.5684
    -0.2867  -0.2426   2.8268   5.0125   5.0125   8.0457   9.2981  12.4252
    12.4252  12.9796  16.0491  16.3016  17.9404  17.9404  18.3198  20.8827
    20.8827

          k = 0.0000 0.3712 0.0000 ( 11038 PWs)   bands (ev):

  -108.5857 -56.9170 -56.9169 -56.9169  -4.9105  -0.6059  -0.5670  -0.5670
    -0.2861  -0.2423   2.8114   5.0037   5.0037   8.0496   9.2944  12.4428
    12.4428  12.9779  16.0526  16.3305  17.9602  17.9602  18.3368  20.8528
    20.8528

          k = 0.0000 0.3734 0.0000 ( 11038 PWs)   bands (ev):

  -108.5857 -56.9170 -56.9169 -56.9169  -4.9074  -0.6046  -0.5656  -0.5656
    -0.2856  -0.2420   2.7960   4.9950   4.9950   8.0534   9.2907  12.4605
    12.4605  12.9763  16.0560  16.3593  17.9802  17.9802  18.3538  20.8230
    20.8230

          k = 0.0000 0.3757 0.0000 ( 11038 PWs)   bands (ev):

  -108.5857 -56.9170 -56.9169 -56.9169  -4.9043  -0.6033  -0.5643  -0.5643
    -0.2850  -0.2418   2.7807   4.9862   4.9862   8.0570   9.2871  12.4782
    12.4782  12.9751  16.0595  16.3881  18.0002  18.0002  18.3710  20.7933
    20.7933

          k = 0.0000 0.3779 0.0000 ( 11046 PWs)   bands (ev):

  -108.5857 -56.9170 -56.9169 -56.9169  -4.9011  -0.6020  -0.5629  -0.5629
    -0.2844  -0.2415   2.7653   4.9776   4.9776   8.0605   9.2835  12.4960
    12.4960  12.9741  16.0630  16.4168  18.0202  18.0202  18.3884  20.7636
    20.7636

          k = 0.0000 0.3801 0.0000 ( 11046 PWs)   bands (ev):

  -108.5857 -56.9170 -56.9169 -56.9169  -4.8980  -0.6008  -0.5615  -0.5615
    -0.2838  -0.2413   2.7500   4.9689   4.9689   8.0638   9.2800  12.5138
    12.5138  12.9733  16.0664  16.4456  18.0403  18.0403  18.4058  20.7340
    20.7340

          k = 0.0000 0.3823 0.0000 ( 11046 PWs)   bands (ev):

  -108.5857 -56.9170 -56.9169 -56.9169  -4.8948  -0.5995  -0.5602  -0.5602
    -0.2831  -0.2410   2.7347   4.9603   4.9603   8.0671   9.2765  12.5316
    12.5316  12.9728  16.0699  16.4743  18.0605  18.0605  18.4234  20.7045
    20.7045

          k = 0.0000 0.3845 0.0000 ( 11046 PWs)   bands (ev):

  -108.5857 -56.9170 -56.9169 -56.9169  -4.8917  -0.5982  -0.5588  -0.5588
    -0.2824  -0.2407   2.7195   4.9517   4.9517   8.0702   9.2731  12.5494
    12.5494  12.9725  16.0735  16.5029  18.0808  18.0808  18.4411  20.6750
    20.6750

          k = 0.0000 0.3867 0.0000 ( 11042 PWs)   bands (ev):

  -108.5857 -56.9170 -56.9169 -56.9169  -4.8886  -0.5969  -0.5575  -0.5575
    -0.2817  -0.2405   2.7042   4.9431   4.9431   8.0731   9.2696  12.5673
    12.5673  12.9725  16.0770  16.5315  18.1011  18.1011  18.4590  20.6457
    20.6457

          k = 0.0000 0.3889 0.0000 ( 11034 PWs)   bands (ev):

  -108.5857 -56.9170 -56.9169 -56.9169  -4.8854  -0.5956  -0.5561  -0.5561
    -0.2810  -0.2402   2.6890   4.9346   4.9346   8.0760   9.2662  12.5852
    12.5852  12.9727  16.0805  16.5601  18.1215  18.1215  18.4769  20.6164
    20.6164

          k = 0.0000 0.3911 0.0000 ( 11042 PWs)   bands (ev):

  -108.5857 -56.9170 -56.9169 -56.9169  -4.8823  -0.5944  -0.5547  -0.5547
    -0.2802  -0.2400   2.6738   4.9261   4.9261   8.0787   9.2629  12.6031
    12.6031  12.9732  16.0840  16.5886  18.1420  18.1420  18.4950  20.5873
    20.5873

          k = 0.0000 0.3933 0.0000 ( 11042 PWs)   bands (ev):

  -108.5857 -56.9170 -56.9169 -56.9169  -4.8792  -0.5931  -0.5534  -0.5534
    -0.2794  -0.2397   2.6587   4.9176   4.9176   8.0813   9.2595  12.6211
    12.6211  12.9740  16.0876  16.6171  18.1625  18.1625  18.5132  20.5582
    20.5582

          k = 0.0000 0.3955 0.0000 ( 11042 PWs)   bands (ev):

  -108.5857 -56.9170 -56.9169 -56.9169  -4.8761  -0.5918  -0.5520  -0.5520
    -0.2785  -0.2394   2.6436   4.9092   4.9092   8.0838   9.2562  12.6391
    12.6391  12.9750  16.0911  16.6455  18.1830  18.1830  18.5316  20.5292
    20.5292

          k = 0.0000 0.3977 0.0000 ( 11042 PWs)   bands (ev):

  -108.5857 -56.9170 -56.9169 -56.9169  -4.8729  -0.5906  -0.5506  -0.5506
    -0.2777  -0.2392   2.6285   4.9008   4.9008   8.0862   9.2529  12.6571
    12.6571  12.9762  16.0947  16.6739  18.2037  18.2037  18.5501  20.5003
    20.5003

          k = 0.0000 0.4000 0.0000 ( 11042 PWs)   bands (ev):

  -108.5857 -56.9170 -56.9169 -56.9169  -4.8698  -0.5893  -0.5493  -0.5493
    -0.2768  -0.2389   2.6134   4.8924   4.8924   8.0884   9.2496  12.6751
    12.6751  12.9777  16.0982  16.7021  18.2243  18.2243  18.5687  20.4715
    20.4715

          k = 0.0000 0.4022 0.0000 ( 11042 PWs)   bands (ev):

  -108.5857 -56.9170 -56.9169 -56.9169  -4.8667  -0.5880  -0.5479  -0.5479
    -0.2758  -0.2387   2.5984   4.8841   4.8841   8.0906   9.2464  12.6932
    12.6932  12.9794  16.1018  16.7304  18.2450  18.2450  18.5874  20.4429
    20.4429

          k = 0.0000 0.4044 0.0000 ( 11042 PWs)   bands (ev):

  -108.5857 -56.9170 -56.9169 -56.9169  -4.8636  -0.5868  -0.5465  -0.5465
    -0.2748  -0.2384   2.5834   4.8758   4.8758   8.0927   9.2432  12.7113
    12.7113  12.9813  16.1053  16.7585  18.2657  18.2657  18.6063  20.4143
    20.4143

          k = 0.0000 0.4066 0.0000 ( 11042 PWs)   bands (ev):

  -108.5857 -56.9170 -56.9169 -56.9169  -4.8605  -0.5855  -0.5452  -0.5452
    -0.2738  -0.2381   2.5684   4.8676   4.8676   8.0946   9.2399  12.7294
    12.7294  12.9835  16.1089  16.7866  18.2865  18.2865  18.6254  20.3858
    20.3858

          k = 0.0000 0.4088 0.0000 ( 11034 PWs)   bands (ev):

  -108.5857 -56.9170 -56.9169 -56.9169  -4.8574  -0.5843  -0.5438  -0.5438
    -0.2728  -0.2379   2.5535   4.8594   4.8594   8.0964   9.2367  12.7476
    12.7476  12.9860  16.1125  16.8146  18.3073  18.3073  18.6445  20.3575
    20.3575

          k = 0.0000 0.4110 0.0000 ( 11034 PWs)   bands (ev):

  -108.5857 -56.9170 -56.9169 -56.9169  -4.8543  -0.5830  -0.5424  -0.5424
    -0.2717  -0.2376   2.5386   4.8512   4.8512   8.0982   9.2335  12.7657
    12.7657  12.9886  16.1161  16.8425  18.3281  18.3281  18.6638  20.3293
    20.3293

          k = 0.0000 0.4132 0.0000 ( 11034 PWs)   bands (ev):

  -108.5857 -56.9170 -56.9169 -56.9169  -4.8512  -0.5818  -0.5411  -0.5411
    -0.2706  -0.2374   2.5237   4.8430   4.8430   8.0998   9.2304  12.7839
    12.7839  12.9915  16.1197  16.8703  18.3489  18.3489  18.6832  20.3013
    20.3013

          k = 0.0000 0.4154 0.0000 ( 11034 PWs)   bands (ev):

  -108.5857 -56.9170 -56.9169 -56.9169  -4.8481  -0.5806  -0.5397  -0.5397
    -0.2694  -0.2371   2.5089   4.8349   4.8349   8.1014   9.2272  12.8021
    12.8021  12.9947  16.1233  16.8980  18.3698  18.3698  18.7028  20.2733
    20.2733

          k = 0.0000 0.4176 0.0000 ( 11034 PWs)   bands (ev):

  -108.5857 -56.9170 -56.9169 -56.9169  -4.8450  -0.5793  -0.5384  -0.5384
    -0.2682  -0.2369   2.4941   4.8269   4.8269   8.1028   9.2240  12.8203
    12.8203  12.9981  16.1269  16.9256  18.3906  18.3906  18.7225  20.2455
    20.2455

          k = 0.0000 0.4198 0.0000 ( 11034 PWs)   bands (ev):

  -108.5857 -56.9170 -56.9169 -56.9169  -4.8419  -0.5781  -0.5370  -0.5370
    -0.2670  -0.2366   2.4793   4.8189   4.8189   8.1042   9.2209  12.8386
    12.8386  13.0017  16.1305  16.9531  18.4115  18.4115  18.7423  20.2179
    20.2179

          k = 0.0000 0.4221 0.0000 ( 11034 PWs)   bands (ev):

  -108.5857 -56.9170 -56.9169 -56.9169  -4.8389  -0.5769  -0.5356  -0.5356
    -0.2657  -0.2364   2.4646   4.8109   4.8109   8.1055   9.2177  12.8569
    12.8569  13.0055  16.1341  16.9805  18.4323  18.4323  18.7623  20.1904
    20.1904

          k = 0.0000 0.4243 0.0000 ( 11034 PWs)   bands (ev):

  -108.5857 -56.9170 -56.9169 -56.9169  -4.8358  -0.5757  -0.5343  -0.5343
    -0.2644  -0.2361   2.4499   4.8029   4.8029   8.1067   9.2146  12.8752
    12.8752  13.0095  16.1377  17.0077  18.4531  18.4531  18.7824  20.1632
    20.1632

          k = 0.0000 0.4265 0.0000 ( 11034 PWs)   bands (ev):

  -108.5857 -56.9170 -56.9169 -56.9169  -4.8327  -0.5745  -0.5329  -0.5329
    -0.2630  -0.2359   2.4352   4.7950   4.7950   8.1078   9.2114  12.8935
    12.8935  13.0138  16.1413  17.0349  18.4739  18.4739  18.8026  20.1360
    20.1360

          k = 0.0000 0.4287 0.0000 ( 11034 PWs)   bands (ev):

  -108.5857 -56.9170 -56.9169 -56.9169  -4.8297  -0.5733  -0.5316  -0.5316
    -0.2616  -0.2356   2.4206   4.7872   4.7872   8.1089   9.2083  12.9118
    12.9118  13.0183  16.1449  17.0619  18.4946  18.4946  18.8230  20.1091
    20.1091

          k = 0.0000 0.4309 0.0000 ( 11026 PWs)   bands (ev):

  -108.5857 -56.9170 -56.9169 -56.9169  -4.8266  -0.5722  -0.5302  -0.5302
    -0.2602  -0.2354   2.4060   4.7793   4.7793   8.1098   9.2051  12.9301
    12.9301  13.0230  16.1485  17.0888  18.5153  18.5153  18.8436  20.0824
    20.0824

          k = 0.0000 0.4331 0.0000 ( 11026 PWs)   bands (ev):

  -108.5857 -56.9170 -56.9169 -56.9169  -4.8236  -0.5710  -0.5289  -0.5289
    -0.2587  -0.2351   2.3914   4.7716   4.7716   8.1107   9.2020  12.9485
    12.9485  13.0280  16.1522  17.1155  18.5359  18.5359  18.8642  20.0559
    20.0559

          k = 0.0000 0.4353 0.0000 ( 11026 PWs)   bands (ev):

  -108.5857 -56.9170 -56.9169 -56.9169  -4.8206  -0.5699  -0.5276  -0.5276
    -0.2572  -0.2349   2.3769   4.7638   4.7638   8.1115   9.1988  12.9669
    12.9669  13.0331  16.1558  17.1421  18.5564  18.5564  18.8850  20.0297
    20.0297

          k = 0.0000 0.4375 0.0000 ( 11030 PWs)   bands (ev):

  -108.5857 -56.9170 -56.9169 -56.9169  -4.8176  -0.5687  -0.5262  -0.5262
    -0.2556  -0.2346   2.3624   4.7561   4.7561   8.1123   9.1956  12.9853
    12.9853  13.0385  16.1594  17.1685  18.5768  18.5768  18.9059  20.0037
    20.0037

          k = 0.0000 0.4397 0.0000 ( 11030 PWs)   bands (ev):

  -108.5857 -56.9170 -56.9169 -56.9169  -4.8146  -0.5676  -0.5249  -0.5249
    -0.2540  -0.2344   2.3480   4.7485   4.7485   8.1130   9.1925  13.0037
    13.0037  13.0441  16.1630  17.1948  18.5971  18.5971  18.9270  19.9779
    19.9779

          k = 0.0000 0.4419 0.0000 ( 11030 PWs)   bands (ev):

  -108.5857 -56.9170 -56.9169 -56.9169  -4.8116  -0.5665  -0.5235  -0.5235
    -0.2523  -0.2341   2.3336   4.7409   4.7409   8.1136   9.1893  13.0221
    13.0221  13.0498  16.1666  17.2209  18.6173  18.6173  18.9482  19.9525
    19.9525

          k = 0.0000 0.4442 0.0000 ( 11030 PWs)   bands (ev):

  -108.5857 -56.9170 -56.9169 -56.9169  -4.8086  -0.5654  -0.5222  -0.5222
    -0.2506  -0.2339   2.3192   4.7333   4.7333   8.1141   9.1861  13.0405
    13.0405  13.0558  16.1703  17.2468  18.6373  18.6373  18.9695  19.9274
    19.9274

          k = 0.0000 0.4464 0.0000 ( 11030 PWs)   bands (ev):

  -108.5857 -56.9170 -56.9169 -56.9169  -4.8056  -0.5643  -0.5209  -0.5209
    -0.2489  -0.2337   2.3049   4.7258   4.7258   8.1146   9.1829  13.0590
    13.0590  13.0620  16.1739  17.2725  18.6571  18.6571  18.9910  19.9026
    19.9026

          k = 0.0000 0.4486 0.0000 ( 11046 PWs)   bands (ev):

  -108.5857 -56.9170 -56.9169 -56.9169  -4.8026  -0.5632  -0.5196  -0.5196
    -0.2471  -0.2334   2.2906   4.7184   4.7184   8.1151   9.1797  13.0684
    13.0774  13.0774  16.1775  17.2980  18.6766  18.6766  19.0126  19.8782
    19.8782

          k = 0.0000 0.4508 0.0000 ( 11046 PWs)   bands (ev):

  -108.5857 -56.9170 -56.9169 -56.9169  -4.7997  -0.5622  -0.5182  -0.5182
    -0.2453  -0.2332   2.2763   4.7109   4.7109   8.1155   9.1765  13.0750
    13.0959  13.0959  16.1811  17.3233  18.6959  18.6959  19.0343  19.8543
    19.8543

          k = 0.0000 0.4530 0.0000 ( 11046 PWs)   bands (ev):

  -108.5857 -56.9170 -56.9169 -56.9169  -4.7967  -0.5611  -0.5169  -0.5169
    -0.2434  -0.2329   2.2621   4.7036   4.7036   8.1158   9.1733  13.0817
    13.1144  13.1144  16.1847  17.3484  18.7149  18.7149  19.0561  19.8307
    19.8307

          k = 0.0000 0.4552 0.0000 ( 11046 PWs)   bands (ev):

  -108.5857 -56.9170 -56.9169 -56.9169  -4.7938  -0.5601  -0.5156  -0.5156
    -0.2415  -0.2327   2.2480   4.6962   4.6962   8.1161   9.1701  13.0887
    13.1329  13.1329  16.1883  17.3733  18.7335  18.7335  19.0781  19.8077
    19.8077

          k = 0.0000 0.4574 0.0000 ( 11054 PWs)   bands (ev):

  -108.5857 -56.9170 -56.9169 -56.9169  -4.7909  -0.5591  -0.5143  -0.5143
    -0.2395  -0.2325   2.2338   4.6890   4.6890   8.1163   9.1669  13.0958
    13.1514  13.1514  16.1920  17.3979  18.7518  18.7518  19.1002  19.7853
    19.7853

          k = 0.0000 0.4596 0.0000 ( 11054 PWs)   bands (ev):

  -108.5857 -56.9170 -56.9169 -56.9169  -4.7880  -0.5581  -0.5130  -0.5130
    -0.2375  -0.2322   2.2197   4.6817   4.6817   8.1165   9.1636  13.1032
    13.1699  13.1699  16.1956  17.4223  18.7696  18.7696  19.1224  19.7634
    19.7634

          k = 0.0000 0.4618 0.0000 ( 11046 PWs)   bands (ev):

  -108.5857 -56.9170 -56.9169 -56.9169  -4.7851  -0.5571  -0.5117  -0.5117
    -0.2354  -0.2320   2.2057   4.6745   4.6745   8.1166   9.1604  13.1107
    13.1884  13.1884  16.1992  17.4464  18.7868  18.7868  19.1448  19.7423
    19.7423

          k = 0.0000 0.4640 0.0000 ( 11046 PWs)   bands (ev):

  -108.5857 -56.9170 -56.9169 -56.9169  -4.7822  -0.5561  -0.5104  -0.5104
    -0.2333  -0.2318   2.1917   4.6674   4.6674   8.1167   9.1571  13.1184
    13.2069  13.2069  16.2028  17.4703  18.8034  18.8034  19.1672  19.7219
    19.7219

          k = 0.0000 0.4662 0.0000 ( 11046 PWs)   bands (ev):

  -108.5857 -56.9170 -56.9169 -56.9169  -4.7793  -0.5551  -0.5091  -0.5091
    -0.2315  -0.2311   2.1778   4.6603   4.6603   8.1168   9.1539  13.1262
    13.2254  13.2254  16.2064  17.4939  18.8194  18.8194  19.1898  19.7024
    19.7024

          k = 0.0000 0.4685 0.0000 ( 11046 PWs)   bands (ev):

  -108.5857 -56.9170 -56.9169 -56.9169  -4.7764  -0.5542  -0.5078  -0.5078
    -0.2313  -0.2289   2.1638   4.6533   4.6533   8.1168   9.1506  13.1343
    13.2439  13.2439  16.2099  17.5172  18.8345  18.8345  19.2124  19.6838
    19.6838

          k = 0.0000 0.4707 0.0000 ( 11046 PWs)   bands (ev):

  -108.5857 -56.9170 -56.9169 -56.9169  -4.7736  -0.5533  -0.5065  -0.5065
    -0.2311  -0.2266   2.1500   4.6463   4.6463   8.1167   9.1473  13.1424
    13.2624  13.2624  16.2135  17.5402  18.8488  18.8488  19.2352  19.6662
    19.6662

          k = 0.0000 0.4729 0.0000 ( 11046 PWs)   bands (ev):

  -108.5857 -56.9170 -56.9169 -56.9169  -4.7707  -0.5524  -0.5053  -0.5053
    -0.2308  -0.2243   2.1362   4.6393   4.6393   8.1167   9.1440  13.1508
    13.2809  13.2809  16.2171  17.5629  18.8620  18.8620  19.2580  19.6499
    19.6499

          k = 0.0000 0.4751 0.0000 ( 11046 PWs)   bands (ev):

  -108.5857 -56.9170 -56.9169 -56.9169  -4.7679  -0.5515  -0.5040  -0.5040
    -0.2306  -0.2220   2.1224   4.6325   4.6325   8.1166   9.1407  13.1593
    13.2995  13.2995  16.2207  17.5852  18.8741  18.8741  19.2809  19.6348
    19.6348

          k = 0.0000 0.4773 0.0000 ( 11046 PWs)   bands (ev):

  -108.5857 -56.9170 -56.9169 -56.9169  -4.7651  -0.5506  -0.5027  -0.5027
    -0.2304  -0.2196   2.1087   4.6256   4.6256   8.1165   9.1374  13.1680
    13.3180  13.3180  16.2242  17.6072  18.8849  18.8849  19.3039  19.6212
    19.6212

          k = 0.0000 0.4795 0.0000 ( 11046 PWs)   bands (ev):

  -108.5857 -56.9170 -56.9169 -56.9169  -4.7623  -0.5497  -0.5015  -0.5015
    -0.2302  -0.2171   2.0950   4.6188   4.6188   8.1163   9.1340  13.1768
    13.3365  13.3365  16.2278  17.6289  18.8943  18.8943  19.3270  19.6091
    19.6091

          k = 0.0000 0.4817 0.0000 ( 11046 PWs)   bands (ev):

  -108.5857 -56.9170 -56.9169 -56.9169  -4.7595  -0.5489  -0.5002  -0.5002
    -0.2299  -0.2146   2.0814   4.6121   4.6121   8.1161   9.1307  13.1858
    13.3550  13.3550  16.2313  17.6502  18.9021  18.9021  19.3501  19.5988
    19.5988

          k = 0.0000 0.4839 0.0000 ( 11046 PWs)   bands (ev):

  -108.5857 -56.9170 -56.9169 -56.9169  -4.7568  -0.5481  -0.4990  -0.4990
    -0.2297  -0.2121   2.0678   4.6054   4.6054   8.1159   9.1273  13.1949
    13.3735  13.3735  16.2349  17.6711  18.9082  18.9082  19.3733  19.5903
    19.5903

          k = 0.0000 0.4861 0.0000 ( 11038 PWs)   bands (ev):

  -108.5857 -56.9170 -56.9169 -56.9169  -4.7540  -0.5473  -0.4977  -0.4977
    -0.2295  -0.2095   2.0543   4.5988   4.5988   8.1157   9.1240  13.2042
    13.3920  13.3920  16.2384  17.6917  18.9126  18.9126  19.3965  19.5837
    19.5837

          k = 0.0000 0.4883 0.0000 ( 11030 PWs)   bands (ev):

  -108.5857 -56.9170 -56.9169 -56.9169  -4.7513  -0.5465  -0.4965  -0.4965
    -0.2293  -0.2069   2.0408   4.5922   4.5922   8.1154   9.1206  13.2136
    13.4105  13.4105  16.2419  17.7118  18.9150  18.9150  19.4197  19.5792
    19.5792

          k = 0.0000 0.4906 0.0000 ( 11030 PWs)   bands (ev):

  -108.5857 -56.9170 -56.9169 -56.9169  -4.7486  -0.5457  -0.4953  -0.4953
    -0.2291  -0.2042   2.0274   4.5857   4.5857   8.1151   9.1172  13.2232
    13.4290  13.4290  16.2454  17.7315  18.9156  18.9156  19.4429  19.5768
    19.5768

          k = 0.0000 0.4928 0.0000 ( 11030 PWs)   bands (ev):

  -108.5857 -56.9170 -56.9169 -56.9169  -4.7459  -0.5449  -0.4940  -0.4940
    -0.2289  -0.2014   2.0140   4.5792   4.5792   8.1148   9.1138  13.2328
    13.4475  13.4475  16.2489  17.7507  18.9141  18.9141  19.4661  19.5765
    19.5765

          k = 0.0000 0.4950 0.0000 ( 11022 PWs)   bands (ev):

  -108.5857 -56.9170 -56.9169 -56.9169  -4.7432  -0.5442  -0.4928  -0.4928
    -0.2286  -0.1987   2.0007   4.5728   4.5728   8.1145   9.1104  13.2426
    13.4660  13.4660  16.2524  17.7695  18.9107  18.9107  19.4892  19.5783
    19.5783

          k = 0.0000 0.4972 0.0000 ( 11022 PWs)   bands (ev):

  -108.5857 -56.9170 -56.9169 -56.9169  -4.7405  -0.5435  -0.4916  -0.4916
    -0.2284  -0.1958   1.9875   4.5664   4.5664   8.1141   9.1070  13.2526
    13.4844  13.4844  16.2559  17.7879  18.9054  18.9054  19.5123  19.5822
    19.5822

          k = 0.0000 0.4994 0.0000 ( 11030 PWs)   bands (ev):

  -108.5857 -56.9170 -56.9169 -56.9169  -4.7379  -0.5428  -0.4904  -0.4904
    -0.2282  -0.1930   1.9743   4.5601   4.5601   8.1138   9.1036  13.2626
    13.5029  13.5029  16.2594  17.8057  18.8983  18.8983  19.5352  19.5880
    19.5880

          k = 0.0000 0.5016 0.0000 ( 11030 PWs)   bands (ev):

  -108.5857 -56.9170 -56.9169 -56.9169  -4.7353  -0.5421  -0.4892  -0.4892
    -0.2280  -0.1900   1.9611   4.5539   4.5539   8.1134   9.1002  13.2728
    13.5213  13.5213  16.2628  17.8231  18.8894  18.8894  19.5581  19.5958
    19.5958

          k = 0.0000 0.5038 0.0000 ( 11030 PWs)   bands (ev):

  -108.5857 -56.9170 -56.9169 -56.9169  -4.7327  -0.5414  -0.4880  -0.4880
    -0.2278  -0.1871   1.9480   4.5477   4.5477   8.1130   9.0968  13.2830
    13.5397  13.5397  16.2663  17.8399  18.8790  18.8790  19.5807  19.6052
    19.6052

          k = 0.0000 0.5060 0.0000 ( 11030 PWs)   bands (ev):

  -108.5857 -56.9170 -56.9169 -56.9169  -4.7301  -0.5407  -0.4868  -0.4868
    -0.2276  -0.1841   1.9350   4.5415   4.5415   8.1126   9.0934  13.2934
    13.5581  13.5581  16.2697  17.8562  18.8671  18.8671  19.6031  19.6163
    19.6163

          k = 0.0000 0.5082 0.0000 ( 11030 PWs)   bands (ev):

  -108.5857 -56.9170 -56.9169 -56.9169  -4.7275  -0.5401  -0.4857  -0.4857
    -0.2274  -0.1810   1.9220   4.5355   4.5355   8.1122   9.0899  13.3039
    13.5765  13.5765  16.2731  17.8719  18.8540  18.8540  19.6253  19.6289
    19.6289

          k = 0.0000 0.5104 0.0000 ( 11022 PWs)   bands (ev):

  -108.5857 -56.9170 -56.9169 -56.9169  -4.7249  -0.5395  -0.4845  -0.4845
    -0.2272  -0.1779   1.9091   4.5294   4.5294   8.1117   9.0865  13.3145
    13.5948  13.5948  16.2765  17.8870  18.8396  18.8396  19.6427  19.6427
    19.6471

          k = 0.0000 0.5127 0.0000 ( 11030 PWs)   bands (ev):

  -108.5857 -56.9170 -56.9169 -56.9169  -4.7224  -0.5388  -0.4833  -0.4833
    -0.2270  -0.1748   1.8962   4.5235   4.5235   8.1113   9.0831  13.3252
    13.6131  13.6131  16.2799  17.9016  18.8243  18.8243  19.6578  19.6578
    19.6685

          k = 0.0000 0.5149 0.0000 ( 11030 PWs)   bands (ev):

  -108.5857 -56.9170 -56.9169 -56.9169  -4.7199  -0.5383  -0.4822  -0.4822
    -0.2268  -0.1716   1.8834   4.5175   4.5175   8.1108   9.0797  13.3359
    13.6314  13.6314  16.2832  17.9156  18.8080  18.8080  19.6739  19.6739
    19.6895

          k = 0.0000 0.5171 0.0000 ( 11030 PWs)   bands (ev):

  -108.5857 -56.9170 -56.9169 -56.9169  -4.7174  -0.5377  -0.4810  -0.4810
    -0.2266  -0.1684   1.8707   4.5117   4.5117   8.1104   9.0762  13.3468
    13.6497  13.6497  16.2866  17.9290  18.7909  18.7909  19.6910  19.6910
    19.7099

          k = 0.0000 0.5193 0.0000 ( 11018 PWs)   bands (ev):

  -108.5857 -56.9170 -56.9169 -56.9169  -4.7149  -0.5371  -0.4799  -0.4799
    -0.2264  -0.1651   1.8580   4.5059   4.5059   8.1099   9.0728  13.3577
    13.6680  13.6680  16.2899  17.9417  18.7731  18.7731  19.7089  19.7089
    19.7297

          k = 0.0000 0.5215 0.0000 ( 11018 PWs)   bands (ev):

  -108.5857 -56.9170 -56.9169 -56.9169  -4.7124  -0.5366  -0.4788  -0.4788
    -0.2262  -0.1618   1.8454   4.5002   4.5002   8.1094   9.0694  13.3687
    13.6862  13.6862  16.2932  17.9539  18.7547  18.7547  19.7277  19.7277
    19.7489

          k = 0.0000 0.5237 0.0000 ( 11018 PWs)   bands (ev):

  -108.5857 -56.9170 -56.9169 -56.9169  -4.7100  -0.5360  -0.4777  -0.4777
    -0.2260  -0.1585   1.8329   4.4945   4.4945   8.1090   9.0659  13.3798
    13.7044  13.7044  16.2965  17.9653  18.7358  18.7358  19.7470  19.7470
    19.7672

          k = 0.0000 0.5259 0.0000 ( 11018 PWs)   bands (ev):

  -108.5857 -56.9170 -56.9169 -56.9169  -4.7076  -0.5355  -0.4766  -0.4766
    -0.2258  -0.1551   1.8204   4.4888   4.4888   8.1085   9.0625  13.3910
    13.7225  13.7225  16.2998  17.9761  18.7165  18.7165  19.7670  19.7670
    19.7848

          k = 0.0000 0.5281 0.0000 ( 11010 PWs)   bands (ev):

  -108.5857 -56.9170 -56.9169 -56.9169  -4.7052  -0.5350  -0.4755  -0.4755
    -0.2256  -0.1517   1.8080   4.4833   4.4833   8.1080   9.0591  13.4022
    13.7406  13.7406  16.3031  17.9863  18.6968  18.6968  19.7876  19.7876
    19.8014

          k = 0.0000 0.5303 0.0000 ( 11002 PWs)   bands (ev):

  -108.5857 -56.9170 -56.9169 -56.9169  -4.7028  -0.5345  -0.4744  -0.4744
    -0.2254  -0.1482   1.7957   4.4778   4.4778   8.1075   9.0557  13.4135
    13.7587  13.7587  16.3063  17.9957  18.6767  18.6767  19.8086  19.8086
    19.8172

          k = 0.0000 0.5325 0.0000 ( 11002 PWs)   bands (ev):

  -108.5857 -56.9170 -56.9169 -56.9169  -4.7005  -0.5340  -0.4733  -0.4733
    -0.2252  -0.1448   1.7834   4.4723   4.4723   8.1070   9.0523  13.4249
    13.7768  13.7768  16.3095  18.0045  18.6564  18.6564  19.8301  19.8301
    19.8321

          k = 0.0000 0.5347 0.0000 ( 11002 PWs)   bands (ev):

  -108.5857 -56.9170 -56.9169 -56.9169  -4.6981  -0.5336  -0.4722  -0.4722
    -0.2251  -0.1412   1.7712   4.4669   4.4669   8.1065   9.0489  13.4363
    13.7948  13.7948  16.3128  18.0126  18.6358  18.6358  19.8461  19.8520
    19.8520

          k = 0.0000 0.5370 0.0000 ( 11002 PWs)   bands (ev):

  -108.5857 -56.9170 -56.9169 -56.9169  -4.6958  -0.5331  -0.4712  -0.4712
    -0.2249  -0.1377   1.7591   4.4616   4.4616   8.1060   9.0455  13.4477
    13.8127  13.8127  16.3159  18.0200  18.6150  18.6150  19.8593  19.8742
    19.8742

          k = 0.0000 0.5392 0.0000 ( 10998 PWs)   bands (ev):

  -108.5857 -56.9170 -56.9169 -56.9169  -4.6935  -0.5327  -0.4701  -0.4701
    -0.2247  -0.1341   1.7470   4.4564   4.4564   8.1055   9.0421  13.4592
    13.8306  13.8306  16.3191  18.0267  18.5941  18.5941  19.8718  19.8968
    19.8968

          k = 0.0000 0.5414 0.0000 ( 10998 PWs)   bands (ev):

  -108.5857 -56.9170 -56.9169 -56.9169  -4.6913  -0.5323  -0.4691  -0.4691
    -0.2245  -0.1304   1.7350   4.4512   4.4512   8.1050   9.0387  13.4708
    13.8485  13.8485  16.3222  18.0327  18.5731  18.5731  19.8837  19.9196
    19.9196

          k = 0.0000 0.5436 0.0000 ( 10998 PWs)   bands (ev):

  -108.5857 -56.9170 -56.9169 -56.9169  -4.6890  -0.5319  -0.4680  -0.4680
    -0.2243  -0.1268   1.7231   4.4460   4.4460   8.1045   9.0354  13.4824
    13.8663  13.8663  16.3253  18.0381  18.5519  18.5519  19.8951  19.9427
    19.9427

          k = 0.0000 0.5458 0.0000 ( 10998 PWs)   bands (ev):

  -108.5857 -56.9170 -56.9169 -56.9169  -4.6868  -0.5315  -0.4670  -0.4670
    -0.2242  -0.1231   1.7113   4.4409   4.4409   8.1040   9.0320  13.4940
    13.8840  13.8840  16.3284  18.0427  18.5307  18.5307  19.9060  19.9661
    19.9661

          k = 0.0000 0.5480 0.0000 ( 10998 PWs)   bands (ev):

  -108.5857 -56.9170 -56.9169 -56.9169  -4.6846  -0.5311  -0.4660  -0.4660
    -0.2240  -0.1194   1.6996   4.4359   4.4359   8.1035   9.0287  13.5056
    13.9017  13.9017  16.3315  18.0467  18.5094  18.5094  19.9168  19.9897
    19.9897

          k = 0.0000 0.5502 0.0000 ( 10998 PWs)   bands (ev):

  -108.5857 -56.9170 -56.9169 -56.9169  -4.6825  -0.5307  -0.4650  -0.4650
    -0.2238  -0.1156   1.6879   4.4310   4.4310   8.1030   9.0254  13.5172
    13.9193  13.9193  16.3345  18.0500  18.4881  18.4881  19.9274  20.0134
    20.0134

          k = 0.0000 0.5524 0.0000 ( 10998 PWs)   bands (ev):

  -108.5857 -56.9170 -56.9169 -56.9169  -4.6803  -0.5304  -0.4640  -0.4640
    -0.2237  -0.1119   1.6763   4.4261   4.4261   8.1025   9.0221  13.5289
    13.9369  13.9369  16.3376  18.0526  18.4668  18.4668  19.9380  20.0374
    20.0374

          k = 0.0000 0.5546 0.0000 ( 10998 PWs)   bands (ev):

  -108.5857 -56.9170 -56.9169 -56.9169  -4.6782  -0.5301  -0.4630  -0.4630
    -0.2235  -0.1081   1.6648   4.4212   4.4212   8.1020   9.0188  13.5406
    13.9544  13.9544  16.3405  18.0546  18.4454  18.4454  19.9486  20.0615
    20.0615

          k = 0.0000 0.5568 0.0000 ( 10982 PWs)   bands (ev):

  -108.5857 -56.9170 -56.9169 -56.9169  -4.6761  -0.5297  -0.4620  -0.4620
    -0.2233  -0.1043   1.6534   4.4165   4.4165   8.1016   9.0155  13.5523
    13.9718  13.9718  16.3435  18.0560  18.4241  18.4241  19.9594  20.0857
    20.0857

          k = 0.0000 0.5591 0.0000 ( 10982 PWs)   bands (ev):

  -108.5857 -56.9170 -56.9169 -56.9169  -4.6740  -0.5294  -0.4611  -0.4611
    -0.2232  -0.1004   1.6420   4.4118   4.4118   8.1011   9.0123  13.5640
    13.9892  13.9892  16.3464  18.0567  18.4029  18.4029  19.9704  20.1101
    20.1101

          k = 0.0000 0.5613 0.0000 ( 10982 PWs)   bands (ev):

  -108.5857 -56.9170 -56.9169 -56.9169  -4.6720  -0.5291  -0.4601  -0.4601
    -0.2230  -0.0965   1.6308   4.4071   4.4071   8.1006   9.0090  13.5756
    14.0065  14.0065  16.3494  18.0568  18.3816  18.3816  19.9816  20.1347
    20.1347

          k = 0.0000 0.5635 0.0000 ( 10982 PWs)   bands (ev):

  -108.5857 -56.9170 -56.9169 -56.9169  -4.6700  -0.5288  -0.4592  -0.4592
    -0.2228  -0.0927   1.6196   4.4025   4.4025   8.1001   9.0058  13.5873
    14.0237  14.0237  16.3522  18.0564  18.3605  18.3605  19.9932  20.1593
    20.1593

          k = 0.0000 0.5657 0.0000 ( 10982 PWs)   bands (ev):

  -108.5857 -56.9170 -56.9169 -56.9169  -4.6680  -0.5285  -0.4583  -0.4583
    -0.2227  -0.0888   1.6085   4.3980   4.3980   8.0997   9.0026  13.5990
    14.0408  14.0408  16.3551  18.0553  18.3394  18.3394  20.0052  20.1840
    20.1840

          k = 0.0000 0.5679 0.0000 ( 10982 PWs)   bands (ev):

  -108.5857 -56.9170 -56.9169 -56.9169  -4.6660  -0.5282  -0.4573  -0.4573
    -0.2225  -0.0848   1.5976   4.3936   4.3936   8.0992   8.9995  13.6106
    14.0579  14.0579  16.3579  18.0537  18.3184  18.3184  20.0175  20.2088
    20.2088

          k = 0.0000 0.5701 0.0000 ( 10982 PWs)   bands (ev):

  -108.5857 -56.9170 -56.9169 -56.9169  -4.6640  -0.5280  -0.4564  -0.4564
    -0.2224  -0.0809   1.5867   4.3892   4.3892   8.0988   8.9963  13.6222
    14.0748  14.0748  16.3607  18.0516  18.2974  18.2974  20.0303  20.2337
    20.2337

          k = 0.0000 0.5723 0.0000 ( 10982 PWs)   bands (ev):

  -108.5857 -56.9170 -56.9169 -56.9169  -4.6621  -0.5277  -0.4556  -0.4556
    -0.2222  -0.0770   1.5759   4.3849   4.3849   8.0983   8.9932  13.6338
    14.0917  14.0917  16.3635  18.0490  18.2766  18.2766  20.0435  20.2587
    20.2587

          k = 0.0000 0.5745 0.0000 ( 10982 PWs)   bands (ev):

  -108.5857 -56.9170 -56.9169 -56.9169  -4.6602  -0.5275  -0.4547  -0.4547
    -0.2221  -0.0730   1.5652   4.3806   4.3806   8.0979   8.9901  13.6454
    14.1084  14.1084  16.3662  18.0459  18.2559  18.2559  20.0572  20.2837
    20.2837

          k = 0.0000 0.5767 0.0000 ( 10990 PWs)   bands (ev):

  -108.5857 -56.9170 -56.9169 -56.9169  -4.6584  -0.5272  -0.4538  -0.4538
    -0.2219  -0.0690   1.5546   4.3764   4.3764   8.0974   8.9870  13.6569
    14.1251  14.1251  16.3689  18.0424  18.2353  18.2353  20.0713  20.3087
    20.3087

          k = 0.0000 0.5789 0.0000 ( 10990 PWs)   bands (ev):

  -108.5857 -56.9170 -56.9169 -56.9169  -4.6565  -0.5270  -0.4529  -0.4529
    -0.2218  -0.0650   1.5441   4.3723   4.3723   8.0970   8.9840  13.6684
    14.1417  14.1417  16.3716  18.0384  18.2148  18.2148  20.0859  20.3338
    20.3338

          k = 0.0000 0.5812 0.0000 ( 10990 PWs)   bands (ev):

  -108.5857 -56.9170 -56.9169 -56.9169  -4.6547  -0.5268  -0.4521  -0.4521
    -0.2216  -0.0611   1.5337   4.3683   4.3683   8.0966   8.9810  13.6798
    14.1581  14.1581  16.3742  18.0339  18.1945  18.1945  20.1009  20.3590
    20.3590

          k = 0.0000 0.5834 0.0000 ( 10990 PWs)   bands (ev):

  -108.5857 -56.9170 -56.9169 -56.9169  -4.6529  -0.5266  -0.4513  -0.4513
    -0.2215  -0.0571   1.5234   4.3643   4.3643   8.0962   8.9780  13.6912
    14.1744  14.1744  16.3768  18.0291  18.1743  18.1743  20.1164  20.3841
    20.3841

          k = 0.0000 0.5856 0.0000 ( 10990 PWs)   bands (ev):

  -108.5857 -56.9170 -56.9169 -56.9169  -4.6512  -0.5264  -0.4504  -0.4504
    -0.2214  -0.0531   1.5132   4.3603   4.3603   8.0958   8.9751  13.7025
    14.1907  14.1907  16.3794  18.0240  18.1543  18.1543  20.1323  20.4093
    20.4093

          k = 0.0000 0.5878 0.0000 ( 10990 PWs)   bands (ev):

  -108.5857 -56.9170 -56.9169 -56.9169  -4.6495  -0.5262  -0.4496  -0.4496
    -0.2212  -0.0491   1.5031   4.3565   4.3565   8.0954   8.9722  13.7138
    14.2068  14.2068  16.3819  18.0185  18.1344  18.1344  20.1487  20.4344
    20.4344

          k = 0.0000 0.5900 0.0000 ( 10990 PWs)   bands (ev):

  -108.5857 -56.9170 -56.9169 -56.9169  -4.6478  -0.5260  -0.4488  -0.4488
    -0.2211  -0.0451   1.4932   4.3527   4.3527   8.0950   8.9693  13.7250
    14.2227  14.2227  16.3844  18.0126  18.1147  18.1147  20.1656  20.4596
    20.4596

          k = 0.0000 0.5922 0.0000 ( 10990 PWs)   bands (ev):

  -108.5857 -56.9170 -56.9169 -56.9169  -4.6461  -0.5258  -0.4481  -0.4481
    -0.2210  -0.0411   1.4833   4.3490   4.3490   8.0946   8.9665  13.7361
    14.2386  14.2386  16.3869  18.0065  18.0952  18.0952  20.1828  20.4848
    20.4848

          k = 0.0000 0.5944 0.0000 ( 10990 PWs)   bands (ev):

  -108.5857 -56.9170 -56.9169 -56.9169  -4.6444  -0.5256  -0.4473  -0.4473
    -0.2208  -0.0371   1.4736   4.3453   4.3453   8.0943   8.9636  13.7471
    14.2543  14.2543  16.3893  18.0001  18.0758  18.0758  20.2005  20.5099
    20.5099

          k = 0.0000 0.5966 0.0000 ( 10990 PWs)   bands (ev):

  -108.5857 -56.9170 -56.9169 -56.9169  -4.6428  -0.5254  -0.4465  -0.4465
    -0.2207  -0.0331   1.4640   4.3417   4.3417   8.0939   8.9609  13.7581
    14.2698  14.2698  16.3917  17.9935  18.0566  18.0566  20.2186  20.5350
    20.5350

          k = 0.0000 0.5988 0.0000 ( 10990 PWs)   bands (ev):

  -108.5857 -56.9170 -56.9169 -56.9169  -4.6412  -0.5253  -0.4458  -0.4458
    -0.2206  -0.0292   1.4545   4.3382   4.3382   8.0935   8.9581  13.7689
    14.2853  14.2853  16.3940  17.9866  18.0377  18.0377  20.2372  20.5601
    20.5601

          k = 0.0000 0.6010 0.0000 ( 10998 PWs)   bands (ev):

  -108.5857 -56.9170 -56.9169 -56.9169  -4.6397  -0.5251  -0.4451  -0.4451
    -0.2205  -0.0252   1.4451   4.3347   4.3347   8.0932   8.9554  13.7797
    14.3005  14.3005  16.3964  17.9795  18.0189  18.0189  20.2561  20.5851
    20.5851

          k = 0.0000 0.6033 0.0000 ( 10998 PWs)   bands (ev):

  -108.5857 -56.9170 -56.9169 -56.9169  -4.6381  -0.5250  -0.4443  -0.4443
    -0.2204  -0.0213   1.4358   4.3313   4.3313   8.0929   8.9528  13.7903
    14.3156  14.3156  16.3986  17.9723  18.0004  18.0004  20.2753  20.6101
    20.6101

          k = 0.0000 0.6055 0.0000 ( 10994 PWs)   bands (ev):

  -108.5857 -56.9170 -56.9169 -56.9169  -4.6366  -0.5249  -0.4436  -0.4436
    -0.2202  -0.0173   1.4267   4.3280   4.3280   8.0925   8.9502  13.8009
    14.3306  14.3306  16.4009  17.9649  17.9820  17.9820  20.2950  20.6350
    20.6350

          k = 0.0000 0.6077 0.0000 ( 10994 PWs)   bands (ev):

  -108.5857 -56.9170 -56.9169 -56.9169  -4.6352  -0.5247  -0.4429  -0.4429
    -0.2201  -0.0134   1.4177   4.3248   4.3248   8.0922   8.9476  13.8113
    14.3454  14.3454  16.4031  17.9573  17.9639  17.9639  20.3150  20.6591
    20.6598

          k = 0.0000 0.6099 0.0000 ( 10994 PWs)   bands (ev):

  -108.5857 -56.9170 -56.9169 -56.9169  -4.6337  -0.5246  -0.4423  -0.4423
    -0.2200  -0.0096   1.4088   4.3216   4.3216   8.0919   8.9451  13.8216
    14.3600  14.3600  16.4052  17.9460  17.9460  17.9497  20.3354  20.6523
    20.6846

          k = 0.0000 0.6121 0.0000 ( 10998 PWs)   bands (ev):

  -108.5857 -56.9170 -56.9169 -56.9169  -4.6323  -0.5245  -0.4416  -0.4416
    -0.2199  -0.0057   1.4001   4.3185   4.3185   8.0916   8.9426  13.8318
    14.3744  14.3744  16.4074  17.9284  17.9284  17.9419  20.3560  20.6456
    20.7092

          k = 0.0000 0.6143 0.0000 ( 10998 PWs)   bands (ev):

  -108.5857 -56.9170 -56.9169 -56.9169  -4.6309  -0.5244  -0.4410  -0.4410
    -0.2198  -0.0019   1.3915   4.3154   4.3154   8.0913   8.9401  13.8418
    14.3886  14.3886  16.4094  17.9110  17.9110  17.9340  20.3771  20.6391
    20.7337

          k = 0.0000 0.6165 0.0000 ( 10998 PWs)   bands (ev):

  -108.5857 -56.9170 -56.9169 -56.9169  -4.6296  -0.5242  -0.4403  -0.4403
    -0.2197   0.0019   1.3830   4.3125   4.3125   8.0910   8.9377  13.8518
    14.4027  14.4027  16.4115  17.8939  17.8939  17.9261  20.3984  20.6328
    20.7582

          k = 0.0000 0.6187 0.0000 ( 10998 PWs)   bands (ev):

  -108.5857 -56.9170 -56.9169 -56.9169  -4.6283  -0.5241  -0.4397  -0.4397
    -0.2196   0.0057   1.3747   4.3096   4.3096   8.0907   8.9354  13.8615
    14.4165  14.4165  16.4135  17.8770  17.8770  17.9182  20.4200  20.6265
    20.7824

          k = 0.0000 0.6209 0.0000 ( 10998 PWs)   bands (ev):

  -108.5857 -56.9170 -56.9169 -56.9169  -4.6270  -0.5240  -0.4391  -0.4391
    -0.2195   0.0094   1.3666   4.3067   4.3067   8.0905   8.9330  13.8712
    14.4302  14.4302  16.4154  17.8604  17.8604  17.9102  20.4419  20.6205
    20.8066

          k = 0.0000 0.6231 0.0000 ( 10998 PWs)   bands (ev):

  -108.5857 -56.9170 -56.9169 -56.9169  -4.6257  -0.5239  -0.4385  -0.4385
    -0.2194   0.0131   1.3586   4.3040   4.3040   8.0902   8.9308  13.8806
    14.4436  14.4436  16.4173  17.8441  17.8441  17.9022  20.4641  20.6146
    20.8306

          k = 0.0000 0.6253 0.0000 ( 10998 PWs)   bands (ev):

  -108.5857 -56.9170 -56.9169 -56.9169  -4.6245  -0.5238  -0.4379  -0.4379
    -0.2193   0.0168   1.3507   4.3013   4.3013   8.0899   8.9286  13.8900
    14.4568  14.4568  16.4192  17.8281  17.8281  17.8943  20.4866  20.6088
    20.8544

          k = 0.0000 0.6276 0.0000 ( 10998 PWs)   bands (ev):

  -108.5857 -56.9170 -56.9169 -56.9169  -4.6233  -0.5238  -0.4374  -0.4374
    -0.2192   0.0204   1.3430   4.2986   4.2986   8.0897   8.9264  13.8991
    14.4698  14.4698  16.4210  17.8123  17.8123  17.8863  20.5093  20.6031
    20.8780

          k = 0.0000 0.6298 0.0000 ( 10998 PWs)   bands (ev):

  -108.5857 -56.9170 -56.9169 -56.9169  -4.6221  -0.5237  -0.4368  -0.4368
    -0.2191   0.0240   1.3354   4.2961   4.2961   8.0895   8.9243  13.9081
    14.4825  14.4825  16.4228  17.7969  17.7969  17.8784  20.5322  20.5977
    20.9014

          k = 0.0000 0.6320 0.0000 ( 10998 PWs)   bands (ev):

  -108.5857 -56.9170 -56.9169 -56.9169  -4.6210  -0.5236  -0.4363  -0.4363
    -0.2190   0.0275   1.3280   4.2936   4.2936   8.0892   8.9222  13.9169
    14.4950  14.4950  16.4245  17.7818  17.7818  17.8706  20.5554  20.5923
    20.9247

          k = 0.0000 0.6342 0.0000 ( 10998 PWs)   bands (ev):

  -108.5857 -56.9170 -56.9169 -56.9169  -4.6199  -0.5235  -0.4357  -0.4357
    -0.2189   0.0310   1.3208   4.2912   4.2912   8.0890   8.9202  13.9255
    14.5073  14.5073  16.4262  17.7670  17.7670  17.8628  20.5789  20.5871
    20.9476

          k = 0.0000 0.6364 0.0000 ( 10998 PWs)   bands (ev):

  -108.5857 -56.9170 -56.9169 -56.9169  -4.6188  -0.5235  -0.4352  -0.4352
    -0.2189   0.0344   1.3138   4.2888   4.2888   8.0888   8.9182  13.9340
    14.5193  14.5193  16.4279  17.7525  17.7525  17.8551  20.5821  20.6025
    20.9704

          k = 0.0000 0.6386 0.0000 ( 10998 PWs)   bands (ev):

  -108.5857 -56.9170 -56.9169 -56.9169  -4.6178  -0.5234  -0.4347  -0.4347
    -0.2188   0.0377   1.3069   4.2866   4.2866   8.0886   8.9163  13.9422
    14.5310  14.5310  16.4295  17.7383  17.7383  17.8475  20.5772  20.6263
    20.9928

          k = 0.0000 0.6408 0.0000 ( 10998 PWs)   bands (ev):

  -108.5857 -56.9170 -56.9169 -56.9169  -4.6168  -0.5233  -0.4343  -0.4343
    -0.2187   0.0410   1.3002   4.2844   4.2844   8.0884   8.9145  13.9502
    14.5425  14.5425  16.4310  17.7245  17.7245  17.8400  20.5725  20.6504
    21.0150

          k = 0.0000 0.6430 0.0000 ( 10998 PWs)   bands (ev):

  -108.5857 -56.9170 -56.9169 -56.9169  -4.6158  -0.5233  -0.4338  -0.4338
    -0.2186   0.0442   1.2936   4.2822   4.2822   8.0882   8.9127  13.9581
    14.5537  14.5537  16.4325  17.7111  17.7111  17.8327  20.5679  20.6746
    21.0368

          k = 0.0000 0.6452 0.0000 ( 10998 PWs)   bands (ev):

  -108.5857 -56.9170 -56.9169 -56.9169  -4.6149  -0.5232  -0.4334  -0.4334
    -0.2186   0.0474   1.2873   4.2802   4.2802   8.0880   8.9109  13.9657
    14.5646  14.5646  16.4340  17.6980  17.6980  17.8254  20.5635  20.6990
    21.0584

          k = 0.0000 0.6474 0.0000 ( 10998 PWs)   bands (ev):

  -108.5857 -56.9170 -56.9169 -56.9169  -4.6139  -0.5231  -0.4329  -0.4329
    -0.2185   0.0504   1.2811   4.2782   4.2782   8.0878   8.9092  13.9731
    14.5752  14.5752  16.4354  17.6852  17.6852  17.8184  20.5592  20.7236
    21.0795

          k = 0.0000 0.6497 0.0000 ( 10986 PWs)   bands (ev):

  -108.5857 -56.9170 -56.9169 -56.9169  -4.6131  -0.5231  -0.4325  -0.4325
    -0.2184   0.0534   1.2751   4.2762   4.2762   8.0877   8.9076  13.9803
    14.5855  14.5855  16.4368  17.6729  17.6729  17.8115  20.5551  20.7483
    21.1003

          k = 0.0000 0.6519 0.0000 ( 10994 PWs)   bands (ev):

  -108.5857 -56.9170 -56.9169 -56.9169  -4.6122  -0.5230  -0.4321  -0.4321
    -0.2183   0.0563   1.2694   4.2744   4.2744   8.0875   8.9060  13.9873
    14.5955  14.5955  16.4381  17.6609  17.6609  17.8047  20.5511  20.7732
    21.1207

          k = 0.0000 0.6541 0.0000 ( 10994 PWs)   bands (ev):

  -108.5857 -56.9170 -56.9169 -56.9169  -4.6114  -0.5230  -0.4317  -0.4317
    -0.2183   0.0592   1.2638   4.2726   4.2726   8.0874   8.9045  13.9941
    14.6052  14.6052  16.4393  17.6493  17.6493  17.7982  20.5473  20.7982
    21.1407

          k = 0.0000 0.6563 0.0000 ( 10998 PWs)   bands (ev):

  -108.5857 -56.9170 -56.9169 -56.9169  -4.6106  -0.5230  -0.4314  -0.4314
    -0.2182   0.0619   1.2584   4.2709   4.2709   8.0872   8.9030  14.0006
    14.6146  14.6146  16.4406  17.6381  17.6381  17.7918  20.5436  20.8233
    21.1602

          k = 0.0000 0.6585 0.0000 ( 10998 PWs)   bands (ev):

  -108.5857 -56.9170 -56.9169 -56.9169  -4.6099  -0.5229  -0.4310  -0.4310
    -0.2182   0.0646   1.2532   4.2693   4.2693   8.0871   8.9016  14.0069
    14.6236  14.6236  16.4417  17.6274  17.6274  17.7856  20.5401  20.8485
    21.1792

          k = 0.0000 0.6607 0.0000 ( 10998 PWs)   bands (ev):

  -108.5857 -56.9170 -56.9169 -56.9169  -4.6091  -0.5229  -0.4307  -0.4307
    -0.2181   0.0672   1.2482   4.2677   4.2677   8.0869   8.9002  14.0129
    14.6323  14.6323  16.4428  17.6170  17.6170  17.7796  20.5367  20.8738
    21.1977

          k = 0.0000 0.6629 0.0000 ( 10998 PWs)   bands (ev):

  -108.5857 -56.9170 -56.9169 -56.9169  -4.6085  -0.5228  -0.4303  -0.4303
    -0.2181   0.0697   1.2434   4.2662   4.2662   8.0868   8.8990  14.0187
    14.6406  14.6406  16.4439  17.6071  17.6071  17.7739  20.5335  20.8992
    21.2157

          k = 0.0000 0.6651 0.0000 ( 10990 PWs)   bands (ev):

  -108.5857 -56.9170 -56.9169 -56.9169  -4.6078  -0.5228  -0.4300  -0.4300
    -0.2180   0.0720   1.2388   4.2648   4.2648   8.0867   8.8977  14.0242
    14.6486  14.6486  16.4449  17.5975  17.5975  17.7684  20.5304  20.9246
    21.2330

          k = 0.0000 0.6673 0.0000 ( 10990 PWs)   bands (ev):

  -108.5857 -56.9170 -56.9169 -56.9169  -4.6072  -0.5228  -0.4297  -0.4297
    -0.2180   0.0743   1.2344   4.2635   4.2635   8.0866   8.8966  14.0295
    14.6562  14.6562  16.4459  17.5885  17.5885  17.7631  20.5275  20.9500
    21.2498

          k = 0.0000 0.6695 0.0000 ( 10978 PWs)   bands (ev):

  -108.5857 -56.9170 -56.9169 -56.9169  -4.6066  -0.5227  -0.4295  -0.4295
    -0.2179   0.0765   1.2303   4.2622   4.2622   8.0865   8.8954  14.0345
    14.6635  14.6635  16.4468  17.5798  17.5798  17.7581  20.5248  20.9754
    21.2660

          k = 0.0000 0.6718 0.0000 ( 10978 PWs)   bands (ev):

  -108.5857 -56.9170 -56.9169 -56.9169  -4.6060  -0.5227  -0.4292  -0.4292
    -0.2179   0.0786   1.2264   4.2610   4.2610   8.0864   8.8944  14.0393
    14.6704  14.6704  16.4477  17.5717  17.5717  17.7533  20.5222  21.0008
    21.2814

          k = 0.0000 0.6740 0.0000 ( 10970 PWs)   bands (ev):

  -108.5857 -56.9170 -56.9169 -56.9169  -4.6055  -0.5227  -0.4289  -0.4289
    -0.2178   0.0805   1.2227   4.2599   4.2599   8.0863   8.8934  14.0437
    14.6769  14.6769  16.4485  17.5639  17.5639  17.7487  20.5198  21.0262
    21.2962

          k = 0.0000 0.6762 0.0000 ( 10962 PWs)   bands (ev):

  -108.5857 -56.9170 -56.9169 -56.9169  -4.6050  -0.5227  -0.4287  -0.4287
    -0.2178   0.0824   1.2192   4.2588   4.2588   8.0862   8.8925  14.0480
    14.6830  14.6830  16.4492  17.5567  17.5567  17.7445  20.5175  21.0514
    21.3102

          k = 0.0000 0.6784 0.0000 ( 10962 PWs)   bands (ev):

  -108.5857 -56.9170 -56.9169 -56.9169  -4.6046  -0.5227  -0.4285  -0.4285
    -0.2178   0.0841   1.2159   4.2578   4.2578   8.0861   8.8916  14.0519
    14.6888  14.6888  16.4500  17.5499  17.5499  17.7405  20.5154  21.0764
    21.3235

          k = 0.0000 0.6806 0.0000 ( 10962 PWs)   bands (ev):

  -108.5857 -56.9170 -56.9169 -56.9169  -4.6042  -0.5226  -0.4283  -0.4283
    -0.2177   0.0857   1.2129   4.2569   4.2569   8.0861   8.8908  14.0555
    14.6941  14.6941  16.4506  17.5436  17.5436  17.7367  20.5134  21.1012
    21.3359

          k = 0.0000 0.6828 0.0000 ( 10962 PWs)   bands (ev):

  -108.5857 -56.9170 -56.9169 -56.9169  -4.6038  -0.5226  -0.4281  -0.4281
    -0.2177   0.0872   1.2101   4.2561   4.2561   8.0860   8.8901  14.0589
    14.6990  14.6990  16.4512  17.5378  17.5378  17.7333  20.5116  21.1256
    21.3475

          k = 0.0000 0.6850 0.0000 ( 10958 PWs)   bands (ev):

  -108.5857 -56.9170 -56.9169 -56.9169  -4.6034  -0.5226  -0.4279  -0.4279
    -0.2177   0.0886   1.2076   4.2553   4.2553   8.0859   8.8894  14.0620
    14.7035  14.7035  16.4518  17.5324  17.5324  17.7301  20.5099  21.1496
    21.3582

          k = 0.0000 0.6872 0.0000 ( 10958 PWs)   bands (ev):

  -108.5857 -56.9170 -56.9169 -56.9169  -4.6031  -0.5226  -0.4278  -0.4278
    -0.2176   0.0898   1.2053   4.2546   4.2546   8.0859   8.8888  14.0648
    14.7076  14.7076  16.4523  17.5276  17.5276  17.7272  20.5084  21.1731
    21.3680

          k = 0.0000 0.6894 0.0000 ( 10958 PWs)   bands (ev):

  -108.5857 -56.9170 -56.9169 -56.9169  -4.6028  -0.5226  -0.4277  -0.4277
    -0.2176   0.0909   1.2032   4.2540   4.2540   8.0858   8.8883  14.0673
    14.7113  14.7113  16.4527  17.5232  17.5232  17.7247  20.5071  21.1957
    21.3769

          k = 0.0000 0.6916 0.0000 ( 10950 PWs)   bands (ev):

  -108.5857 -56.9170 -56.9169 -56.9169  -4.6026  -0.5226  -0.4275  -0.4275
    -0.2176   0.0919   1.2013   4.2535   4.2535   8.0858   8.8878  14.0696
    14.7145  14.7145  16.4531  17.5194  17.5194  17.7224  20.5059  21.2174
    21.3847

          k = 0.0000 0.6938 0.0000 ( 10950 PWs)   bands (ev):

  -108.5857 -56.9170 -56.9169 -56.9169  -4.6023  -0.5226  -0.4274  -0.4274
    -0.2176   0.0928   1.1998   4.2530   4.2530   8.0857   8.8874  14.0715
    14.7174  14.7174  16.4535  17.5161  17.5161  17.7204  20.5049  21.2378
    21.3916

          k = 0.0000 0.6961 0.0000 ( 10950 PWs)   bands (ev):

  -108.5857 -56.9170 -56.9169 -56.9169  -4.6022  -0.5225  -0.4273  -0.4273
    -0.2176   0.0935   1.1984   4.2526   4.2526   8.0857   8.8870  14.0731
    14.7198  14.7198  16.4538  17.5132  17.5132  17.7187  20.5040  21.2566
    21.3975

          k = 0.0000 0.6983 0.0000 ( 10950 PWs)   bands (ev):

  -108.5857 -56.9170 -56.9169 -56.9169  -4.6020  -0.5225  -0.4273  -0.4273
    -0.2176   0.0941   1.1973   4.2523   4.2523   8.0857   8.8867  14.0745
    14.7217  14.7217  16.4540  17.5109  17.5109  17.7173  20.5033  21.2732
    21.4024

          k = 0.0000 0.7005 0.0000 ( 10950 PWs)   bands (ev):

  -108.5857 -56.9170 -56.9169 -56.9169  -4.6019  -0.5225  -0.4272  -0.4272
    -0.2175   0.0946   1.1964   4.2520   4.2520   8.0857   8.8865  14.0755
    14.7233  14.7233  16.4542  17.5091  17.5091  17.7162  20.5028  21.2870
    21.4061

          k = 0.0000 0.7027 0.0000 ( 10950 PWs)   bands (ev):

  -108.5857 -56.9170 -56.9169 -56.9169  -4.6018  -0.5225  -0.4272  -0.4272
    -0.2175   0.0949   1.1958   4.2518   4.2518   8.0857   8.8863  14.0763
    14.7244  14.7244  16.4543  17.5078  17.5078  17.7155  20.5024  21.2976
    21.4089

          k = 0.0000 0.7049 0.0000 ( 10950 PWs)   bands (ev):

  -108.5857 -56.9170 -56.9169 -56.9169  -4.6018  -0.5225  -0.4272  -0.4272
    -0.2175   0.0951   1.1954   4.2517   4.2517   8.0856   8.8862  14.0767
    14.7250  14.7250  16.4544  17.5070  17.5070  17.7150  20.5021  21.3042
    21.4105

          k = 0.0000 0.7071 0.0000 ( 10950 PWs)   bands (ev):

  -108.5857 -56.9170 -56.9169 -56.9169  -4.6017  -0.5225  -0.4271  -0.4271
    -0.2175   0.0952   1.1953   4.2517   4.2517   8.0856   8.8862  14.0769
    14.7252  14.7252  16.4544  17.5068  17.5068  17.7148  20.5021  21.3065
    21.4110

          k = 0.0022 0.7071 0.0022 ( 10950 PWs)   bands (ev):

  -108.5857 -56.9170 -56.9169 -56.9169  -4.6017  -0.5225  -0.4272  -0.4271
    -0.2175   0.0952   1.1953   4.2515   4.2517   8.0858   8.8864  14.0764
    14.7248  14.7253  16.4547  17.5052  17.5068  17.7169  20.5023  21.2986
    21.4112

          k = 0.0044 0.7071 0.0044 ( 10950 PWs)   bands (ev):

  -108.5857 -56.9170 -56.9169 -56.9169  -4.6017  -0.5225  -0.4272  -0.4271
    -0.2176   0.0953   1.1953   4.2510   4.2519   8.0863   8.8870  14.0749
    14.7233  14.7254  16.4554  17.5008  17.5068  17.7229  20.5029  21.2793
    21.4117

          k = 0.0066 0.7071 0.0066 ( 10950 PWs)   bands (ev):

  -108.5857 -56.9170 -56.9169 -56.9169  -4.6017  -0.5225  -0.4272  -0.4271
    -0.2176   0.0954   1.1952   4.2501   4.2522   8.0871   8.8881  14.0724
    14.7210  14.7256  16.4566  17.4939  17.5069  17.7323  20.5041  21.2545
    21.4125

          k = 0.0088 0.7071 0.0088 ( 10950 PWs)   bands (ev):

  -108.5857 -56.9170 -56.9169 -56.9169  -4.6017  -0.5225  -0.4273  -0.4270
    -0.2176   0.0956   1.1952   4.2488   4.2526   8.0883   8.8896  14.0690
    14.7177  14.7258  16.4583  17.4852  17.5071  17.7446  20.5056  21.2273
    21.4137

          k = 0.0110 0.7071 0.0110 ( 10950 PWs)   bands (ev):

  -108.5857 -56.9170 -56.9169 -56.9169  -4.6017  -0.5224  -0.4273  -0.4270
    -0.2177   0.0958   1.1951   4.2472   4.2531   8.0897   8.8916  14.0647
    14.7135  14.7261  16.4604  17.4751  17.5073  17.7593  20.5076  21.1986
    21.4153

          k = 0.0133 0.7071 0.0133 ( 10954 PWs)   bands (ev):

  -108.5857 -56.9170 -56.9169 -56.9169  -4.6017  -0.5224  -0.4274  -0.4269
    -0.2177   0.0961   1.1950   4.2453   4.2537   8.0915   8.8939  14.0594
    14.7083  14.7263  16.4629  17.4643  17.5075  17.7757  20.5101  21.1693
    21.4171

          k = 0.0155 0.7071 0.0155 ( 10958 PWs)   bands (ev):

  -108.5857 -56.9170 -56.9169 -56.9169  -4.6017  -0.5224  -0.4275  -0.4268
    -0.2178   0.0964   1.1949   4.2430   4.2544   8.0936   8.8968  14.0533
    14.7023  14.7265  16.4658  17.4530  17.5079  17.7937  20.5130  21.1394
    21.4193

          k = 0.0177 0.7071 0.0177 ( 10962 PWs)   bands (ev):

  -108.5857 -56.9170 -56.9169 -56.9169  -4.6018  -0.5223  -0.4276  -0.4267
    -0.2179   0.0968   1.1948   4.2403   4.2552   8.0960   8.9000  14.0463
    14.6954  14.7267  16.4691  17.4415  17.5083  17.8128  20.5163  21.1091
    21.4218

          k = 0.0199 0.7071 0.0199 ( 10962 PWs)   bands (ev):

  -108.5857 -56.9170 -56.9169 -56.9169  -4.6018  -0.5222  -0.4278  -0.4266
    -0.2180   0.0972   1.1946   4.2373   4.2562   8.0986   8.9037  14.0384
    14.6877  14.7268  16.4727  17.4301  17.5089  17.8329  20.5200  21.0787
    21.4247

          k = 0.0221 0.7071 0.0221 ( 10966 PWs)   bands (ev):

  -108.5857 -56.9170 -56.9169 -56.9169  -4.6018  -0.5222  -0.4279  -0.4265
    -0.2181   0.0977   1.1945   4.2340   4.2572   8.1016   8.9079  14.0298
    14.6791  14.7267  16.4765  17.4189  17.5097  17.8538  20.5242  21.0480
    21.4279

          k = 0.0243 0.7071 0.0243 ( 10968 PWs)   bands (ev):

  -108.5857 -56.9170 -56.9169 -56.9169  -4.6018  -0.5221  -0.4281  -0.4264
    -0.2182   0.0982   1.1943   4.2303   4.2584   8.1048   8.9125  14.0205
    14.6697  14.7265  16.4806  17.4080  17.5106  17.8755  20.5287  21.0173
    21.4315

          k = 0.0265 0.7071 0.0265 ( 10964 PWs)   bands (ev):

  -108.5857 -56.9170 -56.9169 -56.9169  -4.6018  -0.5221  -0.4282  -0.4262
    -0.2184   0.0988   1.1941   4.2264   4.2596   8.1083   8.9175  14.0105
    14.6596  14.7260  16.4848  17.3975  17.5118  17.8977  20.5337  20.9864
    21.4353

          k = 0.0287 0.7071 0.0287 ( 10974 PWs)   bands (ev):

  -108.5857 -56.9170 -56.9169 -56.9169  -4.6018  -0.5220  -0.4284  -0.4260
    -0.2185   0.0994   1.1939   4.2221   4.2610   8.1121   8.9230  13.9998
    14.6486  14.7253  16.4892  17.3875  17.5132  17.9205  20.5391  20.9555
    21.4396

          k = 0.0309 0.7071 0.0309 ( 10978 PWs)   bands (ev):

  -108.5857 -56.9170 -56.9169 -56.9169  -4.6018  -0.5219  -0.4286  -0.4258
    -0.2187   0.1000   1.1936   4.2175   4.2625   8.1161   8.9290  13.9884
    14.6370  14.7243  16.4936  17.3780  17.5149  17.9437  20.5449  20.9245
    21.4441

          k = 0.0331 0.7071 0.0331 ( 10974 PWs)   bands (ev):

  -108.5857 -56.9170 -56.9169 -56.9169  -4.6018  -0.5218  -0.4288  -0.4256
    -0.2188   0.1008   1.1934   4.2125   4.2641   8.1203   8.9355  13.9765
    14.6247  14.7230  16.4980  17.3692  17.5169  17.9673  20.5511  20.8935
    21.4490

          k = 0.0354 0.7071 0.0354 ( 10974 PWs)   bands (ev):

  -108.5857 -56.9170 -56.9169 -56.9169  -4.6018  -0.5218  -0.4291  -0.4254
    -0.2190   0.1015   1.1931   4.2073   4.2658   8.1247   8.9424  13.9641
    14.6117  14.7213  16.5024  17.3610  17.5193  17.9913  20.5577  20.8625
    21.4542

          k = 0.0376 0.7071 0.0376 ( 10962 PWs)   bands (ev):

  -108.5857 -56.9170 -56.9169 -56.9169  -4.6018  -0.5217  -0.4293  -0.4251
    -0.2192   0.1023   1.1929   4.2018   4.2676   8.1293   8.9498  13.9512
    14.5980  14.7192  16.5066  17.3535  17.5221  18.0156  20.5646  20.8315
    21.4597

          k = 0.0398 0.7071 0.0398 ( 10962 PWs)   bands (ev):

  -108.5857 -56.9170 -56.9169 -56.9169  -4.6018  -0.5216  -0.4296  -0.4249
    -0.2194   0.1031   1.1926   4.1961   4.2695   8.1341   8.9577  13.9378
    14.5838  14.7166  16.5106  17.3466  17.5253  18.0402  20.5719  20.8005
    21.4656

          k = 0.0420 0.7071 0.0420 ( 10958 PWs)   bands (ev):

  -108.5857 -56.9170 -56.9169 -56.9169  -4.6018  -0.5215  -0.4299  -0.4246
    -0.2196   0.1040   1.1923   4.1900   4.2715   8.1391   8.9661  13.9239
    14.5689  14.7136  16.5145  17.3405  17.5290  18.0650  20.5795  20.7695
    21.4718

          k = 0.0442 0.7071 0.0442 ( 10970 PWs)   bands (ev):

  -108.5857 -56.9170 -56.9169 -56.9169  -4.6019  -0.5214  -0.4302  -0.4243
    -0.2198   0.1049   1.1919   4.1837   4.2737   8.1442   8.9750  13.9097
    14.5535  14.7101  16.5180  17.3351  17.5332  18.0901  20.5876  20.7385
    21.4684

          k = 0.0464 0.7071 0.0464 ( 10970 PWs)   bands (ev):

  -108.5857 -56.9170 -56.9169 -56.9169  -4.6019  -0.5214  -0.4305  -0.4239
    -0.2200   0.1059   1.1916   4.1771   4.2759   8.1495   8.9844  13.8951
    14.5376  14.7061  16.5211  17.3305  17.5381  18.1154  20.5959  20.7076
    21.4488

          k = 0.0486 0.7071 0.0486 ( 10970 PWs)   bands (ev):

  -108.5857 -56.9170 -56.9169 -56.9169  -4.6019  -0.5213  -0.4308  -0.4236
    -0.2203   0.1069   1.1913   4.1703   4.2783   8.1549   8.9943  13.8802
    14.5212  14.7015  16.5239  17.3266  17.5435  18.1408  20.6046  20.6767
    21.4281

          k = 0.0508 0.7071 0.0508 ( 10974 PWs)   bands (ev):

  -108.5857 -56.9170 -56.9169 -56.9169  -4.6019  -0.5212  -0.4311  -0.4232
    -0.2205   0.1079   1.1909   4.1633   4.2807   8.1604   9.0047  13.8650
    14.5043  14.6964  16.5262  17.3236  17.5495  18.1664  20.6136  20.6458
    21.4065

          k = 0.0530 0.7071 0.0530 ( 10974 PWs)   bands (ev):

  -108.5857 -56.9170 -56.9169 -56.9169  -4.6020  -0.5212  -0.4315  -0.4228
    -0.2208   0.1090   1.1905   4.1560   4.2833   8.1660   9.0156  13.8495
    14.4869  14.6907  16.5279  17.3213  17.5562  18.1922  20.6150  20.6229
    21.3839

          k = 0.0552 0.7071 0.0552 ( 10974 PWs)   bands (ev):

  -108.5857 -56.9170 -56.9169 -56.9169  -4.6020  -0.5211  -0.4319  -0.4224
    -0.2210   0.1101   1.1901   4.1485   4.2860   8.1717   9.0270  13.8338
    14.4692  14.6844  16.5291  17.3197  17.5636  18.2180  20.5843  20.6325
    21.3606

          k = 0.0575 0.7071 0.0575 ( 10974 PWs)   bands (ev):

  -108.5857 -56.9170 -56.9169 -56.9169  -4.6020  -0.5211  -0.4322  -0.4219
    -0.2213   0.1112   1.1897   4.1409   4.2887   8.1774   9.0389  13.8179
    14.4510  14.6774  16.5297  17.3190  17.5718  18.2439  20.5536  20.6424
    21.3366

          k = 0.0597 0.7071 0.0597 ( 10974 PWs)   bands (ev):

  -108.5857 -56.9170 -56.9169 -56.9169  -4.6021  -0.5210  -0.4326  -0.4214
    -0.2216   0.1124   1.1893   4.1330   4.2916   8.1832   9.0513  13.8018
    14.4325  14.6699  16.5297  17.3190  17.5807  18.2699  20.5229  20.6526
    21.3120

          k = 0.0619 0.7071 0.0619 ( 10974 PWs)   bands (ev):

  -108.5857 -56.9170 -56.9169 -56.9169  -4.6021  -0.5210  -0.4331  -0.4209
    -0.2219   0.1136   1.1889   4.1249   4.2946   8.1890   9.0643  13.7855
    14.4136  14.6617  16.5289  17.3198  17.5903  18.2960  20.4924  20.6631
    21.2869

          k = 0.0641 0.7071 0.0641 ( 10974 PWs)   bands (ev):

  -108.5857 -56.9170 -56.9169 -56.9169  -4.6021  -0.5209  -0.4335  -0.4203
    -0.2222   0.1148   1.1885   4.1167   4.2977   8.1949   9.0777  13.7691
    14.3943  14.6529  16.5275  17.3214  17.6008  18.3220  20.4619  20.6738
    21.2613

          k = 0.0663 0.7071 0.0663 ( 10974 PWs)   bands (ev):

  -108.5857 -56.9170 -56.9169 -56.9169  -4.6022  -0.5209  -0.4339  -0.4198
    -0.2225   0.1161   1.1880   4.1083   4.3009   8.2007   9.0917  13.7526
    14.3748  14.6435  16.5254  17.3237  17.6120  18.3481  20.4314  20.6848
    21.2353

          k = 0.0685 0.7071 0.0685 ( 10978 PWs)   bands (ev):

  -108.5857 -56.9170 -56.9169 -56.9169  -4.6022  -0.5209  -0.4344  -0.4192
    -0.2228   0.1173   1.1876   4.0997   4.3042   8.2066   9.1062  13.7360
    14.3550  14.6335  16.5226  17.3268  17.6241  18.3742  20.4011  20.6961
    21.2090

          k = 0.0707 0.7071 0.0707 ( 10992 PWs)   bands (ev):

  -108.5857 -56.9170 -56.9169 -56.9169  -4.6023  -0.5209  -0.4349  -0.4185
    -0.2232   0.1186   1.1871   4.0910   4.3076   8.2125   9.1212  13.7194
    14.3348  14.6228  16.5190  17.3306  17.6369  18.4002  20.3709  20.7076
    21.1823

          k = 0.0729 0.7071 0.0729 ( 10984 PWs)   bands (ev):

  -108.5857 -56.9170 -56.9169 -56.9169  -4.6023  -0.5209  -0.4353  -0.4179
    -0.2235   0.1200   1.1867   4.0822   4.3111   8.2183   9.1367  13.7026
    14.3145  14.6115  16.5146  17.3352  17.6505  18.4262  20.3407  20.7193
    21.1554

          k = 0.0751 0.7071 0.0751 ( 10984 PWs)   bands (ev):

  -108.5857 -56.9170 -56.9169 -56.9169  -4.6024  -0.5210  -0.4358  -0.4172
    -0.2239   0.1213   1.1862   4.0733   4.3147   8.2242   9.1527  13.6859
    14.2939  14.5995  16.5096  17.3404  17.6649  18.4521  20.3107  20.7313
    21.1283

          k = 0.0773 0.7071 0.0773 ( 10976 PWs)   bands (ev):

  -108.5857 -56.9170 -56.9169 -56.9169  -4.6025  -0.5210  -0.4364  -0.4164
    -0.2242   0.1227   1.1857   4.0642   4.3185   8.2300   9.1692  13.6692
    14.2730  14.5870  16.5038  17.3463  17.6801  18.4779  20.2807  20.7434
    21.1009

          k = 0.0795 0.7071 0.0795 ( 10976 PWs)   bands (ev):

  -108.5857 -56.9170 -56.9169 -56.9169  -4.6026  -0.5210  -0.4369  -0.4157
    -0.2246   0.1241   1.1853   4.0551   4.3223   8.2357   9.1862  13.6524
    14.2520  14.5738  16.4972  17.3529  17.6960  18.5036  20.2509  20.7558
    21.0735

          k = 0.0818 0.7071 0.0818 ( 10984 PWs)   bands (ev):

  -108.5857 -56.9170 -56.9169 -56.9169  -4.6026  -0.5211  -0.4374  -0.4149
    -0.2250   0.1255   1.1848   4.0458   4.3262   8.2414   9.2036  13.6357
    14.2308  14.5601  16.4900  17.3602  17.7127  18.5292  20.2211  20.7684
    21.0459

          k = 0.0840 0.7071 0.0840 ( 10984 PWs)   bands (ev):

  -108.5857 -56.9170 -56.9169 -56.9169  -4.6027  -0.5212  -0.4380  -0.4140
    -0.2253   0.1269   1.1843   4.0365   4.3302   8.2470   9.2215  13.6191
    14.2094  14.5458  16.4820  17.3681  17.7301  18.5546  20.1915  20.7812
    21.0182

          k = 0.0862 0.7071 0.0862 ( 10984 PWs)   bands (ev):

  -108.5857 -56.9170 -56.9169 -56.9169  -4.6028  -0.5213  -0.4385  -0.4132
    -0.2257   0.1283   1.1838   4.0271   4.3343   8.2526   9.2399  13.6025
    14.1878  14.5309  16.4734  17.3766  17.7482  18.5799  20.1620  20.7941
    20.9905

          k = 0.0884 0.7071 0.0884 ( 10974 PWs)   bands (ev):

  -108.5857 -56.9170 -56.9169 -56.9169  -4.6029  -0.5214  -0.4391  -0.4123
    -0.2261   0.1297   1.1833   4.0177   4.3386   8.2581   9.2588  13.5860
    14.1661  14.5154  16.4641  17.3857  17.7669  18.6050  20.1326  20.8072
    20.9627

          k = 0.0906 0.7071 0.0906 ( 11000 PWs)   bands (ev):

  -108.5857 -56.9170 -56.9169 -56.9169  -4.6030  -0.5215  -0.4397  -0.4113
    -0.2265   0.1312   1.1828   4.0082   4.3429   8.2635   9.2780  13.5695
    14.1442  14.4994  16.4542  17.3954  17.7863  18.6298  20.1034  20.8206
    20.9349

          k = 0.0928 0.7071 0.0928 ( 11000 PWs)   bands (ev):

  -108.5857 -56.9170 -56.9169 -56.9169  -4.6032  -0.5216  -0.4403  -0.4104
    -0.2270   0.1326   1.1824   3.9986   4.3473   8.2689   9.2978  13.5533
    14.1222  14.4829  16.4436  17.4056  17.8064  18.6544  20.0743  20.8340
    20.9071

          k = 0.0950 0.7071 0.0950 ( 11000 PWs)   bands (ev):

  -108.5857 -56.9170 -56.9169 -56.9169  -4.6033  -0.5218  -0.4410  -0.4094
    -0.2274   0.1340   1.1819   3.9891   4.3518   8.2742   9.3179  13.5371
    14.1001  14.4658  16.4324  17.4164  17.8270  18.6788  20.0454  20.8477
    20.8794

          k = 0.0972 0.7071 0.0972 ( 11000 PWs)   bands (ev):

  -108.5857 -56.9170 -56.9169 -56.9169  -4.6034  -0.5219  -0.4416  -0.4084
    -0.2278   0.1355   1.1814   3.9795   4.3564   8.2793   9.3384  13.5211
    14.0779  14.4483  16.4207  17.4276  17.8482  18.7028  20.0165  20.8517
    20.8615

          k = 0.0994 0.7071 0.0994 ( 11008 PWs)   bands (ev):

  -108.5857 -56.9170 -56.9169 -56.9169  -4.6035  -0.5221  -0.4423  -0.4073
    -0.2283   0.1369   1.1810   3.9699   4.3611   8.2844   9.3593  13.5052
    14.0555  14.4303  16.4084  17.4393  17.8700  18.7266  19.9879  20.8241
    20.8754

          k = 0.1016 0.7071 0.1016 ( 11008 PWs)   bands (ev):

  -108.5857 -56.9170 -56.9169 -56.9169  -4.6037  -0.5223  -0.4429  -0.4062
    -0.2287   0.1384   1.1805   3.9603   4.3659   8.2895   9.3807  13.4896
    14.0331  14.4118  16.3956  17.4515  17.8922  18.7500  19.9594  20.7965
    20.8895

          k = 0.1039 0.7071 0.1039 ( 11008 PWs)   bands (ev):

  -108.5857 -56.9170 -56.9169 -56.9169  -4.6039  -0.5225  -0.4436  -0.4051
    -0.2291   0.1398   1.1801   3.9508   4.3708   8.2944   9.4023  13.4741
    14.0106  14.3928  16.3823  17.4641  17.9150  18.7731  19.9311  20.7691
    20.9037

          k = 0.1061 0.7071 0.1061 ( 11004 PWs)   bands (ev):

  -108.5857 -56.9170 -56.9169 -56.9169  -4.6040  -0.5227  -0.4443  -0.4039
    -0.2296   0.1412   1.1797   3.9412   4.3758   8.2992   9.4243  13.4588
    13.9881  14.3734  16.3685  17.4771  17.9382  18.7957  19.9029  20.7418
    20.9180

          k = 0.1083 0.7071 0.1083 ( 11004 PWs)   bands (ev):

  -108.5857 -56.9170 -56.9169 -56.9169  -4.6042  -0.5230  -0.4450  -0.4027
    -0.2301   0.1426   1.1792   3.9317   4.3809   8.3040   9.4467  13.4438
    13.9654  14.3536  16.3542  17.4905  17.9619  18.8180  19.8750  20.7146
    20.9325

          k = 0.1105 0.7071 0.1105 ( 11004 PWs)   bands (ev):

  -108.5857 -56.9170 -56.9169 -56.9169  -4.6044  -0.5232  -0.4457  -0.4015
    -0.2305   0.1440   1.1789   3.9222   4.3861   8.3086   9.4694  13.4290
    13.9428  14.3334  16.3395  17.5042  17.9860  18.8398  19.8472  20.6876
    20.9471

          k = 0.1127 0.7071 0.1127 ( 11004 PWs)   bands (ev):

  -108.5857 -56.9170 -56.9169 -56.9169  -4.6046  -0.5235  -0.4465  -0.4003
    -0.2310   0.1454   1.1785   3.9128   4.3914   8.3132   9.4923  13.4144
    13.9200  14.3128  16.3244  17.5182  18.0105  18.8611  19.8197  20.6608
    20.9618

          k = 0.1149 0.7071 0.1149 ( 11008 PWs)   bands (ev):

  -108.5857 -56.9170 -56.9169 -56.9169  -4.6048  -0.5237  -0.4472  -0.3990
    -0.2315   0.1467   1.1781   3.9034   4.3968   8.3176   9.5156  13.4002
    13.8973  14.2918  16.3089  17.5326  18.0354  18.8819  19.7923  20.6342
    20.9766

          k = 0.1171 0.7071 0.1171 ( 11008 PWs)   bands (ev):

  -108.5857 -56.9170 -56.9169 -56.9169  -4.6050  -0.5240  -0.4480  -0.3977
    -0.2320   0.1480   1.1778   3.8941   4.4023   8.3220   9.5391  13.3862
    13.8745  14.2705  16.2930  17.5472  18.0606  18.9022  19.7652  20.6078
    20.9916

          k = 0.1193 0.7071 0.1193 ( 11018 PWs)   bands (ev):

  -108.5857 -56.9170 -56.9169 -56.9169  -4.6052  -0.5243  -0.4487  -0.3964
    -0.2325   0.1493   1.1775   3.8849   4.4078   8.3263   9.5629  13.3725
    13.8516  14.2488  16.2768  17.5620  18.0862  18.9220  19.7383  20.5817
    21.0066

          k = 0.1215 0.7071 0.1215 ( 11018 PWs)   bands (ev):

  -108.5857 -56.9170 -56.9169 -56.9169  -4.6055  -0.5246  -0.4495  -0.3950
    -0.2330   0.1506   1.1772   3.8757   4.4135   8.3305   9.5869  13.3591
    13.8288  14.2267  16.2602  17.5771  18.1121  18.9411  19.7116  20.5558
    21.0217

          k = 0.1237 0.7071 0.1237 ( 11018 PWs)   bands (ev):

  -108.5857 -56.9170 -56.9169 -56.9169  -4.6057  -0.5249  -0.4503  -0.3936
    -0.2335   0.1519   1.1770   3.8666   4.4192   8.3345   9.6111  13.3461
    13.8059  14.2044  16.2433  17.5924  18.1383  18.9595  19.6853  20.5302
    21.0369

          k = 0.1260 0.7071 0.1260 ( 11018 PWs)   bands (ev):

  -108.5857 -56.9170 -56.9169 -56.9169  -4.6060  -0.5253  -0.4511  -0.3922
    -0.2340   0.1531   1.1768   3.8577   4.4250   8.3385   9.6356  13.3335
    13.7830  14.1818  16.2261  17.6078  18.1648  18.9773  19.6591  20.5048
    21.0522

          k = 0.1282 0.7071 0.1282 ( 11032 PWs)   bands (ev):

  -108.5857 -56.9170 -56.9169 -56.9169  -4.6063  -0.5256  -0.4519  -0.3908
    -0.2345   0.1542   1.1766   3.8488   4.4310   8.3424   9.6602  13.3211
    13.7601  14.1589  16.2086  17.6234  18.1916  18.9944  19.6333  20.4798
    21.0676

          k = 0.1304 0.7071 0.1304 ( 11028 PWs)   bands (ev):

  -108.5857 -56.9170 -56.9169 -56.9169  -4.6066  -0.5260  -0.4528  -0.3893
    -0.2350   0.1553   1.1765   3.8400   4.4370   8.3463   9.6849  13.3092
    13.7372  14.1357  16.1909  17.6391  18.2186  19.0107  19.6078  20.4551
    21.0831

          k = 0.1326 0.7071 0.1326 ( 11028 PWs)   bands (ev):

  -108.5857 -56.9170 -56.9169 -56.9169  -4.6069  -0.5263  -0.4536  -0.3879
    -0.2355   0.1564   1.1765   3.8314   4.4431   8.3500   9.7099  13.2977
    13.7143  14.1122  16.1729  17.6548  18.2459  19.0263  19.5825  20.4308
    21.0987

          k = 0.1348 0.7071 0.1348 ( 11040 PWs)   bands (ev):

  -108.5857 -56.9170 -56.9169 -56.9169  -4.6072  -0.5267  -0.4545  -0.3864
    -0.2360   0.1574   1.1764   3.8229   4.4492   8.3536   9.7349  13.2866
    13.6914  14.0885  16.1547  17.6706  18.2733  19.0410  19.5577  20.4068
    21.1143

          k = 0.1370 0.7071 0.1370 ( 11036 PWs)   bands (ev):

  -108.5857 -56.9170 -56.9169 -56.9169  -4.6076  -0.5271  -0.4553  -0.3849
    -0.2366   0.1584   1.1764   3.8145   4.4555   8.3572   9.7600  13.2759
    13.6685  14.0646  16.1362  17.6864  18.3010  19.0548  19.5331  20.3833
    21.1300

          k = 0.1392 0.7071 0.1392 ( 11036 PWs)   bands (ev):

  -108.5857 -56.9170 -56.9169 -56.9169  -4.6079  -0.5275  -0.4562  -0.3833
    -0.2371   0.1594   1.1765   3.8062   4.4619   8.3606   9.7852  13.2657
    13.6457  14.0404  16.1176  17.7022  18.3289  19.0678  19.5090  20.3601
    21.1457

          k = 0.1414 0.7071 0.1414 ( 11036 PWs)   bands (ev):

  -108.5857 -56.9170 -56.9169 -56.9169  -4.6083  -0.5278  -0.4571  -0.3818
    -0.2376   0.1602   1.1767   3.7981   4.4683   8.3640   9.8105  13.2559
    13.6228  14.0160  16.0987  17.7180  18.3570  19.0797  19.4852  20.3373
    21.1615

          k = 0.1436 0.7071 0.1436 ( 11036 PWs)   bands (ev):

  -108.5857 -56.9170 -56.9169 -56.9169  -4.6087  -0.5283  -0.4580  -0.3802
    -0.2382   0.1610   1.1769   3.7902   4.4748   8.3672   9.8359  13.2466
    13.6000  13.9914  16.0797  17.7336  18.3852  19.0907  19.4619  20.3150
    21.1774

          k = 0.1458 0.7071 0.1458 ( 11036 PWs)   bands (ev):

  -108.5857 -56.9170 -56.9169 -56.9169  -4.6091  -0.5287  -0.4589  -0.3786
    -0.2387   0.1618   1.1771   3.7824   4.4814   8.3704   9.8612  13.2379
    13.5772  13.9667  16.0605  17.7492  18.4136  19.1007  19.4390  20.2931
    21.1933

          k = 0.1481 0.7071 0.1481 ( 11036 PWs)   bands (ev):

  -108.5857 -56.9170 -56.9169 -56.9169  -4.6095  -0.5291  -0.4599  -0.3770
    -0.2392   0.1624   1.1774   3.7748   4.4881   8.3735   9.8866  13.2296
    13.5545  13.9417  16.0411  17.7645  18.4422  19.1095  19.4166  20.2717
    21.2093

          k = 0.1503 0.7071 0.1503 ( 11032 PWs)   bands (ev):

  -108.5857 -56.9170 -56.9169 -56.9169  -4.6099  -0.5295  -0.4608  -0.3754
    -0.2398   0.1630   1.1778   3.7673   4.4949   8.3765   9.9119  13.2219
    13.5318  13.9166  16.0216  17.7797  18.4708  19.1173  19.3948  20.2508
    21.2253

          k = 0.1525 0.7071 0.1525 ( 11032 PWs)   bands (ev):

  -108.5857 -56.9170 -56.9169 -56.9169  -4.6104  -0.5299  -0.4618  -0.3738
    -0.2403   0.1636   1.1783   3.7600   4.5017   8.3794   9.9372  13.2147
    13.5091  13.8913  16.0020  17.7947  18.4997  19.1239  19.3734  20.2304
    21.2414

          k = 0.1547 0.7071 0.1547 ( 11040 PWs)   bands (ev):

  -108.5857 -56.9170 -56.9169 -56.9169  -4.6109  -0.5304  -0.4627  -0.3722
    -0.2409   0.1640   1.1789   3.7529   4.5086   8.3822   9.9625  13.2081
    13.4864  13.8659  15.9822  17.8093  18.5286  19.1294  19.3527  20.2104
    21.2575

          k = 0.1569 0.7071 0.1569 ( 11040 PWs)   bands (ev):

  -108.5857 -56.9170 -56.9169 -56.9169  -4.6114  -0.5308  -0.4637  -0.3706
    -0.2414   0.1644   1.1795   3.7460   4.5156   8.3850   9.9877  13.2021
    13.4638  13.8403  15.9623  17.8237  18.5577  19.1336  19.3326  20.1909
    21.2736

          k = 0.1591 0.7071 0.1591 ( 11040 PWs)   bands (ev):

  -108.5857 -56.9170 -56.9169 -56.9169  -4.6119  -0.5312  -0.4647  -0.3689
    -0.2420   0.1647   1.1803   3.7392   4.5227   8.3876  10.0127  13.1967
    13.4413  13.8146  15.9423  17.8376  18.5868  19.1366  19.3132  20.1720
    21.2897

          k = 0.1613 0.7071 0.1613 ( 11038 PWs)   bands (ev):

  -108.5857 -56.9170 -56.9169 -56.9169  -4.6124  -0.5317  -0.4657  -0.3673
    -0.2426   0.1649   1.1811   3.7327   4.5299   8.3901  10.0377  13.1919
    13.4188  13.7888  15.9221  17.8512  18.6161  19.1383  19.2945  20.1535
    21.3059

          k = 0.1635 0.7071 0.1635 ( 11038 PWs)   bands (ev):

  -108.5857 -56.9170 -56.9169 -56.9169  -4.6130  -0.5321  -0.4667  -0.3656
    -0.2431   0.1650   1.1820   3.7263   4.5371   8.3926  10.0625  13.1878
    13.3963  13.7628  15.9019  17.8643  18.6454  19.1387  19.2765  20.1354
    21.3221

          k = 0.1657 0.7071 0.1657 ( 11036 PWs)   bands (ev):

  -108.5857 -56.9170 -56.9169 -56.9169  -4.6135  -0.5326  -0.4677  -0.3640
    -0.2437   0.1650   1.1830   3.7202   4.5444   8.3950  10.0872  13.1843
    13.3739  13.7367  15.8816  17.8768  18.6748  19.1379  19.2594  20.1178
    21.3383

          k = 0.1679 0.7071 0.1679 ( 11040 PWs)   bands (ev):

  -108.5857 -56.9170 -56.9169 -56.9169  -4.6141  -0.5331  -0.4687  -0.3623
    -0.2442   0.1649   1.1842   3.7143   4.5518   8.3972  10.1117  13.1815
    13.3516  13.7106  15.8613  17.8888  18.7043  19.1358  19.2431  20.1007
    21.3545

          k = 0.1701 0.7071 0.1701 ( 11040 PWs)   bands (ev):

  -108.5857 -56.9170 -56.9169 -56.9169  -4.6147  -0.5335  -0.4697  -0.3606
    -0.2448   0.1647   1.1854   3.7085   4.5592   8.3994  10.1360  13.1794
    13.3293  13.6843  15.8408  17.9002  18.7339  19.1324  19.2276  20.0839
    21.3707

          k = 0.1724 0.7071 0.1724 ( 11024 PWs)   bands (ev):

  -108.5857 -56.9170 -56.9169 -56.9169  -4.6154  -0.5340  -0.4708  -0.3590
    -0.2454   0.1644   1.1867   3.7030   4.5668   8.4015  10.1601  13.1780
    13.3070  13.6580  15.8204  17.9108  18.7635  19.1279  19.2130  20.0676
    21.3870

          k = 0.1746 0.7071 0.1746 ( 11016 PWs)   bands (ev):

  -108.5857 -56.9170 -56.9169 -56.9169  -4.6160  -0.5344  -0.4718  -0.3573
    -0.2459   0.1640   1.1882   3.6977   4.5744   8.4035  10.1839  13.1773
    13.2849  13.6315  15.7998  17.9208  18.7932  19.1223  19.1993  20.0515
    21.4032

          k = 0.1768 0.7071 0.1768 ( 11012 PWs)   bands (ev):

  -108.5857 -56.9170 -56.9169 -56.9169  -4.6167  -0.5349  -0.4729  -0.3556
    -0.2465   0.1635   1.1898   3.6927   4.5820   8.4054  10.2075  13.1774
    13.2628  13.6050  15.7792  17.9299  18.8229  19.1157  19.1863  20.0358
    21.4194

          k = 0.1856 0.7027 0.1724 ( 11027 PWs)   bands (ev):

  -108.5857 -56.9170 -56.9169 -56.9169  -4.6174  -0.5353  -0.4741  -0.3539
    -0.2472   0.1629   1.1916   3.6885   4.5881   8.4097  10.2316  13.1706
    13.2189  13.6053  15.7624  17.9353  18.8273  19.0958  19.2096  20.0243
    21.4391

          k = 0.1945 0.6983 0.1679 ( 11024 PWs)   bands (ev):

  -108.5857 -56.9170 -56.9169 -56.9169  -4.6182  -0.5356  -0.4754  -0.3519
    -0.2480   0.1622   1.1938   3.6859   4.5911   8.4187  10.2569  13.1110
    13.1852  13.6435  15.7534  17.9341  18.7863  19.0776  19.2715  20.0213
    21.4659

          k = 0.2033 0.6938 0.1635 ( 11018 PWs)   bands (ev):

  -108.5857 -56.9170 -56.9169 -56.9169  -4.6189  -0.5357  -0.4769  -0.3498
    -0.2490   0.1614   1.1962   3.6848   4.5909   8.4324  10.2834  13.0069
    13.1758  13.6978  15.7521  17.9265  18.7189  19.0673  19.3462  20.0266
    21.4998

          k = 0.2121 0.6894 0.1591 ( 11018 PWs)   bands (ev):

  -108.5857 -56.9170 -56.9169 -56.9169  -4.6197  -0.5357  -0.4785  -0.3476
    -0.2502   0.1605   1.1988   3.6854   4.5877   8.4504  10.3111  12.8921
    13.1674  13.7574  15.7585  17.9125  18.6400  19.0607  19.4232  20.0400
    21.5409

          k = 0.2210 0.6850 0.1547 ( 11009 PWs)   bands (ev):

  -108.5857 -56.9170 -56.9169 -56.9169  -4.6204  -0.5356  -0.4802  -0.3452
    -0.2515   0.1596   1.2015   3.6873   4.5816   8.4725  10.3399  12.7735
    13.1584  13.8178  15.7727  17.8921  18.5566  19.0556  19.4978  20.0605
    21.5888

          k = 0.2298 0.6806 0.1503 ( 11012 PWs)   bands (ev):

  -108.5857 -56.9170 -56.9169 -56.9169  -4.6212  -0.5353  -0.4820  -0.3427
    -0.2531   0.1586   1.2044   3.6907   4.5731   8.4982  10.3698  12.6535
    13.1485  13.8767  15.7945  17.8654  18.4723  19.0517  19.5677  20.0872
    21.6431

          k = 0.2386 0.6762 0.1458 ( 11010 PWs)   bands (ev):

  -108.5857 -56.9170 -56.9169 -56.9169  -4.6219  -0.5349  -0.4839  -0.3402
    -0.2548   0.1577   1.2073   3.6955   4.5622   8.5269  10.4010  12.5337
    13.1380  13.9330  15.8237  17.8322  18.3893  19.0488  19.6325  20.1186
    21.7024

          k = 0.2475 0.6718 0.1414 ( 11006 PWs)   bands (ev):

  -108.5857 -56.9170 -56.9169 -56.9169  -4.6226  -0.5344  -0.4859  -0.3375
    -0.2566   0.1568   1.2102   3.7014   4.5494   8.5582  10.4333  12.4149
    13.1268  13.9859  15.8600  17.7924  18.3093  19.0471  19.6920  20.1530
    21.7638

          k = 0.2563 0.6673 0.1370 ( 11008 PWs)   bands (ev):

  -108.5857 -56.9170 -56.9169 -56.9169  -4.6233  -0.5339  -0.4878  -0.3347
    -0.2586   0.1559   1.2130   3.7084   4.5350   8.5913  10.4669  12.2980
    13.1154  14.0351  15.9030  17.7459  18.2338  19.0463  19.7470  20.1889
    21.8178

          k = 0.2652 0.6629 0.1326 ( 11000 PWs)   bands (ev):

  -108.5857 -56.9170 -56.9169 -56.9169  -4.6239  -0.5332  -0.4898  -0.3319
    -0.2607   0.1550   1.2157   3.7163   4.5195   8.6255  10.5017  12.1836
    13.1040  14.0802  15.9522  17.6923  18.1643  19.0464  19.7979  20.2248
    21.8283

          k = 0.2740 0.6585 0.1282 ( 11000 PWs)   bands (ev):

  -108.5857 -56.9170 -56.9169 -56.9169  -4.6245  -0.5324  -0.4917  -0.3291
    -0.2629   0.1542   1.2183   3.7249   4.5032   8.6601  10.5380  12.0723
    13.0927  14.1211  16.0069  17.6319  18.1018  19.0472  19.8454  20.2598
    21.7788

          k = 0.2828 0.6541 0.1237 ( 10996 PWs)   bands (ev):

  -108.5857 -56.9170 -56.9169 -56.9169  -4.6251  -0.5316  -0.4936  -0.3263
    -0.2652   0.1534   1.2207   3.7339   4.4866   8.6943  10.5756  11.9651
    13.0818  14.1576  16.0666  17.5654  18.0469  19.0485  19.8897  20.2930
    21.7117

          k = 0.2917 0.6497 0.1193 ( 10998 PWs)   bands (ev):

  -108.5857 -56.9170 -56.9169 -56.9169  -4.6256  -0.5307  -0.4954  -0.3235
    -0.2675   0.1527   1.2229   3.7430   4.4703   8.7271  10.6144  11.8625
    13.0716  14.1898  16.1301  17.4938  17.9997  19.0503  19.9308  20.3238
    21.6431

          k = 0.3005 0.6452 0.1149 ( 10997 PWs)   bands (ev):

  -108.5857 -56.9170 -56.9169 -56.9169  -4.6260  -0.5299  -0.4971  -0.3208
    -0.2698   0.1521   1.2249   3.7520   4.4546   8.7578  10.6541  11.7656
    13.0622  14.2176  16.1964  17.4190  17.9599  19.0521  19.9684  20.3520
    21.5775

          k = 0.3094 0.6408 0.1105 ( 10994 PWs)   bands (ev):

  -108.5857 -56.9170 -56.9169 -56.9169  -4.6264  -0.5290  -0.4987  -0.3182
    -0.2720   0.1516   1.2266   3.7606   4.4402   8.7855  10.6942  11.6758
    13.0539  14.2410  16.2640  17.3431  17.9271  19.0540  20.0019  20.3773
    21.5174

          k = 0.3182 0.6364 0.1061 ( 10993 PWs)   bands (ev):

  -108.5857 -56.9170 -56.9169 -56.9169  -4.6267  -0.5282  -0.5001  -0.3158
    -0.2741   0.1512   1.2280   3.7682   4.4275   8.8094  10.7336  11.5946
    13.0469  14.2601  16.3308  17.2688  17.9008  19.0558  20.0309  20.3992
    21.4647

          k = 0.3270 0.6320 0.1016 ( 10996 PWs)   bands (ev):

  -108.5857 -56.9170 -56.9169 -56.9169  -4.6269  -0.5275  -0.5013  -0.3137
    -0.2760   0.1508   1.2291   3.7746   4.4170   8.8289  10.7704  11.5246
    13.0413  14.2750  16.3936  17.1997  17.8806  19.0572  20.0544  20.4174
    21.4211

          k = 0.3359 0.6276 0.0972 ( 10995 PWs)   bands (ev):

  -108.5857 -56.9170 -56.9169 -56.9169  -4.6271  -0.5269  -0.5022  -0.3121
    -0.2775   0.1506   1.2299   3.7795   4.4092   8.8432  10.8017  11.4694
    13.0371  14.2856  16.4476  17.1410  17.8664  19.0583  20.0717  20.4311
    21.3883

          k = 0.3447 0.6231 0.0928 ( 10993 PWs)   bands (ev):

  -108.5857 -56.9170 -56.9169 -56.9169  -4.6272  -0.5266  -0.5027  -0.3110
    -0.2785   0.1504   1.2304   3.7825   4.4044   8.8520  10.8232  11.4332
    13.0346  14.2919  16.4856  17.1001  17.8579  19.0590  20.0824  20.4397
    21.3679

          k = 0.3536 0.6187 0.0884 ( 10982 PWs)   bands (ev):

  -108.5857 -56.9170 -56.9169 -56.9169  -4.6273  -0.5264  -0.5029  -0.3106
    -0.2788   0.1504   1.2306   3.7836   4.4027   8.8550  10.8310  11.4205
    13.0338  14.2940  16.4995  17.0852  17.8551  19.0593  20.0860  20.4426
    21.3610

          k = 0.3624 0.6143 0.0840 ( 10993 PWs)   bands (ev):

  -108.5857 -56.9170 -56.9169 -56.9169  -4.6272  -0.5266  -0.5027  -0.3110
    -0.2785   0.1504   1.2304   3.7825   4.4044   8.8520  10.8232  11.4332
    13.0346  14.2919  16.4856  17.1001  17.8579  19.0590  20.0824  20.4397
    21.3679

          k = 0.3712 0.6099 0.0795 ( 10995 PWs)   bands (ev):

  -108.5857 -56.9170 -56.9169 -56.9169  -4.6271  -0.5269  -0.5022  -0.3121
    -0.2775   0.1506   1.2299   3.7795   4.4092   8.8432  10.8017  11.4694
    13.0371  14.2856  16.4476  17.1410  17.8664  19.0583  20.0717  20.4311
    21.3883

          k = 0.3801 0.6055 0.0751 ( 10996 PWs)   bands (ev):

  -108.5857 -56.9170 -56.9169 -56.9169  -4.6269  -0.5275  -0.5013  -0.3137
    -0.2760   0.1508   1.2291   3.7746   4.4170   8.8289  10.7704  11.5246
    13.0413  14.2750  16.3936  17.1997  17.8806  19.0572  20.0544  20.4174
    21.4211

          k = 0.3889 0.6010 0.0707 ( 10993 PWs)   bands (ev):

  -108.5857 -56.9170 -56.9169 -56.9169  -4.6267  -0.5282  -0.5001  -0.3158
    -0.2741   0.1512   1.2280   3.7682   4.4275   8.8094  10.7336  11.5946
    13.0469  14.2601  16.3308  17.2688  17.9008  19.0558  20.0309  20.3992
    21.4647

          k = 0.3977 0.5966 0.0663 ( 10994 PWs)   bands (ev):

  -108.5857 -56.9170 -56.9169 -56.9169  -4.6264  -0.5290  -0.4987  -0.3182
    -0.2720   0.1516   1.2266   3.7606   4.4402   8.7855  10.6942  11.6758
    13.0539  14.2410  16.2640  17.3431  17.9271  19.0540  20.0019  20.3773
    21.5174

          k = 0.4066 0.5922 0.0619 ( 10997 PWs)   bands (ev):

  -108.5857 -56.9170 -56.9169 -56.9169  -4.6260  -0.5299  -0.4971  -0.3208
    -0.2698   0.1521   1.2249   3.7520   4.4546   8.7578  10.6541  11.7656
    13.0622  14.2176  16.1964  17.4190  17.9599  19.0521  19.9684  20.3520
    21.5775

          k = 0.4154 0.5878 0.0575 ( 10998 PWs)   bands (ev):

  -108.5857 -56.9170 -56.9169 -56.9169  -4.6256  -0.5307  -0.4954  -0.3235
    -0.2675   0.1527   1.2229   3.7430   4.4703   8.7271  10.6144  11.8625
    13.0716  14.1898  16.1301  17.4938  17.9997  19.0503  19.9308  20.3238
    21.6431

          k = 0.4243 0.5834 0.0530 ( 10996 PWs)   bands (ev):

  -108.5857 -56.9170 -56.9169 -56.9169  -4.6251  -0.5316  -0.4936  -0.3263
    -0.2652   0.1534   1.2207   3.7339   4.4866   8.6943  10.5756  11.9651
    13.0818  14.1576  16.0666  17.5654  18.0469  19.0485  19.8897  20.2930
    21.7117

          k = 0.4331 0.5789 0.0486 ( 11000 PWs)   bands (ev):

  -108.5857 -56.9170 -56.9169 -56.9169  -4.6245  -0.5324  -0.4917  -0.3291
    -0.2629   0.1542   1.2183   3.7249   4.5032   8.6601  10.5380  12.0723
    13.0927  14.1211  16.0069  17.6319  18.1018  19.0472  19.8454  20.2598
    21.7788

          k = 0.4419 0.5745 0.0442 ( 11000 PWs)   bands (ev):

  -108.5857 -56.9170 -56.9169 -56.9169  -4.6239  -0.5332  -0.4898  -0.3319
    -0.2607   0.1550   1.2157   3.7163   4.5195   8.6255  10.5017  12.1836
    13.1040  14.0802  15.9522  17.6923  18.1643  19.0464  19.7979  20.2248
    21.8283

          k = 0.4508 0.5701 0.0398 ( 11008 PWs)   bands (ev):

  -108.5857 -56.9170 -56.9169 -56.9169  -4.6233  -0.5339  -0.4878  -0.3347
    -0.2586   0.1559   1.2130   3.7084   4.5350   8.5913  10.4669  12.2980
    13.1154  14.0351  15.9030  17.7459  18.2338  19.0463  19.7470  20.1889
    21.8178

          k = 0.4596 0.5657 0.0354 ( 11006 PWs)   bands (ev):

  -108.5857 -56.9170 -56.9169 -56.9169  -4.6226  -0.5344  -0.4859  -0.3375
    -0.2566   0.1568   1.2102   3.7014   4.5494   8.5582  10.4333  12.4149
    13.1268  13.9859  15.8600  17.7924  18.3093  19.0471  19.6920  20.1530
    21.7638

          k = 0.4685 0.5613 0.0309 ( 11010 PWs)   bands (ev):

  -108.5857 -56.9170 -56.9169 -56.9169  -4.6219  -0.5349  -0.4839  -0.3402
    -0.2548   0.1577   1.2073   3.6955   4.5622   8.5269  10.4010  12.5337
    13.1380  13.9330  15.8237  17.8322  18.3893  19.0488  19.6325  20.1186
    21.7024

          k = 0.4773 0.5568 0.0265 ( 11012 PWs)   bands (ev):

  -108.5857 -56.9170 -56.9169 -56.9169  -4.6212  -0.5353  -0.4820  -0.3427
    -0.2531   0.1586   1.2044   3.6907   4.5731   8.4982  10.3698  12.6535
    13.1485  13.8767  15.7945  17.8654  18.4723  19.0517  19.5677  20.0872
    21.6431

          k = 0.4861 0.5524 0.0221 ( 11009 PWs)   bands (ev):

  -108.5857 -56.9170 -56.9169 -56.9169  -4.6204  -0.5356  -0.4802  -0.3452
    -0.2515   0.1596   1.2015   3.6873   4.5816   8.4725  10.3399  12.7735
    13.1584  13.8178  15.7727  17.8921  18.5566  19.0556  19.4978  20.0605
    21.5888

          k = 0.4950 0.5480 0.0177 ( 11018 PWs)   bands (ev):

  -108.5857 -56.9170 -56.9169 -56.9169  -4.6197  -0.5357  -0.4785  -0.3476
    -0.2502   0.1605   1.1988   3.6854   4.5877   8.4504  10.3111  12.8921
    13.1674  13.7574  15.7585  17.9125  18.6400  19.0607  19.4232  20.0400
    21.5409

          k = 0.5038 0.5436 0.0133 ( 11018 PWs)   bands (ev):

  -108.5857 -56.9170 -56.9169 -56.9169  -4.6189  -0.5357  -0.4769  -0.3498
    -0.2490   0.1614   1.1962   3.6848   4.5909   8.4324  10.2834  13.0069
    13.1758  13.6978  15.7521  17.9265  18.7189  19.0673  19.3462  20.0266
    21.4998

          k = 0.5127 0.5392 0.0088 ( 11024 PWs)   bands (ev):

  -108.5857 -56.9170 -56.9169 -56.9169  -4.6182  -0.5356  -0.4754  -0.3519
    -0.2480   0.1622   1.1938   3.6859   4.5911   8.4187  10.2569  13.1110
    13.1852  13.6435  15.7534  17.9341  18.7863  19.0776  19.2715  20.0213
    21.4659

          k = 0.5215 0.5347 0.0044 ( 11027 PWs)   bands (ev):

  -108.5857 -56.9170 -56.9169 -56.9169  -4.6174  -0.5353  -0.4741  -0.3539
    -0.2472   0.1629   1.1916   3.6885   4.5881   8.4097  10.2316  13.1706
    13.2189  13.6053  15.7624  17.9353  18.8273  19.0958  19.2096  20.0243
    21.4391

          k = 0.5303 0.5303 0.0000 ( 11012 PWs)   bands (ev):

  -108.5857 -56.9170 -56.9169 -56.9169  -4.6167  -0.5349  -0.4729  -0.3556
    -0.2465   0.1635   1.1898   3.6927   4.5820   8.4054  10.2075  13.1774
    13.2628  13.6050  15.7792  17.9299  18.8229  19.1157  19.1863  20.0358
    21.4194

          k = 0.5289 0.5289-0.0000 ( 11020 PWs)   bands (ev):

  -108.5857 -56.9170 -56.9169 -56.9169  -4.6172  -0.5352  -0.4736  -0.3545
    -0.2469   0.1631   1.1909   3.6894   4.5872   8.4066  10.2231  13.1779
    13.2481  13.5873  15.7655  17.9355  18.8428  19.1108  19.1781  20.0254
    21.4302

          k = 0.5274 0.5274 0.0000 ( 11020 PWs)   bands (ev):

  -108.5857 -56.9170 -56.9169 -56.9169  -4.6177  -0.5355  -0.4743  -0.3534
    -0.2473   0.1627   1.1921   3.6862   4.5924   8.4078  10.2385  13.1787
    13.2334  13.5696  15.7517  17.9407  18.8627  19.1056  19.1702  20.0152
    21.4410

          k = 0.5259 0.5259 0.0000 ( 11020 PWs)   bands (ev):

  -108.5857 -56.9170 -56.9169 -56.9169  -4.6182  -0.5358  -0.4750  -0.3523
    -0.2476   0.1622   1.1934   3.6832   4.5976   8.4089  10.2538  13.1799
    13.2188  13.5519  15.7379  17.9455  18.8825  19.1001  19.1625  20.0050
    21.4518

          k = 0.5244 0.5244-0.0000 ( 11020 PWs)   bands (ev):

  -108.5857 -56.9170 -56.9169 -56.9169  -4.6187  -0.5362  -0.4758  -0.3512
    -0.2480   0.1616   1.1947   3.6802   4.6028   8.4100  10.2690  13.1814
    13.2042  13.5341  15.7241  17.9499  18.9024  19.0944  19.1552  19.9949
    21.4626

          k = 0.5230 0.5230 0.0000 ( 11020 PWs)   bands (ev):

  -108.5857 -56.9170 -56.9169 -56.9169  -4.6192  -0.5365  -0.4765  -0.3501
    -0.2484   0.1610   1.1961   3.6774   4.6081   8.4111  10.2840  13.1833
    13.1896  13.5163  15.7103  17.9538  18.9223  19.0884  19.1481  19.9848
    21.4734

          k = 0.5215 0.5215 0.0000 ( 11020 PWs)   bands (ev):

  -108.5857 -56.9170 -56.9169 -56.9169  -4.6197  -0.5368  -0.4772  -0.3490
    -0.2488   0.1604   1.1975   3.6746   4.6134   8.4121  10.2989  13.1750
    13.1856  13.4984  15.6965  17.9573  18.9423  19.0821  19.1414  19.9748
    21.4842

          k = 0.5200 0.5200-0.0000 ( 11020 PWs)   bands (ev):

  -108.5857 -56.9170 -56.9169 -56.9169  -4.6202  -0.5371  -0.4780  -0.3479
    -0.2492   0.1597   1.1990   3.6720   4.6187   8.4130  10.3137  13.1605
    13.1882  13.4806  15.6827  17.9603  18.9622  19.0756  19.1350  19.9648
    21.4949

          k = 0.5185 0.5185 0.0000 ( 11016 PWs)   bands (ev):

  -108.5857 -56.9170 -56.9169 -56.9169  -4.6207  -0.5374  -0.4787  -0.3468
    -0.2495   0.1589   1.2005   3.6694   4.6241   8.4139  10.3282  13.1460
    13.1912  13.4627  15.6688  17.9629  18.9821  19.0687  19.1291  19.9548
    21.5057

          k = 0.5171 0.5171 0.0000 ( 11014 PWs)   bands (ev):

  -108.5857 -56.9170 -56.9169 -56.9169  -4.6213  -0.5377  -0.4795  -0.3457
    -0.2499   0.1581   1.2022   3.6670   4.6295   8.4148  10.3427  13.1316
    13.1945  13.4448  15.6550  17.9649  19.0021  19.0616  19.1236  19.9449
    21.5164

          k = 0.5156 0.5156-0.0000 ( 11014 PWs)   bands (ev):

  -108.5857 -56.9170 -56.9169 -56.9169  -4.6219  -0.5380  -0.4802  -0.3446
    -0.2503   0.1572   1.2039   3.6647   4.6349   8.4156  10.3569  13.1172
    13.1983  13.4269  15.6412  17.9664  19.0221  19.0540  19.1186  19.9349
    21.5271

          k = 0.5141 0.5141 0.0000 ( 11014 PWs)   bands (ev):

  -108.5857 -56.9170 -56.9169 -56.9169  -4.6224  -0.5384  -0.4810  -0.3435
    -0.2507   0.1563   1.2056   3.6625   4.6404   8.4164  10.3710  13.1028
    13.2024  13.4090  15.6274  17.9674  19.0420  19.0461  19.1142  19.9248
    21.5378

          k = 0.5127 0.5127 0.0000 ( 11014 PWs)   bands (ev):

  -108.5857 -56.9170 -56.9169 -56.9169  -4.6230  -0.5387  -0.4817  -0.3425
    -0.2510   0.1553   1.2074   3.6603   4.6458   8.4171  10.3849  13.0884
    13.2069  13.3911  15.6135  17.9679  19.0377  19.0620  19.1105  19.9148
    21.5485

          k = 0.5112 0.5112-0.0000 ( 11014 PWs)   bands (ev):

  -108.5857 -56.9170 -56.9169 -56.9169  -4.6236  -0.5390  -0.4825  -0.3414
    -0.2514   0.1542   1.2093   3.6583   4.6513   8.4178  10.3986  13.0741
    13.2118  13.3732  15.5997  17.9679  19.0289  19.0820  19.1073  19.9047
    21.5592

          k = 0.5097 0.5097 0.0000 ( 11014 PWs)   bands (ev):

  -108.5857 -56.9170 -56.9169 -56.9169  -4.6242  -0.5393  -0.4832  -0.3403
    -0.2518   0.1531   1.2113   3.6564   4.6569   8.4184  10.4122  13.0599
    13.2171  13.3553  15.5859  17.9674  19.0197  19.1020  19.1047  19.8945
    21.5698

          k = 0.5082 0.5082 0.0000 ( 11014 PWs)   bands (ev):

  -108.5857 -56.9170 -56.9169 -56.9169  -4.6249  -0.5396  -0.4840  -0.3392
    -0.2522   0.1520   1.2133   3.6547   4.6624   8.4190  10.4255  13.0456
    13.2228  13.3373  15.5721  17.9663  19.0101  19.1028  19.1219  19.8842
    21.5804

          k = 0.5068 0.5068-0.0000 ( 11018 PWs)   bands (ev):

  -108.5857 -56.9170 -56.9169 -56.9169  -4.6255  -0.5399  -0.4848  -0.3382
    -0.2526   0.1508   1.2155   3.6530   4.6680   8.4195  10.4387  13.0314
    13.2288  13.3194  15.5583  17.9647  19.0001  19.1015  19.1419  19.8739
    21.5910

          k = 0.5053 0.5053 0.0000 ( 11024 PWs)   bands (ev):

  -108.5857 -56.9170 -56.9169 -56.9169  -4.6261  -0.5403  -0.4855  -0.3371
    -0.2529   0.1495   1.2177   3.6514   4.6736   8.4200  10.4517  13.0172
    13.2353  13.3015  15.5445  17.9626  18.9897  19.1008  19.1619  19.8635
    21.6016

          k = 0.5038 0.5038 0.0000 ( 11020 PWs)   bands (ev):

  -108.5857 -56.9170 -56.9169 -56.9169  -4.6268  -0.5406  -0.4863  -0.3361
    -0.2533   0.1482   1.2199   3.6499   4.6793   8.4205  10.4645  13.0031
    13.2421  13.2836  15.5307  17.9600  18.9790  19.1007  19.1819  19.8530
    21.6121

          k = 0.5023 0.5023-0.0000 ( 11016 PWs)   bands (ev):

  -108.5857 -56.9170 -56.9169 -56.9169  -4.6275  -0.5409  -0.4871  -0.3351
    -0.2537   0.1468   1.2223   3.6486   4.6849   8.4209  10.4771  12.9890
    13.2491  13.2659  15.5169  17.9568  18.9680  19.1011  19.2019  19.8424
    21.6227

          k = 0.5009 0.5009 0.0000 ( 11016 PWs)   bands (ev):

  -108.5857 -56.9170 -56.9169 -56.9169  -4.6281  -0.5412  -0.4879  -0.3340
    -0.2541   0.1453   1.2247   3.6474   4.6906   8.4212  10.4895  12.9750
    13.2467  13.2581  15.5031  17.9532  18.9567  19.1020  19.2219  19.8318
    21.6332

          k = 0.4994 0.4994 0.0000 ( 11016 PWs)   bands (ev):

  -108.5857 -56.9170 -56.9169 -56.9169  -4.6288  -0.5415  -0.4887  -0.3330
    -0.2544   0.1438   1.2272   3.6462   4.6963   8.4215  10.5017  12.9609
    13.2292  13.2656  15.4894  17.9490  18.9451  19.1034  19.2418  19.8210
    21.6436

          k = 0.4979 0.4979-0.0000 ( 11016 PWs)   bands (ev):

  -108.5857 -56.9170 -56.9169 -56.9169  -4.6295  -0.5418  -0.4895  -0.3320
    -0.2548   0.1423   1.2297   3.6452   4.7020   8.4217  10.5137  12.9469
    13.2114  13.2741  15.4756  17.9444  18.9332  19.1052  19.2618  19.8102
    21.6541

          k = 0.4964 0.4964 0.0000 ( 11012 PWs)   bands (ev):

  -108.5857 -56.9170 -56.9169 -56.9169  -4.6303  -0.5421  -0.4903  -0.3310
    -0.2552   0.1406   1.2324   3.6443   4.7078   8.4219  10.5255  12.9330
    13.1934  13.2829  15.4619  17.9393  18.9211  19.1075  19.2818  19.7992
    21.6645

          k = 0.4950 0.4950 0.0000 ( 11016 PWs)   bands (ev):

  -108.5857 -56.9170 -56.9169 -56.9169  -4.6310  -0.5424  -0.4911  -0.3300
    -0.2555   0.1390   1.2351   3.6435   4.7136   8.4221  10.5371  12.9191
    13.1755  13.2923  15.4482  17.9337  18.9087  19.1101  19.3018  19.7883
    21.6749

          k = 0.4935 0.4935-0.0000 ( 11012 PWs)   bands (ev):

  -108.5857 -56.9170 -56.9169 -56.9169  -4.6317  -0.5428  -0.4918  -0.3290
    -0.2559   0.1372   1.2379   3.6429   4.7194   8.4222  10.5485  12.9052
    13.1575  13.3020  15.4345  17.9277  18.8962  19.1131  19.3217  19.7772
    21.6853

          k = 0.4920 0.4920 0.0000 ( 11016 PWs)   bands (ev):

  -108.5857 -56.9170 -56.9169 -56.9169  -4.6325  -0.5431  -0.4927  -0.3280
    -0.2563   0.1354   1.2408   3.6423   4.7252   8.4222  10.5597  12.8914
    13.1396  13.3121  15.4209  17.9212  18.8835  19.1165  19.3417  19.7661
    21.6956

          k = 0.4906 0.4906 0.0000 ( 11016 PWs)   bands (ev):

  -108.5857 -56.9170 -56.9169 -56.9169  -4.6333  -0.5434  -0.4935  -0.3270
    -0.2567   0.1335   1.2438   3.6418   4.7311   8.4222  10.5706  12.8776
    13.1217  13.3227  15.4072  17.9143  18.8705  19.1201  19.3616  19.7550
    21.7059

          k = 0.4891 0.4891-0.0000 ( 11004 PWs)   bands (ev):

  -108.5857 -56.9170 -56.9169 -56.9169  -4.6341  -0.5437  -0.4943  -0.3260
    -0.2570   0.1316   1.2469   3.6415   4.7370   8.4221  10.5814  12.8639
    13.1037  13.3336  15.3936  17.9070  18.8574  19.1239  19.3816  19.7439
    21.7161

          k = 0.4876 0.4876 0.0000 ( 10996 PWs)   bands (ev):

  -108.5857 -56.9170 -56.9169 -56.9169  -4.6349  -0.5440  -0.4951  -0.3251
    -0.2574   0.1296   1.2500   3.6413   4.7429   8.4220  10.5920  12.8501
    13.0858  13.3450  15.3800  17.8993  18.8441  19.1279  19.4015  19.7329
    21.7263

          k = 0.4861 0.4861 0.0000 ( 10996 PWs)   bands (ev):

  -108.5857 -56.9170 -56.9169 -56.9169  -4.6357  -0.5443  -0.4959  -0.3241
    -0.2578   0.1276   1.2533   3.6412   4.7488   8.4218  10.6023  12.8365
    13.0679  13.3568  15.3665  17.8912  18.8307  19.1320  19.4214  19.7219
    21.7365

          k = 0.4847 0.4847-0.0000 ( 10992 PWs)   bands (ev):

  -108.5857 -56.9170 -56.9169 -56.9169  -4.6365  -0.5446  -0.4967  -0.3232
    -0.2581   0.1255   1.2566   3.6412   4.7547   8.4216  10.6125  12.8228
    13.0500  13.3690  15.3529  17.8827  18.8171  19.1362  19.4413  19.7110
    21.7467

          k = 0.4832 0.4832 0.0000 ( 10992 PWs)   bands (ev):

  -108.5857 -56.9170 -56.9169 -56.9169  -4.6373  -0.5449  -0.4975  -0.3223
    -0.2585   0.1234   1.2600   3.6413   4.7607   8.4213  10.6225  12.8092
    13.0321  13.3816  15.3394  17.8739  18.8034  19.1404  19.4612  19.7002
    21.7568

          k = 0.4817 0.4817 0.0000 ( 10992 PWs)   bands (ev):

  -108.5857 -56.9170 -56.9169 -56.9169  -4.6382  -0.5452  -0.4983  -0.3213
    -0.2588   0.1212   1.2635   3.6415   4.7667   8.4210  10.6322  12.7957
    13.0142  13.3945  15.3259  17.8648  18.7896  19.1446  19.4811  19.6897
    21.7669

          k = 0.4802 0.4802-0.0000 ( 10992 PWs)   bands (ev):

  -108.5857 -56.9170 -56.9169 -56.9169  -4.6391  -0.5455  -0.4992  -0.3204
    -0.2592   0.1189   1.2670   3.6418   4.7727   8.4206  10.6418  12.7822
    12.9963  13.4079  15.3125  17.8553  18.7756  19.1486  19.5010  19.6794
    21.7769

          k = 0.4788 0.4788 0.0000 ( 10992 PWs)   bands (ev):

  -108.5857 -56.9170 -56.9169 -56.9169  -4.6399  -0.5458  -0.5000  -0.3195
    -0.2596   0.1166   1.2707   3.6423   4.7787   8.4202  10.6511  12.7687
    12.9785  13.4217  15.2991  17.8455  18.7615  19.1524  19.5209  19.6694
    21.7869

          k = 0.4773 0.4773 0.0000 ( 10992 PWs)   bands (ev):

  -108.5857 -56.9170 -56.9169 -56.9169  -4.6408  -0.5461  -0.5008  -0.3187
    -0.2599   0.1142   1.2744   3.6429   4.7848   8.4196  10.6603  12.7553
    12.9606  13.4359  15.2857  17.8354  18.7473  19.1559  19.5407  19.6598
    21.7968

          k = 0.4758 0.4758-0.0000 ( 10992 PWs)   bands (ev):

  -108.5857 -56.9170 -56.9169 -56.9169  -4.6418  -0.5465  -0.5017  -0.3178
    -0.2603   0.1118   1.2783   3.6435   4.7909   8.4191  10.6693  12.7419
    12.9428  13.4505  15.2723  17.8251  18.7330  19.1590  19.5606  19.6507
    21.8067

          k = 0.4744 0.4744 0.0000 ( 10992 PWs)   bands (ev):

  -108.5857 -56.9170 -56.9169 -56.9169  -4.6427  -0.5468  -0.5025  -0.3169
    -0.2606   0.1093   1.2822   3.6443   4.7970   8.4185  10.6780  12.7285
    12.9250  13.4654  15.2590  17.8145  18.7186  19.1616  19.5804  19.6421
    21.8166

          k = 0.4729 0.4729 0.0000 ( 10992 PWs)   bands (ev):

  -108.5857 -56.9170 -56.9169 -56.9169  -4.6436  -0.5471  -0.5033  -0.3161
    -0.2610   0.1067   1.2862   3.6452   4.8031   8.4178  10.6866  12.7152
    12.9072  13.4807  15.2457  17.8036  18.7041  19.1637  19.6002  19.6342
    21.8264

          k = 0.4714 0.4714-0.0000 ( 10992 PWs)   bands (ev):

  -108.5857 -56.9170 -56.9169 -56.9169  -4.6446  -0.5474  -0.5042  -0.3152
    -0.2614   0.1041   1.2903   3.6462   4.8092   8.4171  10.6950  12.7020
    12.8895  13.4965  15.2324  17.7925  18.6895  19.1650  19.6201  19.6271
    21.8362

          k = 0.4699 0.4699 0.0000 ( 10992 PWs)   bands (ev):

  -108.5857 -56.9170 -56.9169 -56.9169  -4.6455  -0.5477  -0.5050  -0.3144
    -0.2617   0.1015   1.2945   3.6474   4.8154   8.4163  10.7032  12.6887
    12.8717  13.5125  15.2192  17.7812  18.6748  19.1656  19.6207  19.6399
    21.8459

          k = 0.4685 0.4685 0.0000 ( 10992 PWs)   bands (ev):

  -108.5857 -56.9170 -56.9169 -56.9169  -4.6465  -0.5480  -0.5058  -0.3136
    -0.2621   0.0988   1.2987   3.6486   4.8215   8.4154  10.7113  12.6756
    12.8540  13.5290  15.2061  17.7696  18.6600  19.1653  19.6153  19.6597
    21.8556

          k = 0.4670 0.4670-0.0000 ( 10992 PWs)   bands (ev):

  -108.5857 -56.9170 -56.9169 -56.9169  -4.6475  -0.5483  -0.5067  -0.3128
    -0.2624   0.0960   1.3031   3.6500   4.8277   8.4145  10.7191  12.6624
    12.8363  13.5458  15.1929  17.7579  18.6451  19.1641  19.6109  19.6794
    21.8653

          k = 0.4655 0.4655 0.0000 ( 10992 PWs)   bands (ev):

  -108.5857 -56.9170 -56.9169 -56.9169  -4.6485  -0.5486  -0.5075  -0.3120
    -0.2628   0.0932   1.3075   3.6514   4.8339   8.4136  10.7268  12.6493
    12.8186  13.5630  15.1798  17.7459  18.6302  19.1617  19.6076  19.6992
    21.8748

          k = 0.4640 0.4640 0.0000 ( 10992 PWs)   bands (ev):

  -108.5857 -56.9170 -56.9169 -56.9169  -4.6495  -0.5489  -0.5084  -0.3112
    -0.2631   0.0904   1.3121   3.6530   4.8401   8.4125  10.7343  12.6363
    12.8010  13.5806  15.1668  17.7338  18.6152  19.1583  19.6054  19.7189
    21.8844

          k = 0.4626 0.4626-0.0000 ( 10992 PWs)   bands (ev):

  -108.5857 -56.9170 -56.9169 -56.9169  -4.6506  -0.5492  -0.5092  -0.3105
    -0.2635   0.0875   1.3167   3.6547   4.8464   8.4114  10.7416  12.6233
    12.7833  13.5985  15.1538  17.7215  18.6001  19.1537  19.6044  19.7387
    21.8939

          k = 0.4611 0.4611 0.0000 ( 10992 PWs)   bands (ev):

  -108.5857 -56.9170 -56.9169 -56.9169  -4.6516  -0.5495  -0.5101  -0.3097
    -0.2638   0.0845   1.3214   3.6565   4.8526   8.4103  10.7488  12.6103
    12.7657  13.6167  15.1408  17.7091  18.5850  19.1479  19.6046  19.7584
    21.9033

          k = 0.4596 0.4596 0.0000 ( 10992 PWs)   bands (ev):

  -108.5857 -56.9170 -56.9169 -56.9169  -4.6527  -0.5498  -0.5109  -0.3090
    -0.2641   0.0815   1.3262   3.6584   4.8589   8.4091  10.7558  12.5974
    12.7481  13.6353  15.1279  17.6964  18.5697  19.1409  19.6060  19.7781
    21.9127

          k = 0.4581 0.4581-0.0000 ( 10992 PWs)   bands (ev):

  -108.5857 -56.9170 -56.9169 -56.9169  -4.6538  -0.5501  -0.5118  -0.3083
    -0.2645   0.0785   1.3311   3.6604   4.8652   8.4078  10.7627  12.5845
    12.7306  13.6542  15.1150  17.6837  18.5544  19.1328  19.6085  19.7978
    21.9220

          k = 0.4567 0.4567 0.0000 ( 11000 PWs)   bands (ev):

  -108.5857 -56.9170 -56.9169 -56.9169  -4.6549  -0.5504  -0.5127  -0.3076
    -0.2648   0.0754   1.3361   3.6626   4.8715   8.4065  10.7694  12.5716
    12.7131  13.6735  15.1022  17.6708  18.5391  19.1236  19.6122  19.8175
    21.9313

          k = 0.4552 0.4552 0.0000 ( 11004 PWs)   bands (ev):

  -108.5857 -56.9170 -56.9169 -56.9169  -4.6560  -0.5507  -0.5135  -0.3069
    -0.2652   0.0722   1.3412   3.6648   4.8778   8.4051  10.7760  12.5588
    12.6956  13.6931  15.0894  17.6578  18.5236  19.1133  19.6170  19.8371
    21.9405

          k = 0.4537 0.4537-0.0000 ( 11004 PWs)   bands (ev):

  -108.5857 -56.9170 -56.9169 -56.9169  -4.6571  -0.5510  -0.5144  -0.3062
    -0.2655   0.0691   1.3464   3.6671   4.8842   8.4037  10.7824  12.5461
    12.6781  13.7130  15.0766  17.6446  18.5081  19.1019  19.6229  19.8568
    21.9497

          k = 0.4523 0.4523 0.0000 ( 11012 PWs)   bands (ev):

  -108.5857 -56.9170 -56.9169 -56.9169  -4.6583  -0.5513  -0.5152  -0.3055
    -0.2658   0.0658   1.3516   3.6696   4.8905   8.4021  10.7887  12.5334
    12.6607  13.7332  15.0639  17.6314  18.4925  19.0897  19.6296  19.8764
    21.9588

          k = 0.4508 0.4508 0.0000 ( 11004 PWs)   bands (ev):

  -108.5857 -56.9170 -56.9169 -56.9169  -4.6594  -0.5516  -0.5161  -0.3049
    -0.2662   0.0626   1.3570   3.6722   4.8969   8.4006  10.7948  12.5207
    12.6433  13.7538  15.0513  17.6180  18.4769  19.0765  19.6373  19.8961
    21.9678

          k = 0.4493 0.4493-0.0000 ( 11002 PWs)   bands (ev):

  -108.5857 -56.9170 -56.9169 -56.9169  -4.6606  -0.5519  -0.5170  -0.3042
    -0.2665   0.0593   1.3624   3.6749   4.9032   8.3989  10.8008  12.5081
    12.6259  13.7746  15.0387  17.6045  18.4612  19.0626  19.6458  19.9157
    21.9768

          k = 0.4478 0.4478 0.0000 ( 11004 PWs)   bands (ev):

  -108.5857 -56.9170 -56.9169 -56.9169  -4.6618  -0.5522  -0.5178  -0.3036
    -0.2668   0.0559   1.3679   3.6776   4.9096   8.3972  10.8067  12.4955
    12.6086  13.7957  15.0262  17.5910  18.4454  19.0479  19.6551  19.9353
    21.9857

          k = 0.4464 0.4464 0.0000 ( 11008 PWs)   bands (ev):

  -108.5857 -56.9170 -56.9169 -56.9169  -4.6630  -0.5525  -0.5187  -0.3030
    -0.2671   0.0525   1.3735   3.6805   4.9160   8.3955  10.8125  12.4830
    12.5913  13.8171  15.0137  17.5773  18.4296  19.0326  19.6651  19.9548
    21.9946

          k = 0.4449 0.4449-0.0000 ( 11008 PWs)   bands (ev):

  -108.5857 -56.9170 -56.9169 -56.9169  -4.6642  -0.5528  -0.5196  -0.3025
    -0.2675   0.0491   1.3792   3.6835   4.9225   8.3937  10.8181  12.4705
    12.5740  13.8388  15.0012  17.5636  18.4136  19.0167  19.6757  19.9744
    22.0034

          k = 0.4434 0.4434 0.0000 ( 11008 PWs)   bands (ev):

  -108.5857 -56.9170 -56.9169 -56.9169  -4.6655  -0.5531  -0.5205  -0.3019
    -0.2678   0.0457   1.3850   3.6866   4.9289   8.3918  10.8237  12.4580
    12.5568  13.8608  14.9889  17.5497  18.3977  19.0002  19.6869  19.9940
    22.0121

          k = 0.4419 0.4419 0.0000 ( 11008 PWs)   bands (ev):

  -108.5857 -56.9170 -56.9169 -56.9169  -4.6667  -0.5534  -0.5213  -0.3013
    -0.2681   0.0422   1.3909   3.6899   4.9353   8.3898  10.8291  12.4456
    12.5396  13.8831  14.9765  17.5359  18.3816  18.9832  19.6986  20.0135
    22.0207

          k = 0.4405 0.4405-0.0000 ( 11008 PWs)   bands (ev):

  -108.5857 -56.9170 -56.9169 -56.9169  -4.6680  -0.5537  -0.5222  -0.3008
    -0.2684   0.0386   1.3969   3.6932   4.9418   8.3878  10.8344  12.4332
    12.5224  13.9056  14.9643  17.5219  18.3654  18.9658  19.7108  20.0330
    22.0293

          k = 0.4390 0.4390 0.0000 ( 11008 PWs)   bands (ev):

  -108.5857 -56.9170 -56.9169 -56.9169  -4.6693  -0.5540  -0.5231  -0.3003
    -0.2688   0.0351   1.4029   3.6966   4.9483   8.3857  10.8396  12.4209
    12.5053  13.9284  14.9520  17.5079  18.3492  18.9480  19.7235  20.0525
    22.0378

          k = 0.4375 0.4375 0.0000 ( 11008 PWs)   bands (ev):

  -108.5857 -56.9170 -56.9169 -56.9169  -4.6706  -0.5543  -0.5240  -0.2998
    -0.2691   0.0315   1.4091   3.7001   4.9547   8.3836  10.8447  12.4086
    12.4882  13.9514  14.9399  17.4938  18.3329  18.9299  19.7366  20.0720
    22.0462

          k = 0.4360 0.4360-0.0000 ( 11004 PWs)   bands (ev):

  -108.5857 -56.9170 -56.9169 -56.9169  -4.6719  -0.5546  -0.5248  -0.2993
    -0.2694   0.0279   1.4153   3.7038   4.9612   8.3814  10.8497  12.3964
    12.4711  13.9747  14.9278  17.4797  18.3165  18.9115  19.7501  20.0915
    22.0546

          k = 0.4346 0.4346 0.0000 ( 11004 PWs)   bands (ev):

  -108.5857 -56.9170 -56.9169 -56.9169  -4.6732  -0.5549  -0.5257  -0.2989
    -0.2697   0.0242   1.4216   3.7075   4.9677   8.3791  10.8547  12.3842
    12.4541  13.9982  14.9158  17.4655  18.3001  18.8928  19.7639  20.1110
    22.0629

          k = 0.4331 0.4331 0.0000 ( 11012 PWs)   bands (ev):

  -108.5857 -56.9170 -56.9169 -56.9169  -4.6746  -0.5552  -0.5266  -0.2984
    -0.2700   0.0205   1.4280   3.7114   4.9743   8.3768  10.8595  12.3721
    12.4372  14.0219  14.9038  17.4512  18.2835  18.8739  19.7780  20.1304
    22.0711

          k = 0.4316 0.4316-0.0000 ( 11004 PWs)   bands (ev):

  -108.5857 -56.9170 -56.9169 -56.9169  -4.6760  -0.5555  -0.5275  -0.2980
    -0.2703   0.0168   1.4345   3.7153   4.9808   8.3744  10.8643  12.3600
    12.4203  14.0459  14.8919  17.4369  18.2669  18.8548  19.7925  20.1499
    22.0792

          k = 0.4302 0.4302 0.0000 ( 11004 PWs)   bands (ev):

  -108.5857 -56.9170 -56.9169 -56.9169  -4.6773  -0.5558  -0.5284  -0.2976
    -0.2706   0.0131   1.4411   3.7194   4.9873   8.3719  10.8689  12.3479
    12.4034  14.0701  14.8800  17.4226  18.2501  18.8355  19.8072  20.1693
    22.0872

          k = 0.4287 0.4287 0.0000 ( 11008 PWs)   bands (ev):

  -108.5857 -56.9170 -56.9169 -56.9169  -4.6787  -0.5561  -0.5292  -0.2972
    -0.2709   0.0093   1.4478   3.7235   4.9938   8.3694  10.8736  12.3359
    12.3866  14.0944  14.8682  17.4082  18.2333  18.8161  19.8222  20.1887
    22.0951

          k = 0.4272 0.4272-0.0000 ( 11008 PWs)   bands (ev):

  -108.5857 -56.9170 -56.9169 -56.9169  -4.6801  -0.5564  -0.5301  -0.2969
    -0.2712   0.0055   1.4546   3.7278   5.0004   8.3668  10.8781  12.3239
    12.3698  14.1190  14.8565  17.3938  18.2164  18.7965  19.8374  20.2081
    22.1030

          k = 0.4257 0.4257 0.0000 ( 11012 PWs)   bands (ev):

  -108.5857 -56.9170 -56.9169 -56.9169  -4.6816  -0.5567  -0.5310  -0.2965
    -0.2715   0.0017   1.4614   3.7322   5.0070   8.3642  10.8826  12.3120
    12.3530  14.1438  14.8448  17.3794  18.1993  18.7769  19.8529  20.2275
    22.1107

          k = 0.4243 0.4243 0.0000 ( 11012 PWs)   bands (ev):

  -108.5857 -56.9170 -56.9169 -56.9169  -4.6830  -0.5570  -0.5319  -0.2962
    -0.2718  -0.0021   1.4683   3.7366   5.0135   8.3615  10.8870  12.3001
    12.3363  14.1688  14.8332  17.3649  18.1822  18.7572  19.8686  20.2469
    22.1183

          k = 0.4228 0.4228-0.0000 ( 11012 PWs)   bands (ev):

  -108.5857 -56.9170 -56.9169 -56.9169  -4.6845  -0.5573  -0.5328  -0.2959
    -0.2721  -0.0059   1.4753   3.7412   5.0201   8.3587  10.8913  12.2883
    12.3197  14.1940  14.8217  17.3504  18.1649  18.7374  19.8844  20.2662
    22.1259

          k = 0.4213 0.4213 0.0000 ( 11012 PWs)   bands (ev):

  -108.5857 -56.9170 -56.9169 -56.9169  -4.6860  -0.5576  -0.5337  -0.2956
    -0.2724  -0.0098   1.4824   3.7458   5.0267   8.3559  10.8956  12.2765
    12.3031  14.2193  14.8102  17.3359  18.1476  18.7177  19.9005  20.2856
    22.1333

          k = 0.4198 0.4198 0.0000 ( 11012 PWs)   bands (ev):

  -108.5857 -56.9170 -56.9169 -56.9169  -4.6874  -0.5579  -0.5346  -0.2954
    -0.2727  -0.0136   1.4896   3.7506   5.0333   8.3530  10.8998  12.2648
    12.2865  14.2448  14.7988  17.3213  18.1301  18.6979  19.9167  20.3049
    22.1406

          k = 0.4184 0.4184-0.0000 ( 11012 PWs)   bands (ev):

  -108.5857 -56.9170 -56.9169 -56.9169  -4.6890  -0.5582  -0.5355  -0.2951
    -0.2730  -0.0175   1.4969   3.7555   5.0399   8.3500  10.9040  12.2531
    12.2700  14.2705  14.7874  17.3068  18.1125  18.6782  19.9331  20.3242
    22.1478

          k = 0.4169 0.4169 0.0000 ( 11016 PWs)   bands (ev):

  -108.5857 -56.9170 -56.9169 -56.9169  -4.6905  -0.5585  -0.5363  -0.2949
    -0.2733  -0.0214   1.5042   3.7604   5.0465   8.3470  10.9081  12.2414
    12.2536  14.2963  14.7762  17.2922  18.0947  18.6585  19.9497  20.3436
    22.1549

          k = 0.4154 0.4154 0.0000 ( 11016 PWs)   bands (ev):

  -108.5857 -56.9170 -56.9169 -56.9169  -4.6920  -0.5588  -0.5372  -0.2947
    -0.2735  -0.0253   1.5117   3.7655   5.0531   8.3439  10.9122  12.2298
    12.2372  14.3223  14.7650  17.2776  18.0769  18.6388  19.9664  20.3629
    22.1618

          k = 0.4140 0.4140-0.0000 ( 11016 PWs)   bands (ev):

  -108.5857 -56.9170 -56.9169 -56.9169  -4.6936  -0.5591  -0.5381  -0.2945
    -0.2738  -0.0293   1.5192   3.7706   5.0597   8.3407  10.9162  12.2182
    12.2208  14.3484  14.7538  17.2630  18.0589  18.6193  19.9833  20.3821
    22.1686

          k = 0.4125 0.4125 0.0000 ( 11018 PWs)   bands (ev):

  -108.5857 -56.9170 -56.9169 -56.9169  -4.6951  -0.5594  -0.5390  -0.2944
    -0.2741  -0.0332   1.5268   3.7759   5.0663   8.3375  10.9202  12.2045
    12.2067  14.3747  14.7428  17.2483  18.0408  18.5998  20.0003  20.4014
    22.1753

          k = 0.4110 0.4110 0.0000 ( 11012 PWs)   bands (ev):

  -108.5857 -56.9170 -56.9169 -56.9169  -4.6967  -0.5597  -0.5399  -0.2943
    -0.2744  -0.0371   1.5345   3.7812   5.0729   8.3342  10.9241  12.1883
    12.1952  14.4010  14.7318  17.2337  18.0225  18.5804  20.0174  20.4207
    22.1818

          k = 0.4095 0.4095-0.0000 ( 11012 PWs)   bands (ev):

  -108.5857 -56.9170 -56.9169 -56.9169  -4.6983  -0.5600  -0.5408  -0.2942
    -0.2746  -0.0411   1.5422   3.7867   5.0796   8.3309  10.9280  12.1721
    12.1837  14.4275  14.7209  17.2190  18.0041  18.5611  20.0346  20.4399
    22.1882

          k = 0.4081 0.4081 0.0000 ( 11012 PWs)   bands (ev):

  -108.5857 -56.9170 -56.9169 -56.9169  -4.7000  -0.5604  -0.5417  -0.2941
    -0.2749  -0.0450   1.5501   3.7922   5.0862   8.3275  10.9319  12.1560
    12.1723  14.4541  14.7100  17.2043  17.9856  18.5420  20.0520  20.4592
    22.1944

          k = 0.4066 0.4066 0.0000 ( 11004 PWs)   bands (ev):

  -108.5857 -56.9170 -56.9169 -56.9169  -4.7016  -0.5607  -0.5426  -0.2941
    -0.2752  -0.0490   1.5580   3.7979   5.0928   8.3240  10.9358  12.1399
    12.1610  14.4808  14.6992  17.1896  17.9670  18.5230  20.0695  20.4784
    22.2004

          k = 0.4051 0.4051-0.0000 ( 11002 PWs)   bands (ev):

  -108.5857 -56.9170 -56.9169 -56.9169  -4.7032  -0.5610  -0.5435  -0.2941
    -0.2754  -0.0529   1.5660   3.8036   5.0995   8.3205  10.9396  12.1239
    12.1497  14.5076  14.6885  17.1750  17.9482  18.5042  20.0870  20.4976
    22.2063

          k = 0.4036 0.4036 0.0000 ( 11000 PWs)   bands (ev):

  -108.5857 -56.9170 -56.9169 -56.9169  -4.7049  -0.5613  -0.5444  -0.2941
    -0.2757  -0.0569   1.5741   3.8094   5.1061   8.3169  10.9433  12.1080
    12.1384  14.5345  14.6779  17.1603  17.9293  18.4855  20.1047  20.5168
    22.2120

          k = 0.4022 0.4022 0.0000 ( 11012 PWs)   bands (ev):

  -108.5857 -56.9170 -56.9169 -56.9169  -4.7066  -0.5616  -0.5453  -0.2941
    -0.2760  -0.0608   1.5823   3.8153   5.1128   8.3133  10.9471  12.0921
    12.1272  14.5614  14.6674  17.1456  17.9102  18.4670  20.1225  20.5360
    22.1843

          k = 0.4007 0.4007-0.0000 ( 11012 PWs)   bands (ev):

  -108.5857 -56.9170 -56.9169 -56.9169  -4.7083  -0.5619  -0.5462  -0.2942
    -0.2762  -0.0647   1.5906   3.8213   5.1194   8.3096  10.9508  12.0763
    12.1160  14.5884  14.6569  17.1309  17.8911  18.4487  20.1404  20.5552
    22.1493

          k = 0.3992 0.3992 0.0000 ( 11028 PWs)   bands (ev):

  -108.5857 -56.9170 -56.9169 -56.9169  -4.7100  -0.5623  -0.5471  -0.2943
    -0.2765  -0.0687   1.5989   3.8274   5.1261   8.3058  10.9545  12.0605
    12.1049  14.6154  14.6465  17.1161  17.8717  18.4307  20.1583  20.5743
    22.1142

          k = 0.3977 0.3977 0.0000 ( 11028 PWs)   bands (ev):

  -108.5857 -56.9170 -56.9169 -56.9169  -4.7117  -0.5626  -0.5480  -0.2944
    -0.2767  -0.0726   1.6073   3.8336   5.1327   8.3020  10.9582  12.0449
    12.0938  14.6362  14.6426  17.1014  17.8523  18.4128  20.1763  20.5935
    22.0790

          k = 0.3963 0.3963-0.0000 ( 11028 PWs)   bands (ev):

  -108.5857 -56.9170 -56.9169 -56.9169  -4.7135  -0.5629  -0.5489  -0.2946
    -0.2770  -0.0765   1.6158   3.8399   5.1394   8.2981  10.9618  12.0292
    12.0827  14.6260  14.6697  17.0867  17.8328  18.3951  20.1945  20.6126
    22.0437

          k = 0.3948 0.3948 0.0000 ( 11024 PWs)   bands (ev):

  -108.5857 -56.9170 -56.9169 -56.9169  -4.7152  -0.5632  -0.5497  -0.2948
    -0.2772  -0.0804   1.6244   3.8463   5.1461   8.2942  10.9654  12.0137
    12.0717  14.6158  14.6969  17.0720  17.8131  18.3777  20.2126  20.6318
    22.0082

          k = 0.3933 0.3933 0.0000 ( 11024 PWs)   bands (ev):

  -108.5857 -56.9170 -56.9169 -56.9169  -4.7170  -0.5636  -0.5506  -0.2950
    -0.2775  -0.0843   1.6330   3.8527   5.1527   8.2901  10.9690  11.9982
    12.0608  14.6057  14.7240  17.0573  17.7933  18.3605  20.2309  20.6509
    21.9727

          k = 0.3919 0.3919-0.0000 ( 11020 PWs)   bands (ev):

  -108.5857 -56.9170 -56.9169 -56.9169  -4.7188  -0.5639  -0.5515  -0.2953
    -0.2777  -0.0882   1.6418   3.8593   5.1594   8.2861  10.9726  11.9828
    12.0499  14.5957  14.7512  17.0425  17.7735  18.3436  20.2492  20.6700
    21.9371

          k = 0.3904 0.3904 0.0000 ( 11024 PWs)   bands (ev):

  -108.5857 -56.9170 -56.9169 -56.9169  -4.7206  -0.5642  -0.5524  -0.2956
    -0.2779  -0.0921   1.6506   3.8659   5.1660   8.2820  10.9761  11.9675
    12.0390  14.5858  14.7784  17.0278  17.7535  18.3268  20.2676  20.6891
    21.9015

          k = 0.3889 0.3889 0.0000 ( 11024 PWs)   bands (ev):

  -108.5857 -56.9170 -56.9169 -56.9169  -4.7224  -0.5646  -0.5533  -0.2959
    -0.2782  -0.0959   1.6595   3.8727   5.1727   8.2778  10.9796  11.9523
    12.0282  14.5760  14.8056  17.0131  17.7335  18.3104  20.2860  20.7082
    21.8658

          k = 0.3874 0.3874-0.0000 ( 11024 PWs)   bands (ev):

  -108.5857 -56.9170 -56.9169 -56.9169  -4.7243  -0.5649  -0.5542  -0.2963
    -0.2784  -0.0997   1.6684   3.8795   5.1794   8.2735  10.9831  11.9371
    12.0174  14.5662  14.8327  16.9983  17.7134  18.2942  20.3045  20.7273
    21.8301

          k = 0.3860 0.3860 0.0000 ( 11028 PWs)   bands (ev):

  -108.5857 -56.9170 -56.9169 -56.9169  -4.7261  -0.5652  -0.5551  -0.2967
    -0.2786  -0.1035   1.6775   3.8864   5.1860   8.2693  10.9866  11.9220
    12.0066  14.5565  14.8598  16.9836  17.6932  18.2782  20.3231  20.7463
    21.7943

          k = 0.3845 0.3845 0.0000 ( 11028 PWs)   bands (ev):

  -108.5857 -56.9170 -56.9169 -56.9169  -4.7280  -0.5656  -0.5560  -0.2972
    -0.2789  -0.1073   1.6866   3.8934   5.1927   8.2649  10.9901  11.9070
    11.9959  14.5470  14.8869  16.9689  17.6730  18.2625  20.3416  20.7654
    21.7585

          k = 0.3830 0.3830-0.0000 ( 11024 PWs)   bands (ev):

  -108.5857 -56.9170 -56.9169 -56.9169  -4.7299  -0.5659  -0.5569  -0.2977
    -0.2791  -0.1110   1.6958   3.9004   5.1993   8.2605  10.9935  11.8921
    11.9853  14.5375  14.9139  16.9541  17.6527  18.2471  20.3603  20.7844
    21.7228

          k = 0.3815 0.3815 0.0000 ( 11024 PWs)   bands (ev):

  -108.5857 -56.9170 -56.9169 -56.9169  -4.7318  -0.5663  -0.5578  -0.2982
    -0.2793  -0.1147   1.7050   3.9076   5.2060   8.2560  10.9969  11.8772
    11.9747  14.5280  14.9408  16.9394  17.6324  18.2320  20.3789  20.8034
    21.6870

          k = 0.3801 0.3801 0.0000 ( 11024 PWs)   bands (ev):

  -108.5857 -56.9170 -56.9169 -56.9169  -4.7337  -0.5666  -0.5587  -0.2988
    -0.2795  -0.1184   1.7144   3.9148   5.2126   8.2515  11.0003  11.8625
    11.9641  14.5187  14.9676  16.9246  17.6121  18.2171  20.3975  20.8224
    21.6513

          k = 0.3786 0.3786-0.0000 ( 11024 PWs)   bands (ev):

  -108.5857 -56.9170 -56.9169 -56.9169  -4.7356  -0.5670  -0.5596  -0.2994
    -0.2797  -0.1220   1.7238   3.9221   5.2193   8.2469  11.0036  11.8479
    11.9535  14.5095  14.9943  16.9098  17.5919  18.2025  20.4162  20.8414
    21.6156

          k = 0.3771 0.3771 0.0000 ( 11016 PWs)   bands (ev):

  -108.5857 -56.9170 -56.9169 -56.9169  -4.7376  -0.5673  -0.5605  -0.3001
    -0.2800  -0.1256   1.7333   3.9295   5.2259   8.2423  11.0069  11.8333
    11.9431  14.5003  15.0209  16.8951  17.5716  18.1882  20.4349  20.8604
    21.5800

          k = 0.3757 0.3757 0.0000 ( 11020 PWs)   bands (ev):

  -108.5857 -56.9170 -56.9169 -56.9169  -4.7396  -0.5677  -0.5614  -0.3008
    -0.2802  -0.1292   1.7429   3.9370   5.2326   8.2376  11.0102  11.8189
    11.9326  14.4913  15.0473  16.8803  17.5514  18.1741  20.4536  20.8794
    21.5444

          k = 0.3742 0.3742-0.0000 ( 11018 PWs)   bands (ev):

  -108.5857 -56.9170 -56.9169 -56.9169  -4.7415  -0.5680  -0.5623  -0.3016
    -0.2804  -0.1327   1.7525   3.9446   5.2392   8.2329  11.0134  11.8045
    11.9222  14.4823  15.0736  16.8655  17.5312  18.1603  20.4722  20.8983
    21.5090

          k = 0.3727 0.3727 0.0000 ( 11026 PWs)   bands (ev):

  -108.5857 -56.9170 -56.9169 -56.9169  -4.7435  -0.5684  -0.5632  -0.3024
    -0.2806  -0.1362   1.7622   3.9522   5.2458   8.2281  11.0166  11.7903
    11.9119  14.4734  15.0997  16.8507  17.5111  18.1468  20.4908  20.9173
    21.4736

          k = 0.3712 0.3712 0.0000 ( 11026 PWs)   bands (ev):

  -108.5857 -56.9170 -56.9169 -56.9169  -4.7455  -0.5688  -0.5640  -0.3033
    -0.2808  -0.1396   1.7720   3.9600   5.2525   8.2233  11.0198  11.7762
    11.9015  14.4646  15.1257  16.8358  17.4912  18.1336  20.5093  20.9362
    21.4384

          k = 0.3698 0.3698-0.0000 ( 11026 PWs)   bands (ev):

  -108.5857 -56.9170 -56.9169 -56.9169  -4.7475  -0.5691  -0.5649  -0.3042
    -0.2810  -0.1430   1.7819   3.9678   5.2591   8.2184  11.0229  11.7622
    11.8913  14.4559  15.1514  16.8209  17.4713  18.1207  20.5278  20.9551
    21.4033

          k = 0.3683 0.3683 0.0000 ( 11026 PWs)   bands (ev):

  -108.5857 -56.9170 -56.9169 -56.9169  -4.7496  -0.5695  -0.5658  -0.3052
    -0.2812  -0.1463   1.7918   3.9757   5.2657   8.2135  11.0260  11.7483
    11.8810  14.4473  15.1768  16.8061  17.4516  18.1081  20.5461  20.9739
    21.3685

          k = 0.3668 0.3668 0.0000 ( 11026 PWs)   bands (ev):

  -108.5857 -56.9170 -56.9169 -56.9169  -4.7516  -0.5699  -0.5667  -0.3063
    -0.2814  -0.1496   1.8018   3.9836   5.2723   8.2085  11.0290  11.7345
    11.8708  14.4387  15.2021  16.7911  17.4320  18.0957  20.5643  20.9928
    21.3339

          k = 0.3653 0.3653-0.0000 ( 11026 PWs)   bands (ev):

  -108.5857 -56.9170 -56.9169 -56.9169  -4.7537  -0.5702  -0.5676  -0.3074
    -0.2816  -0.1528   1.8119   3.9917   5.2789   8.2034  11.0320  11.7209
    11.8607  14.4303  15.2270  16.7762  17.4127  18.0837  20.5823  21.0116
    21.2995

          k = 0.3639 0.3639 0.0000 ( 11026 PWs)   bands (ev):

  -108.5857 -56.9170 -56.9169 -56.9169  -4.7558  -0.5706  -0.5685  -0.3086
    -0.2817  -0.1560   1.8221   3.9998   5.2855   8.1983  11.0349  11.7074
    11.8506  14.4220  15.2517  16.7612  17.3935  18.0719  20.6001  21.0304
    21.2655

          k = 0.3624 0.3624 0.0000 ( 11026 PWs)   bands (ev):

  -108.5857 -56.9170 -56.9169 -56.9169  -4.7579  -0.5710  -0.5694  -0.3098
    -0.2819  -0.1591   1.8323   4.0080   5.2921   8.1932  11.0377  11.6940
    11.8405  14.4137  15.2760  16.7462  17.3746  18.0605  20.6175  21.0492
    21.2320

          k = 0.3609 0.3609-0.0000 ( 11022 PWs)   bands (ev):

  -108.5857 -56.9170 -56.9169 -56.9169  -4.7600  -0.5714  -0.5703  -0.3111
    -0.2821  -0.1621   1.8426   4.0163   5.2987   8.1880  11.0405  11.6808
    11.8305  14.4056  15.3000  16.7311  17.3560  18.0493  20.6345  21.0680
    21.1990

          k = 0.3594 0.3594 0.0000 ( 11018 PWs)   bands (ev):

  -108.5857 -56.9170 -56.9169 -56.9169  -4.7621  -0.5718  -0.5711  -0.3125
    -0.2823  -0.1651   1.8530   4.0246   5.3053   8.1828  11.0432  11.6678
    11.8205  14.3975  15.3236  16.7159  17.3376  18.0385  20.6509  21.0867
    21.1667

          k = 0.3580 0.3580 0.0000 ( 11017 PWs)   bands (ev):

  -108.5857 -56.9170 -56.9169 -56.9169  -4.7642  -0.5722  -0.5720  -0.3139
    -0.2825  -0.1680   1.8634   4.0330   5.3118   8.1775  11.0457  11.6549
    11.8106  14.3896  15.3468  16.7007  17.3196  18.0279  20.6664  21.1054
    21.1353

          k = 0.3565 0.3565-0.0000 ( 11017 PWs)   bands (ev):

  -108.5857 -56.9170 -56.9169 -56.9169  -4.7664  -0.5729  -0.5726  -0.3154
    -0.2826  -0.1709   1.8739   4.0415   5.3184   8.1722  11.0482  11.6422
    11.8007  14.3817  15.3696  16.6855  17.3019  18.0177  20.6810  21.1051
    21.1240

          k = 0.3550 0.3550 0.0000 ( 11017 PWs)   bands (ev):

  -108.5857 -56.9170 -56.9169 -56.9169  -4.7685  -0.5738  -0.5730  -0.3170
    -0.2828  -0.1736   1.8845   4.0501   5.3250   8.1668  11.0506  11.6296
    11.7908  14.3739  15.3920  16.6702  17.2846  18.0078  20.6940  21.0764
    21.1426

          k = 0.3536 0.3536 0.0000 ( 11017 PWs)   bands (ev):

  -108.5857 -56.9170 -56.9169 -56.9169  -4.7707  -0.5747  -0.5734  -0.3186
    -0.2830  -0.1763   1.8951   4.0587   5.3315   8.1613  11.0529  11.6173
    11.7810  14.3663  15.4138  16.6547  17.2677  17.9983  20.7050  21.0499
    21.1612

          k = 0.3521 0.3521-0.0000 ( 11017 PWs)   bands (ev):

  -108.5857 -56.9170 -56.9169 -56.9169  -4.7729  -0.5756  -0.5738  -0.3203
    -0.2831  -0.1790   1.9058   4.0674   5.3381   8.1559  11.0551  11.6051
    11.7713  14.3587  15.4351  16.6392  17.2513  17.9891  20.7133  21.0263
    21.1797

          k = 0.3506 0.3506 0.0000 ( 11017 PWs)   bands (ev):

  -108.5857 -56.9170 -56.9169 -56.9169  -4.7751  -0.5764  -0.5742  -0.3221
    -0.2833  -0.1815   1.9166   4.0762   5.3446   8.1504  11.0571  11.5932
    11.7615  14.3512  15.4559  16.6237  17.2353  17.9802  20.7179  21.0065
    21.1982

          k = 0.3491 0.3491 0.0000 ( 11017 PWs)   bands (ev):

  -108.5857 -56.9170 -56.9169 -56.9169  -4.7773  -0.5773  -0.5746  -0.3239
    -0.2834  -0.1840   1.9275   4.0851   5.3511   8.1448  11.0590  11.5815
    11.7518  14.3438  15.4761  16.6080  17.2198  17.9717  20.7178  20.9916
    21.2165

          k = 0.3477 0.3477-0.0000 ( 11017 PWs)   bands (ev):

  -108.5857 -56.9170 -56.9169 -56.9169  -4.7795  -0.5782  -0.5750  -0.3258
    -0.2836  -0.1864   1.9384   4.0940   5.3576   8.1392  11.0607  11.5700
    11.7422  14.3366  15.4957  16.5922  17.2048  17.9636  20.7123  20.9822
    21.2349

          k = 0.3462 0.3462 0.0000 ( 11017 PWs)   bands (ev):

  -108.5857 -56.9170 -56.9169 -56.9169  -4.7818  -0.5791  -0.5754  -0.3278
    -0.2837  -0.1887   1.9494   4.1030   5.3641   8.1336  11.0623  11.5588
    11.7326  14.3294  15.5147  16.5763  17.1904  17.9558  20.7010  20.9786
    21.2531

          k = 0.3447 0.3447 0.0000 ( 11017 PWs)   bands (ev):

  -108.5857 -56.9170 -56.9169 -56.9169  -4.7840  -0.5800  -0.5758  -0.3298
    -0.2839  -0.1910   1.9604   4.1120   5.3706   8.1279  11.0636  11.5478
    11.7230  14.3223  15.5329  16.5602  17.1766  17.9485  20.6846  20.9804
    21.2712

          k = 0.3432 0.3432-0.0000 ( 11017 PWs)   bands (ev):

  -108.5857 -56.9170 -56.9169 -56.9169  -4.7863  -0.5808  -0.5763  -0.3320
    -0.2840  -0.1932   1.9715   4.1211   5.3771   8.1221  11.0648  11.5371
    11.7135  14.3153  15.5505  16.5441  17.1633  17.9415  20.6639  20.9867
    21.2892

          k = 0.3418 0.3418 0.0000 ( 11017 PWs)   bands (ev):

  -108.5857 -56.9170 -56.9169 -56.9169  -4.7886  -0.5817  -0.5767  -0.3341
    -0.2842  -0.1953   1.9827   4.1303   5.3835   8.1164  11.0658  11.5267
    11.7040  14.3085  15.5673  16.5278  17.1507  17.9350  20.6399  20.9963
    21.3071

          k = 0.3403 0.3403 0.0000 ( 11029 PWs)   bands (ev):

  -108.5857 -56.9170 -56.9169 -56.9169  -4.7909  -0.5826  -0.5771  -0.3364
    -0.2843  -0.1973   1.9940   4.1396   5.3900   8.1105  11.0665  11.5166
    11.6946  14.3017  15.5833  16.5114  17.1388  17.9288  20.6135  21.0086
    21.3249

          k = 0.3388 0.3388-0.0000 ( 11029 PWs)   bands (ev):

  -108.5857 -56.9170 -56.9169 -56.9169  -4.7932  -0.5835  -0.5776  -0.3387
    -0.2845  -0.1993   2.0053   4.1489   5.3964   8.1047  11.0670  11.5068
    11.6852  14.2950  15.5986  16.4948  17.1275  17.9232  20.5853  21.0227
    21.3425

          k = 0.3373 0.3373 0.0000 ( 11029 PWs)   bands (ev):

  -108.5857 -56.9170 -56.9169 -56.9169  -4.7955  -0.5843  -0.5780  -0.3410
    -0.2846  -0.2012   2.0167   4.1583   5.4029   8.0988  11.0672  11.4973
    11.6758  14.2885  15.6129  16.4782  17.1169  17.9179  20.5559  21.0383
    21.3598

          k = 0.3359 0.3359 0.0000 ( 11027 PWs)   bands (ev):

  -108.5857 -56.9170 -56.9169 -56.9169  -4.7978  -0.5852  -0.5784  -0.3435
    -0.2847  -0.2031   2.0281   4.1678   5.4093   8.0928  11.0671  11.4882
    11.6665  14.2820  15.6265  16.4613  17.1070  17.9132  20.5257  21.0549
    21.3770

          k = 0.3344 0.3344-0.0000 ( 11027 PWs)   bands (ev):

  -108.5857 -56.9170 -56.9169 -56.9169  -4.8001  -0.5861  -0.5789  -0.3459
    -0.2848  -0.2048   2.0397   4.1773   5.4157   8.0869  11.0667  11.4795
    11.6572  14.2757  15.6391  16.4444  17.0977  17.9090  20.4948  21.0723
    21.3938

          k = 0.3329 0.3329 0.0000 ( 11027 PWs)   bands (ev):

  -108.5857 -56.9170 -56.9169 -56.9169  -4.8025  -0.5869  -0.5793  -0.3485
    -0.2850  -0.2065   2.0512   4.1869   5.4221   8.0809  11.0660  11.4712
    11.6479  14.2694  15.6508  16.4272  17.0892  17.9052  20.4635  21.0903
    21.4103

          k = 0.3315 0.3315 0.0000 ( 11023 PWs)   bands (ev):

  -108.5857 -56.9170 -56.9169 -56.9169  -4.8048  -0.5878  -0.5798  -0.3511
    -0.2851  -0.2082   2.0629   4.1965   5.4284   8.0748  11.0650  11.4633
    11.6387  14.2633  15.6616  16.4100  17.0814  17.9020  20.4318  21.1088
    21.4264

          k = 0.3300 0.3300-0.0000 ( 11023 PWs)   bands (ev):

  -108.5857 -56.9170 -56.9169 -56.9169  -4.8072  -0.5887  -0.5803  -0.3537
    -0.2852  -0.2098   2.0746   4.2062   5.4348   8.0687  11.0636  11.4558
    11.6296  14.2573  15.6714  16.3926  17.0743  17.8994  20.4000  21.1277
    21.4420

          k = 0.3285 0.3285 0.0000 ( 11023 PWs)   bands (ev):

  -108.5857 -56.9170 -56.9169 -56.9169  -4.8096  -0.5895  -0.5807  -0.3564
    -0.2853  -0.2113   2.0864   4.2160   5.4411   8.0626  11.0619  11.4487
    11.6204  14.2513  15.6802  16.3751  17.0678  17.8973  20.3681  21.1470
    21.4570

          k = 0.3270 0.3270 0.0000 ( 11015 PWs)   bands (ev):

  -108.5857 -56.9170 -56.9169 -56.9169  -4.8120  -0.5904  -0.5812  -0.3591
    -0.2854  -0.2127   2.0982   4.2258   5.4475   8.0564  11.0598  11.4421
    11.6114  14.2455  15.6881  16.3575  17.0620  17.8958  20.3361  21.1665
    21.4711

          k = 0.3256 0.3256-0.0000 ( 11015 PWs)   bands (ev):

  -108.5857 -56.9170 -56.9169 -56.9169  -4.8144  -0.5912  -0.5817  -0.3619
    -0.2855  -0.2142   2.1101   4.2357   5.4538   8.0502  11.0572  11.4359
    11.6023  14.2398  15.6949  16.3397  17.0568  17.8949  20.3040  21.1862
    21.4843

          k = 0.3241 0.3241 0.0000 ( 11017 PWs)   bands (ev):

  -108.5857 -56.9170 -56.9169 -56.9169  -4.8168  -0.5921  -0.5821  -0.3647
    -0.2856  -0.2155   2.1221   4.2456   5.4601   8.0440  11.0543  11.4302
    11.5933  14.2342  15.7008  16.3219  17.0523  17.8946  20.2721  21.2061
    21.4962

          k = 0.3226 0.3226 0.0000 ( 11009 PWs)   bands (ev):

  -108.5857 -56.9170 -56.9169 -56.9169  -4.8192  -0.5930  -0.5826  -0.3675
    -0.2857  -0.2168   2.1341   4.2556   5.4664   8.0377  11.0510  11.4250
    11.5843  14.2287  15.7057  16.3039  17.0483  17.8949  20.2401  21.2262
    21.5066

          k = 0.3211 0.3211-0.0000 ( 11013 PWs)   bands (ev):

  -108.5857 -56.9170 -56.9169 -56.9169  -4.8217  -0.5938  -0.5831  -0.3704
    -0.2858  -0.2181   2.1462   4.2657   5.4727   8.0314  11.0473  11.4202
    11.5754  14.2233  15.7096  16.2858  17.0449  17.8960  20.2083  21.2464
    21.5150

          k = 0.3197 0.3197 0.0000 ( 11013 PWs)   bands (ev):

  -108.5857 -56.9170 -56.9169 -56.9169  -4.8241  -0.5947  -0.5836  -0.3733
    -0.2859  -0.2193   2.1583   4.2758   5.4789   8.0251  11.0432  11.4159
    11.5665  14.2181  15.7125  16.2677  17.0419  17.8977  20.1766  21.2667
    21.5211

          k = 0.3182 0.3182 0.0000 ( 11025 PWs)   bands (ev):

  -108.5857 -56.9170 -56.9169 -56.9169  -4.8266  -0.5955  -0.5841  -0.3762
    -0.2860  -0.2205   2.1705   4.2859   5.4851   8.0187  11.0387  11.4121
    11.5577  14.2129  15.7144  16.2495  17.0394  17.9000  20.1451  21.2872
    21.5243

          k = 0.3167 0.3167-0.0000 ( 11025 PWs)   bands (ev):

  -108.5857 -56.9170 -56.9169 -56.9169  -4.8290  -0.5964  -0.5846  -0.3792
    -0.2861  -0.2216   2.1828   4.2962   5.4914   8.0123  11.0339  11.4087
    11.5489  14.2078  15.7154  16.2313  17.0373  17.9031  20.1138  21.3077
    21.5243

          k = 0.3153 0.3153 0.0000 ( 11025 PWs)   bands (ev):

  -108.5857 -56.9170 -56.9169 -56.9169  -4.8315  -0.5972  -0.5851  -0.3822
    -0.2862  -0.2227   2.1951   4.3064   5.4976   8.0058  11.0286  11.4057
    11.5401  14.2029  15.7155  16.2130  17.0355  17.9069  20.0826  21.3283
    21.5207

          k = 0.3138 0.3138 0.0000 ( 11025 PWs)   bands (ev):

  -108.5857 -56.9170 -56.9169 -56.9169  -4.8340  -0.5981  -0.5856  -0.3852
    -0.2863  -0.2237   2.2075   4.3168   5.5038   7.9994  11.0230  11.4032
    11.5314  14.1981  15.7146  16.1947  17.0341  17.9114  20.0517  21.3490
    21.5137

          k = 0.3123 0.3123-0.0000 ( 11025 PWs)   bands (ev):

  -108.5857 -56.9170 -56.9169 -56.9169  -4.8365  -0.5989  -0.5861  -0.3882
    -0.2863  -0.2247   2.2200   4.3272   5.5099   7.9929  11.0170  11.4011
    11.5227  14.1934  15.7128  16.1763  17.0329  17.9166  20.0210  21.3698
    21.5033

          k = 0.3108 0.3108 0.0000 ( 11021 PWs)   bands (ev):

  -108.5857 -56.9170 -56.9169 -56.9169  -4.8390  -0.5998  -0.5866  -0.3912
    -0.2864  -0.2257   2.2325   4.3376   5.5161   7.9863  11.0107  11.3994
    11.5140  14.1888  15.7102  16.1580  17.0319  17.9226  19.9905  21.3905
    21.4900

          k = 0.3094 0.3094 0.0000 ( 11021 PWs)   bands (ev):

  -108.5857 -56.9170 -56.9169 -56.9169  -4.8415  -0.6006  -0.5872  -0.3943
    -0.2865  -0.2266   2.2451   4.3481   5.5222   7.9798  11.0040  11.3980
    11.5054  14.1843  15.7067  16.1397  17.0310  17.9292  19.9604  21.4114
    21.4740

          k = 0.3079 0.3079-0.0000 ( 11021 PWs)   bands (ev):

  -108.5857 -56.9170 -56.9169 -56.9169  -4.8440  -0.6015  -0.5877  -0.3974
    -0.2866  -0.2276   2.2577   4.3586   5.5283   7.9732  10.9971  11.3970
    11.4968  14.1799  15.7024  16.1214  17.0303  17.9365  19.9306  21.4322
    21.4560

          k = 0.3064 0.3064 0.0000 ( 11021 PWs)   bands (ev):

  -108.5857 -56.9170 -56.9169 -56.9169  -4.8466  -0.6023  -0.5882  -0.4004
    -0.2866  -0.2284   2.2704   4.3692   5.5344   7.9665  10.9899  11.3963
    11.4883  14.1756  15.6973  16.1031  17.0296  17.9446  19.9011  21.4361
    21.4531

          k = 0.3049 0.3049 0.0000 ( 11021 PWs)   bands (ev):

  -108.5857 -56.9170 -56.9169 -56.9169  -4.8491  -0.6031  -0.5887  -0.4035
    -0.2867  -0.2293   2.2831   4.3799   5.5405   7.9599  10.9825  11.3959
    11.4798  14.1715  15.6914  16.0849  17.0290  17.9533  19.8719  21.4149
    21.4741

          k = 0.3035 0.3035-0.0000 ( 11033 PWs)   bands (ev):

  -108.5857 -56.9170 -56.9169 -56.9169  -4.8517  -0.6040  -0.5893  -0.4066
    -0.2868  -0.2301   2.2959   4.3905   5.5465   7.9532  10.9748  11.3958
    11.4713  14.1675  15.6849  16.0667  17.0283  17.9626  19.8432  21.3925
    21.4950

          k = 0.3020 0.3020 0.0000 ( 11033 PWs)   bands (ev):

  -108.5857 -56.9170 -56.9169 -56.9169  -4.8542  -0.6048  -0.5898  -0.4097
    -0.2868  -0.2309   2.3088   4.4013   5.5526   7.9465  10.9669  11.3960
    11.4629  14.1635  15.6776  16.0486  17.0276  17.9725  19.8148  21.3691
    21.5159

          k = 0.3005 0.3005 0.0000 ( 11033 PWs)   bands (ev):

  -108.5857 -56.9170 -56.9169 -56.9169  -4.8568  -0.6056  -0.5904  -0.4128
    -0.2869  -0.2317   2.3217   4.4120   5.5586   7.9397  10.9588  11.3964
    11.4545  14.1597  15.6696  16.0306  17.0268  17.9831  19.7870  21.3449
    21.5369

          k = 0.2990 0.2990-0.0000 ( 11033 PWs)   bands (ev):

  -108.5857 -56.9170 -56.9169 -56.9169  -4.8593  -0.6065  -0.5909  -0.4159
    -0.2869  -0.2325   2.3347   4.4229   5.5646   7.9329  10.9505  11.3970
    11.4462  14.1561  15.6610  16.0126  17.0259  17.9941  19.7595  21.3200
    21.5578

          k = 0.2976 0.2976 0.0000 ( 11035 PWs)   bands (ev):

  -108.5857 -56.9170 -56.9169 -56.9169  -4.8619  -0.6073  -0.5915  -0.4191
    -0.2870  -0.2332   2.3478   4.4337   5.5706   7.9261  10.9421  11.3979
    11.4379  14.1525  15.6518  15.9948  17.0249  18.0057  19.7327  21.2946
    21.5787

          k = 0.2961 0.2961 0.0000 ( 11035 PWs)   bands (ev):

  -108.5857 -56.9170 -56.9169 -56.9169  -4.8645  -0.6081  -0.5920  -0.4222
    -0.2870  -0.2339   2.3609   4.4447   5.5765   7.9193  10.9335  11.3989
    11.4296  14.1490  15.6420  15.9770  17.0238  18.0177  19.7063  21.2687
    21.5995

          k = 0.2946 0.2946-0.0000 ( 11035 PWs)   bands (ev):

  -108.5857 -56.9170 -56.9169 -56.9169  -4.8671  -0.6089  -0.5926  -0.4253
    -0.2871  -0.2346   2.3740   4.4556   5.5824   7.9124  10.9248  11.4000
    11.4214  14.1457  15.6317  15.9594  17.0224  18.0300  19.6806  21.2423
    21.6204

          k = 0.2932 0.2932 0.0000 ( 11027 PWs)   bands (ev):

  -108.5857 -56.9170 -56.9169 -56.9169  -4.8697  -0.6098  -0.5932  -0.4284
    -0.2871  -0.2353   2.3872   4.4666   5.5883   7.9055  10.9160  11.4014
    11.4132  14.1425  15.6209  15.9418  17.0209  18.0427  19.6555  21.2157
    21.6412

          k = 0.2917 0.2917 0.0000 ( 11023 PWs)   bands (ev):

  -108.5857 -56.9170 -56.9169 -56.9169  -4.8723  -0.6106  -0.5938  -0.4315
    -0.2871  -0.2359   2.4005   4.4777   5.5942   7.8986  10.9071  11.4028
    11.4050  14.1394  15.6095  15.9244  17.0193  18.0556  19.6311  21.1886
    21.6619

          k = 0.2902 0.2902-0.0000 ( 11023 PWs)   bands (ev):

  -108.5857 -56.9170 -56.9169 -56.9169  -4.8749  -0.6114  -0.5943  -0.4346
    -0.2872  -0.2366   2.4138   4.4887   5.6001   7.8917  10.8981  11.3969
    11.4044  14.1364  15.5978  15.9070  17.0174  18.0687  19.6075  21.1614
    21.6826

          k = 0.2887 0.2887 0.0000 ( 11027 PWs)   bands (ev):

  -108.5857 -56.9170 -56.9169 -56.9169  -4.8775  -0.6122  -0.5949  -0.4377
    -0.2872  -0.2372   2.4272   4.4999   5.6059   7.8847  10.8891  11.3888
    11.4061  14.1336  15.5856  15.8898  17.0153  18.0819  19.5847  21.1338
    21.7031

          k = 0.2873 0.2873 0.0000 ( 11027 PWs)   bands (ev):

  -108.5857 -56.9170 -56.9169 -56.9169  -4.8801  -0.6130  -0.5955  -0.4408
    -0.2872  -0.2378   2.4406   4.5110   5.6118   7.8777  10.8800  11.3808
    11.4079  14.1308  15.5730  15.8727  17.0130  18.0951  19.5627  21.1061
    21.7236

          k = 0.2858 0.2858-0.0000 ( 11019 PWs)   bands (ev):

  -108.5857 -56.9170 -56.9169 -56.9169  -4.8828  -0.6139  -0.5961  -0.4438
    -0.2873  -0.2384   2.4541   4.5222   5.6176   7.8707  10.8708  11.3728
    11.4097  14.1282  15.5600  15.8557  17.0106  18.1082  19.5417  21.0781
    21.7439

          k = 0.2843 0.2843 0.0000 ( 11011 PWs)   bands (ev):

  -108.5857 -56.9170 -56.9169 -56.9169  -4.8854  -0.6147  -0.5967  -0.4469
    -0.2873  -0.2390   2.4676   4.5335   5.6233   7.8636  10.8616  11.3648
    11.4116  14.1257  15.5467  15.8387  17.0079  18.1212  19.5217  21.0500
    21.7641

          k = 0.2828 0.2828 0.0000 ( 11007 PWs)   bands (ev):

  -108.5857 -56.9170 -56.9169 -56.9169  -4.8880  -0.6155  -0.5973  -0.4500
    -0.2873  -0.2395   2.4812   4.5448   5.6291   7.8565  10.8524  11.3569
    11.4136  14.1234  15.5331  15.8219  17.0051  18.1338  19.5028  21.0217
    21.7842

          k = 0.2814 0.2814-0.0000 ( 11013 PWs)   bands (ev):

  -108.5857 -56.9170 -56.9169 -56.9169  -4.8907  -0.6163  -0.5979  -0.4530
    -0.2873  -0.2401   2.4949   4.5561   5.6348   7.8494  10.8431  11.3490
    11.4156  14.1211  15.5192  15.8052  17.0021  18.1460  19.4851  20.9933
    21.8040

          k = 0.2799 0.2799 0.0000 ( 11021 PWs)   bands (ev):

  -108.5857 -56.9170 -56.9169 -56.9169  -4.8933  -0.6171  -0.5985  -0.4560
    -0.2873  -0.2406   2.5086   4.5674   5.6405   7.8423  10.8338  11.3411
    11.4176  14.1190  15.5050  15.7885  16.9989  18.1578  19.4686  20.9647
    21.8236

          k = 0.2784 0.2784 0.0000 ( 11025 PWs)   bands (ev):

  -108.5857 -56.9170 -56.9169 -56.9169  -4.8960  -0.6179  -0.5991  -0.4591
    -0.2873  -0.2411   2.5223   4.5788   5.6462   7.8352  10.8246  11.3333
    11.4197  14.1170  15.4907  15.7720  16.9955  18.1689  19.4535  20.9361
    21.8430

          k = 0.2770 0.2770-0.0000 ( 11037 PWs)   bands (ev):

  -108.5857 -56.9170 -56.9169 -56.9169  -4.8987  -0.6187  -0.5997  -0.4621
    -0.2874  -0.2417   2.5361   4.5902   5.6519   7.8280  10.8153  11.3255
    11.4218  14.1151  15.4761  15.7555  16.9919  18.1793  19.4399  20.9073
    21.8621

          k = 0.2755 0.2755 0.0000 ( 11027 PWs)   bands (ev):

  -108.5857 -56.9170 -56.9169 -56.9169  -4.9013  -0.6195  -0.6004  -0.4651
    -0.2874  -0.2422   2.5500   4.6017   5.6575   7.8208  10.8060  11.3178
    11.4239  14.1133  15.4613  15.7390  16.9882  18.1889  19.4277  20.8784
    21.8808

          k = 0.2740 0.2740 0.0000 ( 11027 PWs)   bands (ev):

  -108.5857 -56.9170 -56.9169 -56.9169  -4.9040  -0.6203  -0.6010  -0.4680
    -0.2874  -0.2427   2.5639   4.6132   5.6631   7.8136  10.7968  11.3101
    11.4260  14.1117  15.4464  15.7227  16.9843  18.1975  19.4172  20.8494
    21.8991

          k = 0.2725 0.2725-0.0000 ( 11031 PWs)   bands (ev):

  -108.5857 -56.9170 -56.9169 -56.9169  -4.9067  -0.6211  -0.6016  -0.4710
    -0.2874  -0.2432   2.5778   4.6247   5.6687   7.8063  10.7875  11.3024
    11.4280  14.1101  15.4314  15.7064  16.9803  18.2050  19.4084  20.8204
    21.9170

          k = 0.2711 0.2711 0.0000 ( 11031 PWs)   bands (ev):

  -108.5857 -56.9170 -56.9169 -56.9169  -4.9093  -0.6219  -0.6023  -0.4740
    -0.2874  -0.2436   2.5918   4.6362   5.6742   7.7991  10.7783  11.2948
    11.4301  14.1087  15.4163  15.6901  16.9762  18.2114  19.4014  20.7913
    21.9343

          k = 0.2696 0.2696 0.0000 ( 11031 PWs)   bands (ev):

  -108.5857 -56.9170 -56.9169 -56.9169  -4.9120  -0.6227  -0.6029  -0.4769
    -0.2873  -0.2441   2.6059   4.6478   5.6798   7.7918  10.7691  11.2872
    11.4322  14.1075  15.4010  15.6739  16.9719  18.2166  19.3962  20.7621
    21.9510

          k = 0.2681 0.2681-0.0000 ( 11031 PWs)   bands (ev):

  -108.5857 -56.9170 -56.9169 -56.9169  -4.9147  -0.6234  -0.6035  -0.4798
    -0.2873  -0.2446   2.6200   4.6594   5.6853   7.7844  10.7600  11.2796
    11.4342  14.1063  15.3858  15.6577  16.9675  18.2204  19.3930  20.7328
    21.9670

          k = 0.2666 0.2666 0.0000 ( 11031 PWs)   bands (ev):

  -108.5857 -56.9170 -56.9169 -56.9169  -4.9174  -0.6242  -0.6042  -0.4827
    -0.2873  -0.2450   2.6342   4.6711   5.6907   7.7771  10.7508  11.2721
    11.4361  14.1053  15.3704  15.6415  16.9630  18.2228  19.3917  20.7036
    21.9821

          k = 0.2652 0.2652 0.0000 ( 11031 PWs)   bands (ev):

  -108.5857 -56.9170 -56.9169 -56.9169  -4.9201  -0.6250  -0.6048  -0.4856
    -0.2873  -0.2454   2.6484   4.6827   5.6962   7.7697  10.7418  11.2646
    11.4381  14.1044  15.3551  15.6254  16.9583  18.2237  19.3925  20.6742
    21.9962

          k = 0.2637 0.2637-0.0000 ( 11031 PWs)   bands (ev):

  -108.5857 -56.9170 -56.9169 -56.9169  -4.9227  -0.6258  -0.6055  -0.4885
    -0.2873  -0.2459   2.6627   4.6944   5.7016   7.7623  10.7327  11.2571
    11.4400  14.1036  15.3397  15.6093  16.9536  18.2232  19.3952  20.6448
    22.0092

          k = 0.2622 0.2622 0.0000 ( 11031 PWs)   bands (ev):

  -108.5857 -56.9170 -56.9169 -56.9169  -4.9254  -0.6266  -0.6062  -0.4913
    -0.2873  -0.2463   2.6770   4.7061   5.7070   7.7549  10.7237  11.2497
    11.4418  14.1029  15.3244  15.5932  16.9488  18.2212  19.4000  20.6154
    22.0209

          k = 0.2607 0.2607 0.0000 ( 11035 PWs)   bands (ev):

  -108.5857 -56.9170 -56.9169 -56.9169  -4.9281  -0.6273  -0.6068  -0.4942
    -0.2873  -0.2467   2.6913   4.7179   5.7124   7.7475  10.7148  11.2424
    11.4436  14.1024  15.3091  15.5771  16.9439  18.2177  19.4068  20.5859
    22.0311

          k = 0.2593 0.2593-0.0000 ( 11035 PWs)   bands (ev):

  -108.5857 -56.9170 -56.9169 -56.9169  -4.9308  -0.6281  -0.6075  -0.4970
    -0.2872  -0.2471   2.7057   4.7296   5.7177   7.7400  10.7059  11.2350
    11.4453  14.1020  15.2938  15.5610  16.9388  18.2128  19.4155  20.5565
    22.0396

          k = 0.2578 0.2578 0.0000 ( 11035 PWs)   bands (ev):

  -108.5857 -56.9170 -56.9169 -56.9169  -4.9335  -0.6289  -0.6082  -0.4998
    -0.2872  -0.2475   2.7202   4.7414   5.7231   7.7326  10.6971  11.2277
    11.4469  14.1017  15.2786  15.5449  16.9338  18.2064  19.4261  20.5269
    22.0461

          k = 0.2563 0.2563 0.0000 ( 11035 PWs)   bands (ev):

  -108.5857 -56.9170 -56.9169 -56.9169  -4.9362  -0.6296  -0.6088  -0.5025
    -0.2872  -0.2479   2.7347   4.7532   5.7283   7.7251  10.6883  11.2205
    11.4484  14.1016  15.2635  15.5288  16.9286  18.1987  19.4386  20.4974
    22.0505

          k = 0.2549 0.2549-0.0000 ( 11027 PWs)   bands (ev):

  -108.5857 -56.9170 -56.9169 -56.9169  -4.9389  -0.6304  -0.6095  -0.5053
    -0.2871  -0.2483   2.7492   4.7650   5.7336   7.7175  10.6796  11.2132
    11.4499  14.1015  15.2484  15.5127  16.9234  18.1896  19.4529  20.4678
    22.0525

          k = 0.2534 0.2534 0.0000 ( 11027 PWs)   bands (ev):

  -108.5857 -56.9169 -56.9169 -56.9169  -4.9416  -0.6312  -0.6102  -0.5080
    -0.2871  -0.2487   2.7638   4.7769   5.7388   7.7100  10.6710  11.2060
    11.4513  14.1016  15.2335  15.4965  16.9181  18.1794  19.4688  20.4383
    22.0519

          k = 0.2519 0.2519 0.0000 ( 11027 PWs)   bands (ev):

  -108.5857 -56.9169 -56.9169 -56.9169  -4.9443  -0.6319  -0.6109  -0.5108
    -0.2871  -0.2491   2.7785   4.7887   5.7440   7.7024  10.6624  11.1989
    11.4526  14.1019  15.2186  15.4804  16.9128  18.1679  19.4864  20.4087
    22.0487

          k = 0.2504 0.2504-0.0000 ( 11027 PWs)   bands (ev):

  -108.5857 -56.9169 -56.9169 -56.9169  -4.9470  -0.6327  -0.6116  -0.5134
    -0.2870  -0.2495   2.7932   4.8006   5.7492   7.6948  10.6539  11.1918
    11.4538  14.1022  15.2039  15.4642  16.9074  18.1554  19.5054  20.3791
    22.0429

          k = 0.2490 0.2490 0.0000 ( 11031 PWs)   bands (ev):

  -108.5857 -56.9169 -56.9169 -56.9169  -4.9497  -0.6334  -0.6123  -0.5161
    -0.2870  -0.2499   2.8079   4.8125   5.7544   7.6872  10.6454  11.1847
    11.4549  14.1027  15.1893  15.4480  16.9020  18.1418  19.5259  20.3495
    22.0343

          k = 0.2475 0.2475 0.0000 ( 11015 PWs)   bands (ev):

  -108.5857 -56.9169 -56.9169 -56.9169  -4.9524  -0.6342  -0.6130  -0.5188
    -0.2869  -0.2502   2.8227   4.8244   5.7595   7.6796  10.6371  11.1776
    11.4560  14.1033  15.1749  15.4318  16.8965  18.1273  19.5478  20.3199
    22.0231

          k = 0.2460 0.2460-0.0000 ( 11015 PWs)   bands (ev):

  -108.5857 -56.9169 -56.9169 -56.9169  -4.9551  -0.6349  -0.6137  -0.5214
    -0.2869  -0.2506   2.8375   4.8364   5.7646   7.6719  10.6288  11.1706
    11.4569  14.1040  15.1606  15.4155  16.8910  18.1120  19.5708  20.2902
    22.0096

          k = 0.2445 0.2445 0.0000 ( 11021 PWs)   bands (ev):

  -108.5857 -56.9169 -56.9169 -56.9169  -4.9578  -0.6357  -0.6144  -0.5240
    -0.2869  -0.2509   2.8524   4.8483   5.7697   7.6642  10.6206  11.1637
    11.4577  14.1049  15.1465  15.3993  16.8855  18.0959  19.5951  20.2606
    21.9938

          k = 0.2431 0.2431 0.0000 ( 11021 PWs)   bands (ev):

  -108.5857 -56.9169 -56.9169 -56.9169  -4.9605  -0.6364  -0.6151  -0.5266
    -0.2868  -0.2513   2.8673   4.8603   5.7747   7.6565  10.6124  11.1567
    11.4583  14.1059  15.1325  15.3830  16.8799  18.0791  19.6204  20.2310
    21.9759

          k = 0.2416 0.2416-0.0000 ( 11017 PWs)   bands (ev):

  -108.5857 -56.9169 -56.9169 -56.9169  -4.9632  -0.6372  -0.6158  -0.5292
    -0.2867  -0.2516   2.8823   4.8722   5.7797   7.6488  10.6044  11.1498
    11.4589  14.1070  15.1187  15.3666  16.8743  18.0617  19.6467  20.2014
    21.9563

          k = 0.2401 0.2401 0.0000 ( 11017 PWs)   bands (ev):

  -108.5857 -56.9169 -56.9169 -56.9169  -4.9659  -0.6379  -0.6165  -0.5317
    -0.2867  -0.2520   2.8973   4.8842   5.7847   7.6410  10.5964  11.1430
    11.4593  14.1082  15.1051  15.3502  16.8687  18.0437  19.6740  20.1718
    21.9351

          k = 0.2386 0.2386 0.0000 ( 11017 PWs)   bands (ev):

  -108.5857 -56.9169 -56.9169 -56.9169  -4.9686  -0.6386  -0.6172  -0.5343
    -0.2866  -0.2523   2.9123   4.8962   5.7896   7.6332  10.5885  11.1361
    11.4596  14.1096  15.0917  15.3338  16.8630  18.0252  19.7021  20.1422
    21.9125

          k = 0.2372 0.2372-0.0000 ( 11015 PWs)   bands (ev):

  -108.5857 -56.9169 -56.9169 -56.9169  -4.9713  -0.6394  -0.6179  -0.5368
    -0.2866  -0.2526   2.9274   4.9082   5.7945   7.6254  10.5807  11.1294
    11.4598  14.1111  15.0785  15.3174  16.8574  18.0062  19.7310  20.1126
    21.8887

          k = 0.2357 0.2357 0.0000 ( 11015 PWs)   bands (ev):

  -108.5857 -56.9169 -56.9169 -56.9169  -4.9740  -0.6401  -0.6186  -0.5393
    -0.2865  -0.2529   2.9426   4.9202   5.7994   7.6176  10.5730  11.1226
    11.4599  14.1127  15.0654  15.3009  16.8517  17.9869  19.7607  20.0830
    21.8639

          k = 0.2342 0.2342 0.0000 ( 11015 PWs)   bands (ev):

  -108.5857 -56.9169 -56.9169 -56.9169  -4.9767  -0.6408  -0.6194  -0.5417
    -0.2864  -0.2533   2.9577   4.9322   5.8043   7.6098  10.5654  11.1159
    11.4598  14.1145  15.0526  15.2844  16.8460  17.9672  19.7910  20.0535
    21.8382

          k = 0.2328 0.2328-0.0000 ( 11019 PWs)   bands (ev):

  -108.5857 -56.9169 -56.9169 -56.9169  -4.9794  -0.6415  -0.6201  -0.5442
    -0.2864  -0.2536   2.9730   4.9442   5.8091   7.6019  10.5578  11.1092
    11.4596  14.1164  15.0400  15.2679  16.8403  17.9472  19.8220  20.0239
    21.8118

          k = 0.2313 0.2313 0.0000 ( 11031 PWs)   bands (ev):

  -108.5857 -56.9169 -56.9169 -56.9169  -4.9821  -0.6422  -0.6208  -0.5466
    -0.2863  -0.2539   2.9882   4.9563   5.8139   7.5940  10.5504  11.1026
    11.4592  14.1184  15.0276  15.2513  16.8346  17.9269  19.8536  19.9944
    21.7847

          k = 0.2298 0.2298 0.0000 ( 11033 PWs)   bands (ev):

  -108.5857 -56.9169 -56.9169 -56.9169  -4.9847  -0.6430  -0.6216  -0.5490
    -0.2862  -0.2542   3.0035   4.9683   5.8187   7.5861  10.5430  11.0960
    11.4587  14.1205  15.0154  15.2347  16.8289  17.9064  19.8857  19.9648
    21.7571

          k = 0.2283 0.2283-0.0000 ( 11033 PWs)   bands (ev):

  -108.5857 -56.9169 -56.9169 -56.9169  -4.9874  -0.6437  -0.6223  -0.5514
    -0.2862  -0.2545   3.0189   4.9803   5.8234   7.5782  10.5357  11.0894
    11.4581  14.1228  15.0035  15.2181  16.8232  17.8857  19.9183  19.9353
    21.7291

          k = 0.2269 0.2269 0.0000 ( 11033 PWs)   bands (ev):

  -108.5857 -56.9169 -56.9169 -56.9169  -4.9901  -0.6444  -0.6230  -0.5537
    -0.2861  -0.2548   3.0343   4.9924   5.8281   7.5702  10.5286  11.0829
    11.4573  14.1252  14.9917  15.2014  16.8175  17.8648  19.9058  19.9514
    21.7007

          k = 0.2254 0.2254 0.0000 ( 11039 PWs)   bands (ev):

  -108.5857 -56.9169 -56.9169 -56.9169  -4.9928  -0.6451  -0.6238  -0.5560
    -0.2860  -0.2551   3.0497   5.0044   5.8328   7.5622  10.5215  11.0764
    11.4564  14.1277  14.9802  15.1847  16.8117  17.8438  19.8764  19.9849
    21.6719

          k = 0.2239 0.2239-0.0000 ( 11039 PWs)   bands (ev):

  -108.5857 -56.9169 -56.9169 -56.9169  -4.9954  -0.6458  -0.6245  -0.5583
    -0.2859  -0.2554   3.0651   5.0164   5.8375   7.5542  10.5145  11.0699
    11.4553  14.1303  14.9689  15.1681  16.8060  17.8227  19.8469  20.0188
    21.6430

          k = 0.2224 0.2224 0.0000 ( 11039 PWs)   bands (ev):

  -108.5857 -56.9169 -56.9169 -56.9169  -4.9981  -0.6465  -0.6252  -0.5606
    -0.2859  -0.2556   3.0806   5.0284   5.8421   7.5462  10.5076  11.0635
    11.4540  14.1331  14.9578  15.1514  16.8003  17.8015  19.8175  20.0531
    21.6138

          k = 0.2210 0.2210 0.0000 ( 11039 PWs)   bands (ev):

  -108.5857 -56.9169 -56.9169 -56.9169  -5.0008  -0.6472  -0.6260  -0.5629
    -0.2858  -0.2559   3.0962   5.0405   5.8467   7.5381  10.5008  11.0571
    11.4526  14.1360  14.9469  15.1347  16.7946  17.7802  19.7881  20.0876
    21.5844

          k = 0.2195 0.2195-0.0000 ( 11039 PWs)   bands (ev):

  -108.5857 -56.9169 -56.9169 -56.9169  -5.0034  -0.6479  -0.6267  -0.5651
    -0.2857  -0.2562   3.1118   5.0525   5.8512   7.5300  10.4941  11.0508
    11.4510  14.1390  14.9362  15.1180  16.7889  17.7589  19.7588  20.1225
    21.5550

          k = 0.2180 0.2180 0.0000 ( 11039 PWs)   bands (ev):

  -108.5857 -56.9169 -56.9169 -56.9169  -5.0061  -0.6486  -0.6275  -0.5674
    -0.2856  -0.2565   3.1274   5.0645   5.8557   7.5219  10.4876  11.0445
    11.4493  14.1422  14.9257  15.1014  16.7833  17.7375  19.7294  20.1575
    21.5255

          k = 0.2166 0.2166 0.0000 ( 11039 PWs)   bands (ev):

  -108.5857 -56.9169 -56.9169 -56.9169  -5.0087  -0.6493  -0.6282  -0.5696
    -0.2855  -0.2567   3.1430   5.0765   5.8602   7.5138  10.4811  11.0382
    11.4474  14.1455  14.9154  15.0848  16.7776  17.7162  19.7001  20.1928
    21.4959

          k = 0.2151 0.2151-0.0000 ( 11039 PWs)   bands (ev):

  -108.5857 -56.9169 -56.9169 -56.9169  -5.0113  -0.6499  -0.6290  -0.5717
    -0.2854  -0.2570   3.1587   5.0885   5.8647   7.5056  10.4747  11.0320
    11.4453  14.1489  14.9052  15.0682  16.7719  17.6948  19.6708  20.2283
    21.4664

          k = 0.2136 0.2136 0.0000 ( 11039 PWs)   bands (ev):

  -108.5857 -56.9169 -56.9169 -56.9169  -5.0140  -0.6506  -0.6297  -0.5739
    -0.2853  -0.2573   3.1744   5.1005   5.8691   7.4975  10.4684  11.0258
    11.4431  14.1525  14.8952  15.0518  16.7663  17.6735  19.6416  20.2639
    21.4369

          k = 0.2121 0.2121 0.0000 ( 11039 PWs)   bands (ev):

  -108.5857 -56.9169 -56.9169 -56.9169  -5.0166  -0.6513  -0.6305  -0.5760
    -0.2852  -0.2575   3.1902   5.1125   5.8735   7.4892  10.4622  11.0196
    11.4407  14.1561  14.8853  15.0354  16.7606  17.6522  19.6123  20.2996
    21.4076

          k = 0.2107 0.2107-0.0000 ( 11039 PWs)   bands (ev):

  -108.5857 -56.9169 -56.9169 -56.9169  -5.0192  -0.6520  -0.6313  -0.5781
    -0.2851  -0.2578   3.2060   5.1245   5.8779   7.4810  10.4562  11.0135
    11.4382  14.1600  14.8755  15.0192  16.7550  17.6310  19.5831  20.3353
    21.3784

          k = 0.2092 0.2092 0.0000 ( 11043 PWs)   bands (ev):

  -108.5857 -56.9169 -56.9169 -56.9169  -5.0219  -0.6527  -0.6320  -0.5802
    -0.2850  -0.2580   3.2218   5.1365   5.8822   7.4728  10.4502  11.0074
    11.4355  14.1639  14.8657  15.0033  16.7494  17.6098  19.5540  20.3710
    21.3494

          k = 0.2077 0.2077 0.0000 ( 11043 PWs)   bands (ev):

  -108.5857 -56.9169 -56.9169 -56.9169  -5.0245  -0.6533  -0.6328  -0.5823
    -0.2849  -0.2583   3.2377   5.1484   5.8865   7.4645  10.4444  11.0014
    11.4326  14.1679  14.8559  14.9875  16.7438  17.5887  19.5248  20.4066
    21.3207

          k = 0.2062 0.2062-0.0000 ( 11049 PWs)   bands (ev):

  -108.5857 -56.9169 -56.9169 -56.9169  -5.0271  -0.6540  -0.6335  -0.5843
    -0.2848  -0.2585   3.2536   5.1604   5.8908   7.4562  10.4386  10.9954
    11.4295  14.1721  14.8460  14.9721  16.7383  17.5676  19.4957  20.4420
    21.2923

          k = 0.2048 0.2048 0.0000 ( 11049 PWs)   bands (ev):

  -108.5857 -56.9169 -56.9169 -56.9169  -5.0297  -0.6546  -0.6343  -0.5863
    -0.2847  -0.2588   3.2695   5.1723   5.8950   7.4478  10.4330  10.9894
    11.4263  14.1765  14.8359  14.9571  16.7327  17.5467  19.4667  20.4771
    21.2645

          k = 0.2033 0.2033 0.0000 ( 11049 PWs)   bands (ev):

  -108.5857 -56.9169 -56.9169 -56.9169  -5.0323  -0.6553  -0.6351  -0.5883
    -0.2846  -0.2590   3.2855   5.1842   5.8992   7.4395  10.4275  10.9834
    11.4229  14.1809  14.8256  14.9425  16.7272  17.5258  19.4377  20.5118
    21.2373

          k = 0.2018 0.2018-0.0000 ( 11049 PWs)   bands (ev):

  -108.5857 -56.9169 -56.9169 -56.9169  -5.0348  -0.6560  -0.6358  -0.5903
    -0.2845  -0.2592   3.3015   5.1961   5.9034   7.4311  10.4220  10.9776
    11.4193  14.1855  14.8150  14.9286  16.7217  17.5051  19.4087  20.5458
    21.2110

          k = 0.2003 0.2003 0.0000 ( 11055 PWs)   bands (ev):

  -108.5857 -56.9169 -56.9169 -56.9169  -5.0374  -0.6566  -0.6366  -0.5923
    -0.2844  -0.2595   3.3175   5.2080   5.9075   7.4227  10.4167  10.9717
    11.4156  14.1902  14.8039  14.9153  16.7162  17.4844  19.3797  20.5789
    21.1857

          k = 0.1989 0.1989 0.0000 ( 11055 PWs)   bands (ev):

  -108.5857 -56.9169 -56.9169 -56.9169  -5.0400  -0.6573  -0.6374  -0.5942
    -0.2843  -0.2597   3.3336   5.2198   5.9116   7.4142  10.4116  10.9659
    11.4117  14.1950  14.7922  14.9029  16.7107  17.4639  19.3508  20.6107
    21.1619

          k = 0.1974 0.1974-0.0000 ( 11063 PWs)   bands (ev):

  -108.5857 -56.9169 -56.9169 -56.9169  -5.0425  -0.6579  -0.6381  -0.5961
    -0.2842  -0.2599   3.3497   5.2316   5.9157   7.4058  10.4065  10.9601
    11.4076  14.2000  14.7800  14.8913  16.7053  17.4435  19.3219  20.6407
    21.1400

          k = 0.1959 0.1959 0.0000 ( 11055 PWs)   bands (ev):

  -108.5857 -56.9169 -56.9169 -56.9169  -5.0451  -0.6585  -0.6389  -0.5980
    -0.2841  -0.2601   3.3658   5.2434   5.9197   7.3973  10.4015  10.9543
    11.4034  14.2051  14.7670  14.8807  16.6998  17.4233  19.2931  20.6683
    21.1208

          k = 0.1945 0.1945 0.0000 ( 11055 PWs)   bands (ev):

  -108.5857 -56.9169 -56.9169 -56.9169  -5.0476  -0.6592  -0.6397  -0.5999
    -0.2840  -0.2604   3.3820   5.2552   5.9237   7.3887  10.3967  10.9486
    11.3990  14.2103  14.7533  14.8710  16.6944  17.4031  19.2643  20.6925
    21.1051

          k = 0.1930 0.1930-0.0000 ( 11055 PWs)   bands (ev):

  -108.5857 -56.9169 -56.9169 -56.9169  -5.0502  -0.6598  -0.6404  -0.6017
    -0.2839  -0.2606   3.3981   5.2670   5.9277   7.3802  10.3919  10.9430
    11.3944  14.2156  14.7389  14.8622  16.6891  17.3831  19.2355  20.7122
    21.0941

          k = 0.1915 0.1915 0.0000 ( 11055 PWs)   bands (ev):

  -108.5857 -56.9169 -56.9169 -56.9169  -5.0527  -0.6604  -0.6412  -0.6036
    -0.2837  -0.2608   3.4144   5.2787   5.9317   7.3716  10.3873  10.9373
    11.3896  14.2211  14.7239  14.8544  16.6837  17.3633  19.2068  20.7263
    21.0889

          k = 0.1900 0.1900 0.0000 ( 11059 PWs)   bands (ev):

  -108.5857 -56.9169 -56.9169 -56.9169  -5.0552  -0.6611  -0.6420  -0.6054
    -0.2836  -0.2610   3.4306   5.2904   5.9356   7.3630  10.3828  10.9317
    11.3847  14.2267  14.7083  14.8473  16.6784  17.3436  19.1782  20.7336
    21.0906

          k = 0.1886 0.1886-0.0000 ( 11063 PWs)   bands (ev):

  -108.5857 -56.9169 -56.9169 -56.9169  -5.0577  -0.6617  -0.6427  -0.6071
    -0.2835  -0.2612   3.4469   5.3021   5.9394   7.3543  10.3784  10.9262
    11.3797  14.2324  14.6922  14.8411  16.6731  17.3240  19.1495  20.7340
    21.0995

          k = 0.1871 0.1871 0.0000 ( 11063 PWs)   bands (ev):

  -108.5857 -56.9169 -56.9169 -56.9169  -5.0602  -0.6623  -0.6435  -0.6089
    -0.2834  -0.2614   3.4632   5.3138   5.9433   7.3457  10.3742  10.9207
    11.3745  14.2383  14.6756  14.8356  16.6678  17.3046  19.1210  20.7277
    21.1150

          k = 0.1856 0.1856 0.0000 ( 11063 PWs)   bands (ev):

  -108.5857 -56.9169 -56.9169 -56.9169  -5.0627  -0.6629  -0.6443  -0.6107
    -0.2833  -0.2616   3.4795   5.3254   5.9471   7.3370  10.3700  10.9152
    11.3691  14.2443  14.6586  14.8307  16.6625  17.2854  19.0924  20.7160
    21.1363

          k = 0.1841 0.1841-0.0000 ( 11063 PWs)   bands (ev):

  -108.5857 -56.9169 -56.9169 -56.9169  -5.0652  -0.6635  -0.6450  -0.6124
    -0.2832  -0.2618   3.4958   5.3370   5.9509   7.3282  10.3660  10.9098
    11.3635  14.2504  14.6413  14.8264  16.6573  17.2663  19.0639  20.6999
    21.1621

          k = 0.1827 0.1827 0.0000 ( 11063 PWs)   bands (ev):

  -108.5857 -56.9169 -56.9169 -56.9169  -5.0677  -0.6641  -0.6458  -0.6141
    -0.2830  -0.2620   3.5122   5.3485   5.9546   7.3195  10.3621  10.9044
    11.3578  14.2566  14.6236  14.8227  16.6521  17.2474  19.0355  20.6804
    21.1913

          k = 0.1812 0.1812 0.0000 ( 11059 PWs)   bands (ev):

  -108.5857 -56.9169 -56.9169 -56.9169  -5.0701  -0.6647  -0.6465  -0.6158
    -0.2829  -0.2622   3.5286   5.3601   5.9583   7.3107  10.3583  10.8990
    11.3520  14.2630  14.6057  14.8195  16.6469  17.2286  19.0071  20.6586
    21.2231

          k = 0.1797 0.1797-0.0000 ( 11059 PWs)   bands (ev):

  -108.5857 -56.9169 -56.9169 -56.9169  -5.0726  -0.6653  -0.6473  -0.6174
    -0.2828  -0.2624   3.5450   5.3716   5.9620   7.3019  10.3547  10.8937
    11.3460  14.2694  14.5876  14.8168  16.6418  17.2101  18.9787  20.6350
    21.2569

          k = 0.1782 0.1782 0.0000 ( 11051 PWs)   bands (ev):

  -108.5857 -56.9169 -56.9169 -56.9169  -5.0750  -0.6659  -0.6481  -0.6191
    -0.2827  -0.2626   3.5615   5.3830   5.9657   7.2930  10.3511  10.8884
    11.3399  14.2761  14.5692  14.8145  16.6367  17.1917  18.9504  20.6101
    21.2921

          k = 0.1768 0.1768 0.0000 ( 11043 PWs)   bands (ev):

  -108.5857 -56.9169 -56.9169 -56.9169  -5.0774  -0.6665  -0.6488  -0.6207
    -0.2825  -0.2627   3.5780   5.3944   5.9693   7.2841  10.3477  10.8831
    11.3336  14.2828  14.5507  14.8126  16.6316  17.1734  18.9221  20.5842
    21.3284

          k = 0.1753 0.1753-0.0000 ( 11051 PWs)   bands (ev):

  -108.5857 -56.9169 -56.9169 -56.9169  -5.0798  -0.6671  -0.6496  -0.6223
    -0.2824  -0.2629   3.5945   5.4058   5.9729   7.2752  10.3444  10.8779
    11.3271  14.2897  14.5320  14.8112  16.6265  17.1554  18.8939  20.5575
    21.3656

          k = 0.1738 0.1738 0.0000 ( 11055 PWs)   bands (ev):

  -108.5857 -56.9169 -56.9169 -56.9169  -5.0822  -0.6677  -0.6504  -0.6239
    -0.2823  -0.2631   3.6110   5.4171   5.9764   7.2663  10.3412  10.8728
    11.3206  14.2966  14.5132  14.8102  16.6215  17.1375  18.8658  20.5303
    21.4035

          k = 0.1724 0.1724 0.0000 ( 11059 PWs)   bands (ev):

  -108.5857 -56.9169 -56.9169 -56.9169  -5.0846  -0.6683  -0.6511  -0.6254
    -0.2821  -0.2633   3.6275   5.4284   5.9799   7.2573  10.3382  10.8676
    11.3139  14.3038  14.4942  14.8095  16.6165  17.1198  18.8376  20.5027
    21.4420

          k = 0.1709 0.1709-0.0000 ( 11059 PWs)   bands (ev):

  -108.5857 -56.9169 -56.9169 -56.9169  -5.0870  -0.6689  -0.6519  -0.6270
    -0.2820  -0.2634   3.6441   5.4397   5.9834   7.2483  10.3352  10.8626
    11.3070  14.3110  14.4751  14.8092  16.6115  17.1023  18.8096  20.4747
    21.4809

          k = 0.1694 0.1694 0.0000 ( 11059 PWs)   bands (ev):

  -108.5857 -56.9169 -56.9169 -56.9169  -5.0894  -0.6694  -0.6526  -0.6285
    -0.2819  -0.2636   3.6607   5.4509   5.9869   7.2392  10.3324  10.8575
    11.3001  14.3184  14.4559  14.8092  16.6065  17.0850  18.7816  20.4465
    21.5202

          k = 0.1679 0.1679 0.0000 ( 11059 PWs)   bands (ev):

  -108.5857 -56.9169 -56.9169 -56.9169  -5.0917  -0.6700  -0.6534  -0.6300
    -0.2818  -0.2638   3.6773   5.4620   5.9903   7.2301  10.3298  10.8525
    11.2930  14.3259  14.4366  14.8096  16.6016  17.0678  18.7536  20.4181
    21.5599

          k = 0.1665 0.1665-0.0000 ( 11059 PWs)   bands (ev):

  -108.5857 -56.9169 -56.9169 -56.9169  -5.0941  -0.6706  -0.6541  -0.6315
    -0.2816  -0.2639   3.6939   5.4731   5.9937   7.2210  10.3272  10.8475
    11.2857  14.3335  14.4172  14.8104  16.5967  17.0509  18.7257  20.3896
    21.5998

          k = 0.1650 0.1650 0.0000 ( 11059 PWs)   bands (ev):

  -108.5857 -56.9169 -56.9169 -56.9169  -5.0964  -0.6711  -0.6549  -0.6329
    -0.2815  -0.2641   3.7105   5.4842   5.9970   7.2119  10.3248  10.8426
    11.2784  14.3412  14.3978  14.8115  16.5919  17.0341  18.6978  20.3609
    21.6399

          k = 0.1635 0.1635 0.0000 ( 11059 PWs)   bands (ev):

  -108.5857 -56.9169 -56.9169 -56.9169  -5.0987  -0.6717  -0.6556  -0.6344
    -0.2814  -0.2643   3.7272   5.4952   6.0004   7.2027  10.3225  10.8377
    11.2709  14.3491  14.3782  14.8129  16.5870  17.0175  18.6700  20.3322
    21.6803

          k = 0.1620 0.1620-0.0000 ( 11063 PWs)   bands (ev):

  -108.5857 -56.9169 -56.9169 -56.9169  -5.1010  -0.6722  -0.6564  -0.6358
    -0.2812  -0.2644   3.7439   5.5062   6.0037   7.1935  10.3203  10.8329
    11.2634  14.3571  14.3586  14.8146  16.5822  17.0011  18.6422  20.3034
    21.7208

          k = 0.1606 0.1606 0.0000 ( 11063 PWs)   bands (ev):

  -108.5857 -56.9169 -56.9169 -56.9169  -5.1033  -0.6728  -0.6571  -0.6372
    -0.2811  -0.2646   3.7606   5.5171   6.0069   7.1842  10.3183  10.8280
    11.2557  14.3389  14.3652  14.8166  16.5774  16.9849  18.6145  20.2746
    21.7615

          k = 0.1591 0.1591 0.0000 ( 11063 PWs)   bands (ev):

  -108.5857 -56.9169 -56.9169 -56.9169  -5.1056  -0.6733  -0.6579  -0.6386
    -0.2810  -0.2647   3.7773   5.5280   6.0101   7.1749  10.3163  10.8233
    11.2479  14.3191  14.3734  14.8189  16.5727  16.9688  18.5869  20.2458
    21.8023

          k = 0.1576 0.1576-0.0000 ( 11059 PWs)   bands (ev):

  -108.5857 -56.9169 -56.9169 -56.9169  -5.1079  -0.6739  -0.6586  -0.6400
    -0.2808  -0.2649   3.7940   5.5388   6.0133   7.1656  10.3146  10.8185
    11.2400  14.2993  14.3818  14.8215  16.5679  16.9530  18.5593  20.2170
    21.8432

          k = 0.1562 0.1562 0.0000 ( 11059 PWs)   bands (ev):

  -108.5857 -56.9169 -56.9169 -56.9169  -5.1101  -0.6744  -0.6593  -0.6413
    -0.2807  -0.2650   3.8107   5.5495   6.0165   7.1563  10.3129  10.8138
    11.2320  14.2794  14.3902  14.8244  16.5632  16.9373  18.5317  20.1882
    21.8842

          k = 0.1547 0.1547 0.0000 ( 11059 PWs)   bands (ev):

  -108.5857 -56.9169 -56.9169 -56.9169  -5.1123  -0.6749  -0.6601  -0.6426
    -0.2806  -0.2651   3.8275   5.5602   6.0196   7.1469  10.3113  10.8092
    11.2240  14.2595  14.3988  14.8276  16.5586  16.9218  18.5042  20.1594
    21.9253

          k = 0.1532 0.1532-0.0000 ( 11059 PWs)   bands (ev):

  -108.5857 -56.9169 -56.9169 -56.9169  -5.1146  -0.6755  -0.6608  -0.6439
    -0.2804  -0.2653   3.8442   5.5708   6.0227   7.1374  10.3099  10.8046
    11.2158  14.2395  14.4076  14.8311  16.5539  16.9065  18.4768  20.1307
    21.9665

          k = 0.1517 0.1517 0.0000 ( 11061 PWs)   bands (ev):

  -108.5857 -56.9169 -56.9169 -56.9169  -5.1168  -0.6760  -0.6615  -0.6452
    -0.2803  -0.2654   3.8610   5.5814   6.0257   7.1280  10.3086  10.8000
    11.2075  14.2195  14.4164  14.8349  16.5493  16.8914  18.4494  20.1020
    22.0078

          k = 0.1503 0.1503 0.0000 ( 11053 PWs)   bands (ev):

  -108.5857 -56.9169 -56.9169 -56.9169  -5.1190  -0.6765  -0.6623  -0.6465
    -0.2802  -0.2656   3.8778   5.5919   6.0288   7.1185  10.3075  10.7955
    11.1992  14.1994  14.4254  14.8389  16.5447  16.8765  18.4221  20.0733
    22.0491

          k = 0.1488 0.1488-0.0000 ( 11053 PWs)   bands (ev):

  -108.5857 -56.9169 -56.9169 -56.9169  -5.1211  -0.6770  -0.6630  -0.6478
    -0.2800  -0.2657   3.8946   5.6024   6.0318   7.1089  10.3065  10.7910
    11.1908  14.1793  14.4345  14.8432  16.5401  16.8618  18.3949  20.0448
    22.0904

          k = 0.1473 0.1473 0.0000 ( 11053 PWs)   bands (ev):

  -108.5857 -56.9169 -56.9169 -56.9169  -5.1233  -0.6775  -0.6637  -0.6490
    -0.2799  -0.2658   3.9114   5.6128   6.0347   7.0994  10.3056  10.7865
    11.1823  14.1592  14.4437  14.8477  16.5356  16.8473  18.3676  20.0162
    22.1318

          k = 0.1458 0.1458 0.0000 ( 11053 PWs)   bands (ev):

  -108.5857 -56.9169 -56.9169 -56.9169  -5.1255  -0.6781  -0.6644  -0.6502
    -0.2797  -0.2660   3.9282   5.6231   6.0377   7.0898  10.3048  10.7821
    11.1737  14.1391  14.4530  14.8526  16.5311  16.8329  18.3405  19.9878
    22.1732

          k = 0.1444 0.1444-0.0000 ( 11053 PWs)   bands (ev):

  -108.5857 -56.9169 -56.9169 -56.9169  -5.1276  -0.6786  -0.6651  -0.6514
    -0.2796  -0.2661   3.9450   5.6334   6.0406   7.0801  10.3041  10.7778
    11.1651  14.1189  14.4625  14.8576  16.5266  16.8187  18.3134  19.9594
    22.2147

          k = 0.1429 0.1429 0.0000 ( 11053 PWs)   bands (ev):

  -108.5857 -56.9169 -56.9169 -56.9169  -5.1297  -0.6791  -0.6658  -0.6526
    -0.2795  -0.2662   3.9618   5.6436   6.0434   7.0704  10.3036  10.7734
    11.1564  14.0987  14.4720  14.8629  16.5221  16.8047  18.2864  19.9311
    22.2561

          k = 0.1414 0.1414 0.0000 ( 11047 PWs)   bands (ev):

  -108.5857 -56.9169 -56.9169 -56.9169  -5.1318  -0.6795  -0.6665  -0.6538
    -0.2793  -0.2663   3.9787   5.6537   6.0462   7.0607  10.3032  10.7692
    11.1477  14.0785  14.4817  14.8685  16.5177  16.7910  18.2594  19.9029
    22.2976

          k = 0.1399 0.1399-0.0000 ( 11057 PWs)   bands (ev):

  -108.5857 -56.9169 -56.9169 -56.9169  -5.1339  -0.6800  -0.6672  -0.6550
    -0.2792  -0.2665   3.9955   5.6638   6.0490   7.0509  10.3029  10.7649
    11.1389  14.0582  14.4915  14.8743  16.5133  16.7773  18.2325  19.8748
    22.3390

          k = 0.1385 0.1385 0.0000 ( 11045 PWs)   bands (ev):

  -108.5857 -56.9169 -56.9169 -56.9169  -5.1360  -0.6805  -0.6679  -0.6561
    -0.2791  -0.2666   4.0123   5.6737   6.0518   7.0411  10.3028  10.7607
    11.1300  14.0380  14.5015  14.8803  16.5089  16.7639  18.2056  19.8468
    22.3805

          k = 0.1370 0.1370 0.0000 ( 11045 PWs)   bands (ev):

  -108.5857 -56.9169 -56.9169 -56.9169  -5.1380  -0.6810  -0.6686  -0.6572
    -0.2789  -0.2667   4.0292   5.6837   6.0545   7.0313  10.3028  10.7565
    11.1211  14.0177  14.5115  14.8866  16.5046  16.7507  18.1789  19.8189
    22.4220

          k = 0.1355 0.1355-0.0000 ( 11045 PWs)   bands (ev):

  -108.5857 -56.9169 -56.9169 -56.9169  -5.1400  -0.6815  -0.6693  -0.6583
    -0.2788  -0.2668   4.0460   5.6935   6.0572   7.0214  10.3029  10.7524
    11.1122  13.9975  14.5217  14.8931  16.5002  16.7376  18.1521  19.7910
    22.4634

          k = 0.1341 0.1341 0.0000 ( 11037 PWs)   bands (ev):

  -108.5857 -56.9169 -56.9169 -56.9169  -5.1421  -0.6819  -0.6700  -0.6594
    -0.2787  -0.2669   4.0629   5.7033   6.0599   7.0115  10.3031  10.7483
    11.1032  13.9772  14.5320  14.8998  16.4959  16.7247  18.1255  19.7633
    22.5048

          k = 0.1326 0.1326 0.0000 ( 11037 PWs)   bands (ev):

  -108.5857 -56.9169 -56.9169 -56.9169  -5.1441  -0.6824  -0.6707  -0.6605
    -0.2785  -0.2670   4.0797   5.7130   6.0626   7.0015  10.3035  10.7443
    11.0942  13.9570  14.5424  14.9067  16.4917  16.7120  18.0989  19.7357
    22.5462

          k = 0.1311 0.1311-0.0000 ( 11037 PWs)   bands (ev):

  -108.5857 -56.9169 -56.9169 -56.9169  -5.1461  -0.6829  -0.6714  -0.6615
    -0.2784  -0.2671   4.0966   5.7226   6.0652   6.9915  10.3040  10.7403
    11.0852  13.9368  14.5529  14.9138  16.4874  16.6995  18.0723  19.7082
    22.5875

          k = 0.1296 0.1296 0.0000 ( 11033 PWs)   bands (ev):

  -108.5857 -56.9169 -56.9169 -56.9169  -5.1480  -0.6833  -0.6720  -0.6626
    -0.2783  -0.2672   4.1134   5.7322   6.0677   6.9815  10.3046  10.7363
    11.0761  13.9165  14.5635  14.9212  16.4832  16.6871  18.0458  19.6808
    22.6288

          k = 0.1282 0.1282 0.0000 ( 11025 PWs)   bands (ev):

  -108.5857 -56.9169 -56.9169 -56.9169  -5.1500  -0.6838  -0.6727  -0.6636
    -0.2781  -0.2673   4.1303   5.7416   6.0703   6.9714  10.3053  10.7324
    11.0671  13.8963  14.5743  14.9287  16.4789  16.6750  18.0194  19.6535
    22.6701

          k = 0.1267 0.1267-0.0000 ( 11025 PWs)   bands (ev):

  -108.5857 -56.9169 -56.9169 -56.9169  -5.1519  -0.6842  -0.6734  -0.6646
    -0.2780  -0.2674   4.1471   5.7510   6.0728   6.9613  10.3061  10.7286
    11.0580  13.8761  14.5851  14.9365  16.4748  16.6630  17.9931  19.6263
    22.7113

          k = 0.1252 0.1252 0.0000 ( 11025 PWs)   bands (ev):

  -108.5857 -56.9169 -56.9169 -56.9169  -5.1538  -0.6847  -0.6740  -0.6656
    -0.2778  -0.2675   4.1639   5.7603   6.0753   6.9512  10.3071  10.7247
    11.0489  13.8560  14.5961  14.9444  16.4706  16.6512  17.9668  19.5993
    22.7524

          k = 0.1237 0.1237 0.0000 ( 11025 PWs)   bands (ev):

  -108.5857 -56.9169 -56.9169 -56.9169  -5.1557  -0.6851  -0.6747  -0.6666
    -0.2777  -0.2676   4.1808   5.7696   6.0777   6.9410  10.3082  10.7209
    11.0398  13.8358  14.6072  14.9525  16.4664  16.6396  17.9405  19.5724
    22.7935

          k = 0.1223 0.1223-0.0000 ( 11025 PWs)   bands (ev):

  -108.5857 -56.9169 -56.9169 -56.9169  -5.1576  -0.6856  -0.6753  -0.6675
    -0.2776  -0.2677   4.1976   5.7787   6.0801   6.9308  10.3094  10.7172
    11.0307  13.8157  14.6184  14.9608  16.4623  16.6281  17.9144  19.5456
    22.8344

          k = 0.1208 0.1208 0.0000 ( 11025 PWs)   bands (ev):

  -108.5857 -56.9169 -56.9169 -56.9169  -5.1595  -0.6860  -0.6760  -0.6685
    -0.2774  -0.2678   4.2144   5.7878   6.0825   6.9205  10.3107  10.7135
    11.0215  13.7956  14.6297  14.9693  16.4582  16.6168  17.8883  19.5189
    22.8754

          k = 0.1193 0.1193 0.0000 ( 11025 PWs)   bands (ev):

  -108.5857 -56.9169 -56.9169 -56.9169  -5.1613  -0.6864  -0.6766  -0.6694
    -0.2773  -0.2679   4.2312   5.7967   6.0849   6.9102  10.3122  10.7098
    11.0124  13.7755  14.6412  14.9780  16.4541  16.6057  17.8623  19.4924
    22.9162

          k = 0.1179 0.1179-0.0000 ( 11023 PWs)   bands (ev):

  -108.5857 -56.9169 -56.9169 -56.9169  -5.1631  -0.6868  -0.6772  -0.6703
    -0.2772  -0.2680   4.2480   5.8056   6.0872   6.8999  10.3137  10.7062
    11.0033  13.7555  14.6527  14.9868  16.4500  16.5948  17.8363  19.4660
    22.9569

          k = 0.1164 0.1164 0.0000 ( 11023 PWs)   bands (ev):

  -108.5857 -56.9169 -56.9169 -56.9169  -5.1649  -0.6872  -0.6779  -0.6712
    -0.2771  -0.2681   4.2648   5.8144   6.0895   6.8895  10.3154  10.7026
    10.9943  13.7356  14.6644  14.9958  16.4460  16.5840  17.8104  19.4398
    22.9975

          k = 0.1149 0.1149 0.0000 ( 11023 PWs)   bands (ev):

  -108.5857 -56.9169 -56.9169 -56.9169  -5.1667  -0.6877  -0.6785  -0.6721
    -0.2769  -0.2682   4.2815   5.8232   6.0917   6.8791  10.3172  10.6991
    10.9852  13.7157  14.6762  15.0050  16.4420  16.5734  17.7846  19.4137
    23.0380

          k = 0.1134 0.1134-0.0000 ( 11023 PWs)   bands (ev):

  -108.5857 -56.9169 -56.9169 -56.9169  -5.1685  -0.6881  -0.6791  -0.6730
    -0.2768  -0.2683   4.2983   5.8318   6.0940   6.8687  10.3191  10.6956
    10.9761  13.6958  14.6881  15.0143  16.4379  16.5630  17.7588  19.3877
    23.0784

          k = 0.1120 0.1120 0.0000 ( 11023 PWs)   bands (ev):

  -108.5857 -56.9169 -56.9169 -56.9169  -5.1703  -0.6885  -0.6797  -0.6738
    -0.2767  -0.2684   4.3150   5.8403   6.0962   6.8582  10.3211  10.6922
    10.9671  13.6760  14.7001  15.0238  16.4339  16.5527  17.7332  19.3619
    23.1187

          k = 0.1105 0.1105 0.0000 ( 11023 PWs)   bands (ev):

  -108.5857 -56.9169 -56.9169 -56.9169  -5.1720  -0.6889  -0.6803  -0.6746
    -0.2765  -0.2684   4.3317   5.8488   6.0983   6.8477  10.3232  10.6888
    10.9581  13.6562  14.7122  15.0334  16.4300  16.5427  17.7075  19.3362
    23.1588

          k = 0.1090 0.1090-0.0000 ( 11023 PWs)   bands (ev):

  -108.5857 -56.9169 -56.9169 -56.9169  -5.1737  -0.6893  -0.6809  -0.6755
    -0.2764  -0.2685   4.3484   5.8571   6.1004   6.8371  10.3255  10.6854
    10.9491  13.6366  14.7244  15.0432  16.4260  16.5328  17.6820  19.3107
    23.1988

          k = 0.1075 0.1075 0.0000 ( 11027 PWs)   bands (ev):

  -108.5857 -56.9169 -56.9169 -56.9169  -5.1754  -0.6896  -0.6815  -0.6763
    -0.2763  -0.2686   4.3651   5.8654   6.1026   6.8266  10.3278  10.6821
    10.9402  13.6169  14.7367  15.0531  16.4220  16.5230  17.6565  19.2854
    23.2387

          k = 0.1061 0.1061 0.0000 ( 11023 PWs)   bands (ev):

  -108.5857 -56.9169 -56.9169 -56.9169  -5.1771  -0.6900  -0.6821  -0.6771
    -0.2762  -0.2687   4.3818   5.8736   6.1046   6.8159  10.3302  10.6788
    10.9313  13.5974  14.7491  15.0631  16.4181  16.5134  17.6311  19.2602
    23.2783

          k = 0.1046 0.1046-0.0000 ( 11023 PWs)   bands (ev):

  -108.5857 -56.9169 -56.9169 -56.9169  -5.1787  -0.6904  -0.6827  -0.6779
    -0.2760  -0.2688   4.3984   5.8817   6.1067   6.8053  10.3328  10.6756
    10.9225  13.5779  14.7617  15.0733  16.4141  16.5040  17.6058  19.2351
    23.3178

          k = 0.1031 0.1031 0.0000 ( 11023 PWs)   bands (ev):

  -108.5857 -56.9169 -56.9169 -56.9169  -5.1804  -0.6908  -0.6833  -0.6786
    -0.2759  -0.2688   4.4150   5.8896   6.1087   6.7946  10.3354  10.6724
    10.9137  13.5586  14.7743  15.0836  16.4102  16.4948  17.5805  19.2103
    23.3571

          k = 0.1016 0.1016 0.0000 ( 11023 PWs)   bands (ev):

  -108.5857 -56.9169 -56.9169 -56.9169  -5.1820  -0.6911  -0.6838  -0.6794
    -0.2758  -0.2689   4.4316   5.8975   6.1107   6.7839  10.3382  10.6692
    10.9049  13.5393  14.7871  15.0940  16.4062  16.4857  17.5553  19.1856
    23.3963

          k = 0.1002 0.1002-0.0000 ( 11015 PWs)   bands (ev):

  -108.5857 -56.9169 -56.9169 -56.9169  -5.1836  -0.6915  -0.6844  -0.6801
    -0.2757  -0.2690   4.4481   5.9053   6.1126   6.7732  10.3410  10.6661
    10.8962  13.5201  14.8000  15.1045  16.4023  16.4768  17.5302  19.1611
    23.4352

          k = 0.0987 0.0987 0.0000 ( 11015 PWs)   bands (ev):

  -108.5857 -56.9169 -56.9169 -56.9169  -5.1851  -0.6919  -0.6849  -0.6809
    -0.2755  -0.2690   4.4646   5.9130   6.1145   6.7624  10.3439  10.6631
    10.8875  13.5009  14.8129  15.1152  16.3984  16.4681  17.5052  19.1367
    23.4739

          k = 0.0972 0.0972 0.0000 ( 11019 PWs)   bands (ev):

  -108.5857 -56.9169 -56.9169 -56.9169  -5.1867  -0.6922  -0.6855  -0.6816
    -0.2754  -0.2691   4.4811   5.9206   6.1164   6.7516  10.3470  10.6600
    10.8789  13.4819  14.8260  15.1259  16.3945  16.4595  17.4802  19.1126
    23.5124

          k = 0.0958 0.0958-0.0000 ( 11019 PWs)   bands (ev):

  -108.5857 -56.9169 -56.9169 -56.9169  -5.1882  -0.6926  -0.6860  -0.6823
    -0.2753  -0.2692   4.4975   5.9281   6.1183   6.7407  10.3501  10.6571
    10.8704  13.4630  14.8392  15.1368  16.3905  16.4511  17.4553  19.0886
    23.5507

          k = 0.0943 0.0943 0.0000 ( 11015 PWs)   bands (ev):

  -108.5857 -56.9169 -56.9169 -56.9169  -5.1897  -0.6929  -0.6866  -0.6830
    -0.2752  -0.2692   4.5140   5.9355   6.1201   6.7299  10.3533  10.6541
    10.8619  13.4442  14.8525  15.1477  16.3866  16.4429  17.4305  19.0648
    23.5887

          k = 0.0928 0.0928 0.0000 ( 11019 PWs)   bands (ev):

  -108.5857 -56.9169 -56.9169 -56.9169  -5.1912  -0.6933  -0.6871  -0.6837
    -0.2751  -0.2693   4.5303   5.9428   6.1219   6.7190  10.3566  10.6513
    10.8535  13.4255  14.8659  15.1587  16.3827  16.4348  17.4058  19.0412
    23.6265

          k = 0.0913 0.0913-0.0000 ( 11019 PWs)   bands (ev):

  -108.5857 -56.9169 -56.9169 -56.9169  -5.1927  -0.6936  -0.6876  -0.6843
    -0.2750  -0.2694   4.5466   5.9500   6.1236   6.7081  10.3600  10.6484
    10.8452  13.4070  14.8794  15.1699  16.3787  16.4269  17.3811  19.0179
    23.6639

          k = 0.0899 0.0899 0.0000 ( 11019 PWs)   bands (ev):

  -108.5857 -56.9169 -56.9169 -56.9169  -5.1941  -0.6939  -0.6881  -0.6850
    -0.2748  -0.2694   4.5629   5.9571   6.1254   6.6972  10.3634  10.6456
    10.8370  13.3885  14.8930  15.1811  16.3747  16.4192  17.3565  18.9947
    23.7011

          k = 0.0884 0.0884 0.0000 ( 11007 PWs)   bands (ev):

  -108.5857 -56.9169 -56.9169 -56.9169  -5.1956  -0.6942  -0.6886  -0.6856
    -0.2747  -0.2695   4.5792   5.9641   6.1271   6.6862  10.3670  10.6429
    10.8288  13.3702  14.9066  15.1924  16.3707  16.4117  17.3320  18.9717
    23.7380

          k = 0.0869 0.0869-0.0000 ( 11011 PWs)   bands (ev):

  -108.5857 -56.9169 -56.9169 -56.9169  -5.1970  -0.6946  -0.6891  -0.6863
    -0.2746  -0.2695   4.5953   5.9710   6.1288   6.6752  10.3706  10.6402
    10.8207  13.3520  14.9204  15.2037  16.3667  16.4044  17.3076  18.9489
    23.7746

          k = 0.0854 0.0854 0.0000 ( 11011 PWs)   bands (ev):

  -108.5857 -56.9169 -56.9169 -56.9169  -5.1984  -0.6949  -0.6896  -0.6869
    -0.2745  -0.2696   4.6115   5.9778   6.1304   6.6642  10.3743  10.6375
    10.8127  13.3339  14.9343  15.2151  16.3626  16.3972  17.2833  18.9263
    23.8109

          k = 0.0840 0.0840 0.0000 ( 11011 PWs)   bands (ev):

  -108.5857 -56.9169 -56.9169 -56.9169  -5.1997  -0.6952  -0.6901  -0.6875
    -0.2744  -0.2697   4.6276   5.9844   6.1320   6.6532  10.3780  10.6349
    10.8047  13.3160  14.9483  15.2266  16.3585  16.3903  17.2590  18.9040
    23.8468

          k = 0.0825 0.0825-0.0000 ( 11011 PWs)   bands (ev):

  -108.5857 -56.9169 -56.9169 -56.9169  -5.2011  -0.6955  -0.6906  -0.6881
    -0.2743  -0.2697   4.6436   5.9910   6.1336   6.6422  10.3818  10.6323
    10.7969  13.2983  14.9624  15.2382  16.3543  16.3836  17.2348  18.8818
    23.8823

          k = 0.0810 0.0810 0.0000 ( 11011 PWs)   bands (ev):

  -108.5857 -56.9169 -56.9169 -56.9169  -5.2024  -0.6958  -0.6910  -0.6886
    -0.2742  -0.2698   4.6596   5.9975   6.1352   6.6312  10.3857  10.6298
    10.7892  13.2807  14.9766  15.2498  16.3501  16.3771  17.2107  18.8599
    23.9175

          k = 0.0795 0.0795 0.0000 ( 11015 PWs)   bands (ev):

  -108.5857 -56.9169 -56.9169 -56.9169  -5.2037  -0.6961  -0.6915  -0.6892
    -0.2741  -0.2698   4.6755   6.0038   6.1367   6.6201  10.3897  10.6273
    10.7815  13.2632  14.9908  15.2614  16.3457  16.3708  17.1867  18.8383
    23.9523

          k = 0.0781 0.0781-0.0000 ( 11015 PWs)   bands (ev):

  -108.5857 -56.9169 -56.9169 -56.9169  -5.2050  -0.6964  -0.6920  -0.6898
    -0.2740  -0.2699   4.6913   6.0101   6.1382   6.6091  10.3936  10.6248
    10.7739  13.2459  15.0052  15.2731  16.3413  16.3647  17.1628  18.8168
    23.9867

          k = 0.0766 0.0766 0.0000 ( 11015 PWs)   bands (ev):

  -108.5857 -56.9169 -56.9169 -56.9169  -5.2062  -0.6966  -0.6924  -0.6903
    -0.2739  -0.2699   4.7071   6.0162   6.1397   6.5980  10.3977  10.6224
    10.7665  13.2288  15.0197  15.2848  16.3367  16.3590  17.1390  18.7957
    24.0207

          k = 0.0751 0.0751 0.0000 ( 11015 PWs)   bands (ev):

  -108.5857 -56.9169 -56.9169 -56.9169  -5.2075  -0.6969  -0.6928  -0.6908
    -0.2738  -0.2700   4.7227   6.0222   6.1411   6.5869  10.4018  10.6201
    10.7591  13.2119  15.0342  15.2965  16.3321  16.3534  17.1152  18.7747
    24.0542

          k = 0.0737 0.0737-0.0000 ( 11023 PWs)   bands (ev):

  -108.5857 -56.9169 -56.9169 -56.9169  -5.2087  -0.6972  -0.6933  -0.6914
    -0.2737  -0.2700   4.7384   6.0282   6.1425   6.5759  10.4059  10.6178
    10.7519  13.1951  15.0489  15.3083  16.3274  16.3481  17.0916  18.7540
    24.0873

          k = 0.0722 0.0722 0.0000 ( 11023 PWs)   bands (ev):

  -108.5857 -56.9169 -56.9169 -56.9169  -5.2099  -0.6975  -0.6937  -0.6919
    -0.2736  -0.2701   4.7539   6.0340   6.1439   6.5648  10.4101  10.6155
    10.7447  13.1785  15.0636  15.3201  16.3225  16.3430  17.0680  18.7336
    24.1199

          k = 0.0707 0.0707 0.0000 ( 11023 PWs)   bands (ev):

  -108.5857 -56.9169 -56.9169 -56.9169  -5.2110  -0.6977  -0.6941  -0.6924
    -0.2735  -0.2701   4.7694   6.0397   6.1452   6.5538  10.4143  10.6133
    10.7377  13.1621  15.0784  15.3318  16.3176  16.3382  17.0446  18.7134
    24.1520

          k = 0.0692 0.0692-0.0000 ( 11023 PWs)   bands (ev):

  -108.5857 -56.9169 -56.9169 -56.9169  -5.2122  -0.6980  -0.6945  -0.6929
    -0.2734  -0.2701   4.7847   6.0453   6.1466   6.5427  10.4186  10.6111
    10.7308  13.1459  15.0933  15.3436  16.3127  16.3335  17.0212  18.6935
    24.1836

          k = 0.0678 0.0678 0.0000 ( 11027 PWs)   bands (ev):

  -108.5857 -56.9169 -56.9169 -56.9169  -5.2133  -0.6982  -0.6949  -0.6933
    -0.2733  -0.2702   4.8000   6.0508   6.1479   6.5317  10.4228  10.6090
    10.7239  13.1299  15.1083  15.3554  16.3077  16.3289  16.9979  18.6739
    24.2147

          k = 0.0663 0.0663 0.0000 ( 11027 PWs)   bands (ev):

  -108.5857 -56.9169 -56.9169 -56.9169  -5.2144  -0.6985  -0.6953  -0.6938
    -0.2732  -0.2702   4.8152   6.0561   6.1491   6.5207  10.4271  10.6069
    10.7172  13.1142  15.1233  15.3672  16.3027  16.3245  16.9747  18.6545
    24.2452

          k = 0.0648 0.0648-0.0000 ( 11027 PWs)   bands (ev):

  -108.5857 -56.9169 -56.9169 -56.9169  -5.2155  -0.6987  -0.6957  -0.6943
    -0.2731  -0.2703   4.8302   6.0614   6.1504   6.5097  10.4314  10.6048
    10.7107  13.0986  15.1385  15.3790  16.2978  16.3202  16.9516  18.6354
    24.2752

          k = 0.0633 0.0633 0.0000 ( 11021 PWs)   bands (ev):

  -108.5857 -56.9169 -56.9169 -56.9169  -5.2165  -0.6990  -0.6961  -0.6947
    -0.2730  -0.2703   4.8452   6.0665   6.1516   6.4987  10.4357  10.6028
    10.7042  13.0832  15.1537  15.3907  16.2929  16.3160  16.9287  18.6166
    24.3046

          k = 0.0619 0.0619 0.0000 ( 11025 PWs)   bands (ev):

  -108.5857 -56.9169 -56.9169 -56.9169  -5.2175  -0.6992  -0.6964  -0.6951
    -0.2729  -0.2703   4.8601   6.0716   6.1528   6.4878  10.4401  10.6009
    10.6979  13.0681  15.1690  15.4024  16.2881  16.3119  16.9058  18.5982
    24.3334

          k = 0.0604 0.0604-0.0000 ( 11025 PWs)   bands (ev):

  -108.5857 -56.9169 -56.9169 -56.9169  -5.2186  -0.6994  -0.6968  -0.6956
    -0.2729  -0.2704   4.8748   6.0765   6.1539   6.4769  10.4444  10.5990
    10.6916  13.0532  15.1844  15.4141  16.2833  16.3078  16.8830  18.5800
    24.3616

          k = 0.0589 0.0589 0.0000 ( 11027 PWs)   bands (ev):

  -108.5857 -56.9169 -56.9169 -56.9169  -5.2195  -0.6996  -0.6971  -0.6960
    -0.2728  -0.2704   4.8894   6.0813   6.1550   6.4660  10.4488  10.5971
    10.6855  13.0386  15.1998  15.4258  16.2786  16.3037  16.8603  18.5621
    24.3892

          k = 0.0575 0.0575 0.0000 ( 11017 PWs)   bands (ev):

  -108.5857 -56.9169 -56.9169 -56.9169  -5.2205  -0.6998  -0.6975  -0.6964
    -0.2727  -0.2704   4.9039   6.0860   6.1561   6.4552  10.4531  10.5953
    10.6796  13.0242  15.2153  15.4374  16.2740  16.2997  16.8378  18.5445
    24.4162

          k = 0.0560 0.0560-0.0000 ( 11017 PWs)   bands (ev):

  -108.5857 -56.9169 -56.9169 -56.9169  -5.2214  -0.7001  -0.6978  -0.6968
    -0.2726  -0.2705   4.9182   6.0905   6.1572   6.4444  10.4574  10.5935
    10.6737  13.0100  15.2309  15.4489  16.2695  16.2957  16.8154  18.5273
    24.4425

          k = 0.0545 0.0545 0.0000 ( 11017 PWs)   bands (ev):

  -108.5857 -56.9169 -56.9169 -56.9169  -5.2223  -0.7003  -0.6981  -0.6971
    -0.2725  -0.2705   4.9324   6.0950   6.1582   6.4337  10.4617  10.5918
    10.6680  12.9961  15.2465  15.4604  16.2652  16.2917  16.7930  18.5104
    24.4681

          k = 0.0530 0.0530 0.0000 ( 11013 PWs)   bands (ev):

  -108.5857 -56.9169 -56.9169 -56.9169  -5.2232  -0.7005  -0.6984  -0.6975
    -0.2725  -0.2705   4.9465   6.0993   6.1592   6.4231  10.4660  10.5901
    10.6625  12.9825  15.2622  15.4718  16.2609  16.2878  16.7708  18.4938
    24.4931

          k = 0.0516 0.0516-0.0000 ( 11009 PWs)   bands (ev):

  -108.5857 -56.9169 -56.9169 -56.9169  -5.2241  -0.7006  -0.6987  -0.6979
    -0.2724  -0.2706   4.9604   6.1036   6.1602   6.4125  10.4702  10.5885
    10.6570  12.9692  15.2780  15.4831  16.2567  16.2839  16.7488  18.4776
    24.5174

          k = 0.0501 0.0501 0.0000 ( 11009 PWs)   bands (ev):

  -108.5857 -56.9169 -56.9169 -56.9169  -5.2249  -0.7008  -0.6990  -0.6982
    -0.2723  -0.2706   4.9741   6.1077   6.1611   6.4020  10.4745  10.5869
    10.6517  12.9561  15.2938  15.4943  16.2526  16.2799  16.7268  18.4617
    24.5410

          k = 0.0486 0.0486 0.0000 ( 11009 PWs)   bands (ev):

  -108.5857 -56.9169 -56.9169 -56.9169  -5.2258  -0.7010  -0.6993  -0.6986
    -0.2722  -0.2706   4.9877   6.1117   6.1621   6.3916  10.4786  10.5854
    10.6465  12.9433  15.3096  15.5054  16.2487  16.2760  16.7050  18.4462
    24.5639

          k = 0.0471 0.0471-0.0000 ( 11005 PWs)   bands (ev):

  -108.5857 -56.9169 -56.9169 -56.9169  -5.2266  -0.7012  -0.6996  -0.6989
    -0.2722  -0.2707   5.0010   6.1156   6.1630   6.3813  10.4828  10.5839
    10.6415  12.9308  15.3255  15.5164  16.2449  16.2722  16.6833  18.4310
    24.5861

          k = 0.0457 0.0457 0.0000 ( 11001 PWs)   bands (ev):

  -108.5857 -56.9169 -56.9169 -56.9169  -5.2273  -0.7014  -0.6999  -0.6992
    -0.2721  -0.2707   5.0142   6.1193   6.1638   6.3711  10.4869  10.5824
    10.6366  12.9186  15.3414  15.5273  16.2411  16.2683  16.6618  18.4162
    24.6076

          k = 0.0442 0.0442 0.0000 ( 11001 PWs)   bands (ev):

  -108.5857 -56.9169 -56.9169 -56.9169  -5.2281  -0.7015  -0.7001  -0.6995
    -0.2720  -0.2707   5.0272   6.1230   6.1647   6.3610  10.4909  10.5810
    10.6319  12.9067  15.3574  15.5381  16.2375  16.2644  16.6404  18.4018
    24.6283

          k = 0.0427 0.0427-0.0000 ( 11001 PWs)   bands (ev):

  -108.5857 -56.9169 -56.9169 -56.9169  -5.2288  -0.7017  -0.7004  -0.6998
    -0.2720  -0.2707   5.0400   6.1265   6.1655   6.3510  10.4949  10.5797
    10.6273  12.8951  15.3734  15.5487  16.2341  16.2606  16.6192  18.3878
    24.6483

          k = 0.0412 0.0412 0.0000 ( 11001 PWs)   bands (ev):

  -108.5857 -56.9169 -56.9169 -56.9169  -5.2295  -0.7019  -0.7006  -0.7001
    -0.2719  -0.2708   5.0525   6.1299   6.1663   6.3412  10.4988  10.5783
    10.6228  12.8838  15.3894  15.5592  16.2307  16.2567  16.5981  18.3742
    24.6676

          k = 0.0398 0.0398 0.0000 ( 11001 PWs)   bands (ev):

  -108.5857 -56.9169 -56.9169 -56.9169  -5.2302  -0.7020  -0.7009  -0.7004
    -0.2719  -0.2708   5.0648   6.1332   6.1670   6.3315  10.5026  10.5771
    10.6185  12.8728  15.4054  15.5695  16.2275  16.2529  16.5772  18.3609
    24.6862

          k = 0.0383 0.0383-0.0000 ( 11001 PWs)   bands (ev):

  -108.5857 -56.9169 -56.9169 -56.9169  -5.2308  -0.7022  -0.7011  -0.7006
    -0.2718  -0.2708   5.0769   6.1364   6.1677   6.3219  10.5064  10.5759
    10.6143  12.8622  15.4213  15.5796  16.2243  16.2491  16.5565  18.3481
    24.7041

          k = 0.0368 0.0368 0.0000 ( 11001 PWs)   bands (ev):

  -108.5857 -56.9169 -56.9169 -56.9169  -5.2315  -0.7023  -0.7013  -0.7009
    -0.2718  -0.2708   5.0887   6.1394   6.1684   6.3126  10.5101  10.5747
    10.6103  12.8519  15.4373  15.5895  16.2213  16.2454  16.5360  18.3357
    24.7212

          k = 0.0354 0.0354 0.0000 ( 11001 PWs)   bands (ev):

  -108.5857 -56.9169 -56.9169 -56.9169  -5.2321  -0.7024  -0.7015  -0.7011
    -0.2717  -0.2708   5.1002   6.1424   6.1691   6.3034  10.5136  10.5735
    10.6064  12.8420  15.4533  15.5993  16.2184  16.2417  16.5156  18.3237
    24.7375

          k = 0.0339 0.0339-0.0000 ( 10993 PWs)   bands (ev):

  -108.5857 -56.9169 -56.9169 -56.9169  -5.2326  -0.7026  -0.7017  -0.7014
    -0.2717  -0.2709   5.1115   6.1452   6.1698   6.2944  10.5171  10.5725
    10.6027  12.8324  15.4692  15.6088  16.2157  16.2380  16.4955  18.3121
    24.7532

          k = 0.0324 0.0324 0.0000 ( 10993 PWs)   bands (ev):

  -108.5857 -56.9169 -56.9169 -56.9169  -5.2332  -0.7027  -0.7019  -0.7016
    -0.2716  -0.2709   5.1224   6.1479   6.1704   6.2856  10.5205  10.5714
    10.5991  12.8232  15.4851  15.6181  16.2130  16.2343  16.4757  18.3009
    24.7681

          k = 0.0309 0.0309 0.0000 ( 10993 PWs)   bands (ev):

  -108.5857 -56.9169 -56.9169 -56.9169  -5.2337  -0.7028  -0.7021  -0.7018
    -0.2716  -0.2709   5.1330   6.1505   6.1710   6.2770  10.5238  10.5704
    10.5957  12.8143  15.5008  15.6272  16.2105  16.2307  16.4561  18.2902
    24.7824

          k = 0.0295 0.0295-0.0000 ( 10993 PWs)   bands (ev):

  -108.5857 -56.9169 -56.9169 -56.9169  -5.2342  -0.7029  -0.7023  -0.7020
    -0.2715  -0.2709   5.1433   6.1529   6.1715   6.2687  10.5270  10.5695
    10.5924  12.8058  15.5165  15.6360  16.2081  16.2272  16.4367  18.2800
    24.7959

          k = 0.0280 0.0280 0.0000 ( 10993 PWs)   bands (ev):

  -108.5857 -56.9169 -56.9169 -56.9169  -5.2347  -0.7030  -0.7025  -0.7022
    -0.2715  -0.2709   5.1533   6.1553   6.1721   6.2606  10.5300  10.5686
    10.5893  12.7976  15.5321  15.6446  16.2058  16.2237  16.4177  18.2702
    24.8087

          k = 0.0265 0.0265 0.0000 ( 10993 PWs)   bands (ev):

  -108.5857 -56.9169 -56.9169 -56.9169  -5.2352  -0.7031  -0.7026  -0.7024
    -0.2714  -0.2709   5.1629   6.1575   6.1726   6.2528  10.5330  10.5677
    10.5864  12.7899  15.5476  15.6528  16.2036  16.2203  16.3989  18.2608
    24.8207

          k = 0.0250 0.0250-0.0000 ( 10993 PWs)   bands (ev):

  -108.5857 -56.9169 -56.9169 -56.9169  -5.2356  -0.7032  -0.7028  -0.7026
    -0.2714  -0.2710   5.1721   6.1596   6.1730   6.2452  10.5358  10.5669
    10.5836  12.7825  15.5628  15.6608  16.2015  16.2170  16.3805  18.2520
    24.8321

          k = 0.0236 0.0236 0.0000 ( 10993 PWs)   bands (ev):

  -108.5857 -56.9169 -56.9169 -56.9169  -5.2360  -0.7033  -0.7029  -0.7027
    -0.2714  -0.2710   5.1809   6.1616   6.1735   6.2380  10.5385  10.5662
    10.5809  12.7755  15.5779  15.6684  16.1996  16.2137  16.3625  18.2435
    24.8428

          k = 0.0221 0.0221 0.0000 ( 10993 PWs)   bands (ev):

  -108.5857 -56.9169 -56.9169 -56.9169  -5.2364  -0.7034  -0.7030  -0.7029
    -0.2713  -0.2710   5.1893   6.1634   6.1739   6.2311  10.5410  10.5654
    10.5784  12.7689  15.5927  15.6757  16.1978  16.2106  16.3449  18.2356
    24.8528

          k = 0.0206 0.0206-0.0000 ( 10993 PWs)   bands (ev):

  -108.5857 -56.9169 -56.9169 -56.9169  -5.2367  -0.7035  -0.7032  -0.7030
    -0.2713  -0.2710   5.1973   6.1652   6.1743   6.2245  10.5434  10.5648
    10.5761  12.7627  15.6073  15.6827  16.1961  16.2076  16.3278  18.2282
    24.8622

          k = 0.0192 0.0192 0.0000 ( 10993 PWs)   bands (ev):

  -108.5857 -56.9169 -56.9169 -56.9169  -5.2371  -0.7035  -0.7033  -0.7032
    -0.2713  -0.2710   5.2048   6.1668   6.1747   6.2183  10.5457  10.5641
    10.5739  12.7570  15.6214  15.6892  16.1945  16.2047  16.3113  18.2212
    24.8708

          k = 0.0177 0.0177 0.0000 ( 10993 PWs)   bands (ev):

  -108.5857 -56.9169 -56.9169 -56.9169  -5.2374  -0.7036  -0.7034  -0.7033
    -0.2712  -0.2710   5.2119   6.1683   6.1750   6.2125  10.5478  10.5636
    10.5719  12.7516  15.6352  15.6954  16.1930  16.2020  16.2952  18.2148
    24.8788

          k = 0.0162 0.0162-0.0000 ( 10993 PWs)   bands (ev):

  -108.5857 -56.9169 -56.9169 -56.9169  -5.2377  -0.7037  -0.7035  -0.7034
    -0.2712  -0.2710   5.2184   6.1697   6.1753   6.2070  10.5497  10.5630
    10.5700  12.7466  15.6485  15.7012  16.1917  16.1994  16.2799  18.2088
    24.8861

          k = 0.0147 0.0147 0.0000 ( 10993 PWs)   bands (ev):

  -108.5857 -56.9169 -56.9169 -56.9169  -5.2379  -0.7037  -0.7036  -0.7035
    -0.2712  -0.2710   5.2245   6.1710   6.1756   6.2020  10.5515  10.5625
    10.5683  12.7421  15.6613  15.7065  16.1904  16.1970  16.2653  18.2033
    24.8928

          k = 0.0133 0.0133 0.0000 ( 10993 PWs)   bands (ev):

  -108.5857 -56.9169 -56.9169 -56.9169  -5.2382  -0.7038  -0.7037  -0.7036
    -0.2712  -0.2710   5.2300   6.1721   6.1759   6.1973  10.5531  10.5621
    10.5668  12.7380  15.6733  15.7114  16.1893  16.1947  16.2515  18.1984
    24.8988

          k = 0.0118 0.0118-0.0000 ( 10993 PWs)   bands (ev):

  -108.5857 -56.9169 -56.9169 -56.9169  -5.2384  -0.7038  -0.7037  -0.7037
    -0.2711  -0.2711   5.2350   6.1731   6.1761   6.1932  10.5546  10.5617
    10.5654  12.7343  15.6847  15.7159  16.1883  16.1927  16.2387  18.1939
    24.9042

          k = 0.0103 0.0103 0.0000 ( 10993 PWs)   bands (ev):

  -108.5857 -56.9169 -56.9169 -56.9169  -5.2386  -0.7039  -0.7038  -0.7038
    -0.2711  -0.2711   5.2395   6.1740   6.1763   6.1894  10.5559  10.5614
    10.5642  12.7310  15.6951  15.7198  16.1875  16.1908  16.2269  18.1900
    24.9089

          k = 0.0088 0.0088 0.0000 ( 10993 PWs)   bands (ev):

  -108.5857 -56.9169 -56.9169 -56.9169  -5.2387  -0.7039  -0.7039  -0.7038
    -0.2711  -0.2711   5.2434   6.1748   6.1765   6.1862  10.5571  10.5611
    10.5632  12.7281  15.7046  15.7233  16.1867  16.1892  16.2163  18.1866
    24.9130

          k = 0.0074 0.0074-0.0000 ( 10993 PWs)   bands (ev):

  -108.5857 -56.9169 -56.9169 -56.9169  -5.2389  -0.7039  -0.7039  -0.7039
    -0.2711  -0.2711   5.2467   6.1755   6.1766   6.1834  10.5580  10.5608
    10.5623  12.7257  15.7129  15.7263  16.1860  16.1878  16.2070  18.1837
    24.9164

          k = 0.0059 0.0059 0.0000 ( 10993 PWs)   bands (ev):

  -108.5857 -56.9169 -56.9169 -56.9169  -5.2390  -0.7040  -0.7039  -0.7039
    -0.2711  -0.2711   5.2494   6.1760   6.1768   6.1811  10.5588  10.5606
    10.5615  12.7238  15.7199  15.7287  16.1855  16.1867  16.1991  18.1813
    24.9193

          k = 0.0044 0.0044 0.0000 ( 10993 PWs)   bands (ev):

  -108.5857 -56.9169 -56.9169 -56.9169  -5.2391  -0.7040  -0.7040  -0.7040
    -0.2711  -0.2711   5.2516   6.1764   6.1769   6.1793  10.5594  10.5604
    10.5610  12.7222  15.7256  15.7306  16.1851  16.1858  16.1929  18.1795
    24.9214

          k = 0.0029 0.0029-0.0000 ( 10993 PWs)   bands (ev):

  -108.5857 -56.9169 -56.9169 -56.9169  -5.2391  -0.7040  -0.7040  -0.7040
    -0.2711  -0.2711   5.2531   6.1767   6.1769   6.1780  10.5599  10.5603
    10.5606  12.7211  15.7297  15.7320  16.1848  16.1851  16.1883  18.1782
    24.9230

          k = 0.0015 0.0015 0.0000 ( 10997 PWs)   bands (ev):

  -108.5857 -56.9169 -56.9169 -56.9169  -5.2392  -0.7040  -0.7040  -0.7040
    -0.2711  -0.2711   5.2540   6.1769   6.1770   6.1772  10.5601  10.5603
    10.5603  12.7205  15.7322  15.7328  16.1846  16.1847  16.1855  18.1774
    24.9239

          k = 0.0000 0.0000 0.0000 ( 11017 PWs)   bands (ev):

  -108.5857 -56.9169 -56.9169 -56.9169  -5.2392  -0.7040  -0.7040  -0.7040
    -0.2711  -0.2711   5.2543   6.1770   6.1770   6.1770  10.5602  10.5602
    10.5602  12.7203  15.7331  15.7331  16.1846  16.1846  16.1846  18.1771
    24.9243

          k = 0.0013 0.0013 0.0013 ( 10999 PWs)   bands (ev):

  -108.5857 -56.9169 -56.9169 -56.9169  -5.2392  -0.7040  -0.7040  -0.7040
    -0.2711  -0.2711   5.2540   6.1769   6.1769   6.1772  10.5602  10.5603
    10.5603  12.7205  15.7325  15.7325  16.1844  16.1853  16.1853  18.1774
    24.9240

          k = 0.0025 0.0025 0.0025 ( 10993 PWs)   bands (ev):

  -108.5857 -56.9169 -56.9169 -56.9169  -5.2391  -0.7040  -0.7040  -0.7040
    -0.2711  -0.2711   5.2530   6.1768   6.1768   6.1780  10.5599  10.5604
    10.5604  12.7212  15.7306  15.7306  16.1839  16.1874  16.1874  18.1783
    24.9231

          k = 0.0038 0.0038 0.0038 ( 10993 PWs)   bands (ev):

  -108.5857 -56.9169 -56.9169 -56.9169  -5.2391  -0.7040  -0.7040  -0.7040
    -0.2711  -0.2711   5.2513   6.1767   6.1767   6.1794  10.5595  10.5607
    10.5607  12.7224  15.7276  15.7276  16.1830  16.1909  16.1909  18.1797
    24.9217

          k = 0.0051 0.0051 0.0051 ( 10993 PWs)   bands (ev):

  -108.5857 -56.9169 -56.9169 -56.9169  -5.2390  -0.7039  -0.7039  -0.7039
    -0.2711  -0.2711   5.2489   6.1765   6.1765   6.1812  10.5590  10.5610
    10.5610  12.7241  15.7234  15.7234  16.1818  16.1957  16.1957  18.1818
    24.9197

          k = 0.0063 0.0063 0.0063 ( 10993 PWs)   bands (ev):

  -108.5857 -56.9169 -56.9169 -56.9169  -5.2388  -0.7039  -0.7039  -0.7039
    -0.2711  -0.2711   5.2459   6.1762   6.1762   6.1836  10.5583  10.5614
    10.5614  12.7263  15.7182  15.7182  16.1802  16.2017  16.2017  18.1844
    24.9172

          k = 0.0076 0.0076 0.0076 ( 10993 PWs)   bands (ev):

  -108.5857 -56.9169 -56.9169 -56.9169  -5.2387  -0.7039  -0.7039  -0.7038
    -0.2711  -0.2711   5.2423   6.1758   6.1758   6.1865  10.5575  10.5619
    10.5619  12.7290  15.7120  15.7120  16.1782  16.2090  16.2090  18.1875
    24.9141

          k = 0.0088 0.0088 0.0088 ( 10993 PWs)   bands (ev):

  -108.5857 -56.9169 -56.9169 -56.9169  -5.2385  -0.7038  -0.7038  -0.7037
    -0.2711  -0.2711   5.2380   6.1754   6.1754   6.1898  10.5565  10.5625
    10.5625  12.7321  15.7048  15.7048  16.1760  16.2173  16.2173  18.1913
    24.9104

          k = 0.0101 0.0101 0.0101 ( 10993 PWs)   bands (ev):

  -108.5857 -56.9169 -56.9169 -56.9169  -5.2383  -0.7038  -0.7038  -0.7037
    -0.2711  -0.2711   5.2331   6.1749   6.1749   6.1937  10.5554  10.5632
    10.5632  12.7357  15.6969  15.6969  16.1734  16.2266  16.2266  18.1956
    24.9061

          k = 0.0114 0.0114 0.0114 ( 10993 PWs)   bands (ev):

  -108.5857 -56.9169 -56.9169 -56.9169  -5.2381  -0.7037  -0.7037  -0.7036
    -0.2711  -0.2711   5.2276   6.1744   6.1744   6.1980  10.5542  10.5640
    10.5640  12.7398  15.6882  15.6882  16.1704  16.2368  16.2368  18.2005
    24.9013

          k = 0.0126 0.0126 0.0126 ( 10993 PWs)   bands (ev):

  -108.5857 -56.9169 -56.9169 -56.9169  -5.2378  -0.7036  -0.7036  -0.7035
    -0.2711  -0.2711   5.2215   6.1738   6.1738   6.2027  10.5528  10.5649
    10.5649  12.7443  15.6789  15.6789  16.1672  16.2478  16.2478  18.2059
    24.8959

          k = 0.0139 0.0139 0.0139 ( 10993 PWs)   bands (ev):

  -108.5857 -56.9169 -56.9169 -56.9169  -5.2375  -0.7035  -0.7035  -0.7033
    -0.2711  -0.2711   5.2148   6.1731   6.1731   6.2079  10.5512  10.5659
    10.5659  12.7493  15.6690  15.6690  16.1636  16.2596  16.2596  18.2119
    24.8899

          k = 0.0152 0.0152 0.0152 ( 10993 PWs)   bands (ev):

  -108.5857 -56.9169 -56.9169 -56.9169  -5.2372  -0.7035  -0.7035  -0.7032
    -0.2711  -0.2711   5.2076   6.1724   6.1724   6.2135  10.5496  10.5670
    10.5670  12.7547  15.6586  15.6586  16.1597  16.2721  16.2721  18.2184
    24.8834

          k = 0.0164 0.0164 0.0164 ( 10993 PWs)   bands (ev):

  -108.5857 -56.9169 -56.9169 -56.9169  -5.2369  -0.7034  -0.7034  -0.7031
    -0.2711  -0.2711   5.1999   6.1716   6.1716   6.2195  10.5478  10.5681
    10.5681  12.7607  15.6478  15.6478  16.1555  16.2852  16.2852  18.2255
    24.8763

          k = 0.0177 0.0177 0.0177 ( 10993 PWs)   bands (ev):

  -108.5857 -56.9169 -56.9169 -56.9169  -5.2365  -0.7033  -0.7033  -0.7029
    -0.2712  -0.2712   5.1916   6.1707   6.1707   6.2258  10.5459  10.5694
    10.5694  12.7670  15.6366  15.6366  16.1510  16.2988  16.2988  18.2330
    24.8686

          k = 0.0189 0.0189 0.0189 ( 10993 PWs)   bands (ev):

  -108.5857 -56.9169 -56.9169 -56.9169  -5.2361  -0.7031  -0.7031  -0.7028
    -0.2712  -0.2712   5.1829   6.1698   6.1698   6.2325  10.5439  10.5707
    10.5707  12.7738  15.6251  15.6251  16.1462  16.3130  16.3130  18.2411
    24.8603

          k = 0.0202 0.0202 0.0202 ( 10993 PWs)   bands (ev):

  -108.5857 -56.9169 -56.9169 -56.9169  -5.2357  -0.7030  -0.7030  -0.7026
    -0.2712  -0.2712   5.1737   6.1688   6.1688   6.2395  10.5418  10.5721
    10.5721  12.7811  15.6134  15.6134  16.1412  16.3276  16.3276  18.2498
    24.8514

          k = 0.0215 0.0215 0.0215 ( 10993 PWs)   bands (ev):

  -108.5857 -56.9169 -56.9169 -56.9169  -5.2352  -0.7029  -0.7029  -0.7024
    -0.2712  -0.2712   5.1640   6.1677   6.1677   6.2468  10.5396  10.5737
    10.5737  12.7887  15.6013  15.6013  16.1358  16.3426  16.3426  18.2589
    24.8420

          k = 0.0227 0.0227 0.0227 ( 10993 PWs)   bands (ev):

  -108.5857 -56.9169 -56.9169 -56.9169  -5.2348  -0.7028  -0.7028  -0.7022
    -0.2712  -0.2712   5.1539   6.1666   6.1666   6.2544  10.5372  10.5753
    10.5753  12.7968  15.5891  15.5891  16.1303  16.3580  16.3580  18.2685
    24.8320

          k = 0.0240 0.0240 0.0240 ( 10993 PWs)   bands (ev):

  -108.5857 -56.9169 -56.9169 -56.9169  -5.2343  -0.7026  -0.7026  -0.7020
    -0.2712  -0.2712   5.1434   6.1655   6.1655   6.2623  10.5348  10.5770
    10.5770  12.8053  15.5767  15.5767  16.1244  16.3738  16.3738  18.2786
    24.8214

          k = 0.0253 0.0253 0.0253 ( 10993 PWs)   bands (ev):

  -108.5857 -56.9169 -56.9169 -56.9169  -5.2337  -0.7025  -0.7025  -0.7018
    -0.2712  -0.2712   5.1325   6.1642   6.1642   6.2704  10.5323  10.5788
    10.5788  12.8143  15.5642  15.5642  16.1183  16.3898  16.3898  18.2892
    24.8102

          k = 0.0265 0.0265 0.0265 ( 10993 PWs)   bands (ev):

  -108.5857 -56.9169 -56.9169 -56.9169  -5.2332  -0.7023  -0.7023  -0.7015
    -0.2712  -0.2712   5.1212   6.1629   6.1629   6.2788  10.5297  10.5807
    10.5807  12.8236  15.5516  15.5516  16.1120  16.4062  16.4062  18.3002
    24.7984

          k = 0.0278 0.0278 0.0278 ( 10993 PWs)   bands (ev):

  -108.5857 -56.9169 -56.9169 -56.9169  -5.2326  -0.7022  -0.7022  -0.7013
    -0.2713  -0.2713   5.1096   6.1616   6.1616   6.2873  10.5271  10.5826
    10.5826  12.8333  15.5388  15.5388  16.1055  16.4229  16.4229  18.3117
    24.7861

          k = 0.0290 0.0290 0.0290 ( 10993 PWs)   bands (ev):

  -108.5857 -56.9169 -56.9169 -56.9169  -5.2320  -0.7020  -0.7020  -0.7010
    -0.2713  -0.2713   5.0976   6.1602   6.1602   6.2961  10.5244  10.5847
    10.5847  12.8434  15.5260  15.5260  16.0987  16.4398  16.4398  18.3237
    24.7732

          k = 0.0303 0.0303 0.0303 ( 10999 PWs)   bands (ev):

  -108.5857 -56.9169 -56.9169 -56.9169  -5.2313  -0.7018  -0.7018  -0.7008
    -0.2713  -0.2713   5.0853   6.1587   6.1587   6.3051  10.5216  10.5868
    10.5868  12.8539  15.5132  15.5132  16.0918  16.4569  16.4569  18.3361
    24.7597

          k = 0.0316 0.0316 0.0316 ( 10999 PWs)   bands (ev):

  -108.5857 -56.9169 -56.9169 -56.9169  -5.2307  -0.7016  -0.7016  -0.7005
    -0.2713  -0.2713   5.0727   6.1571   6.1571   6.3142  10.5187  10.5891
    10.5891  12.8648  15.5003  15.5003  16.0847  16.4743  16.4743  18.3489
    24.7457

          k = 0.0328 0.0328 0.0328 ( 10999 PWs)   bands (ev):

  -108.5857 -56.9169 -56.9169 -56.9169  -5.2300  -0.7014  -0.7014  -0.7002
    -0.2713  -0.2713   5.0598   6.1555   6.1555   6.3234  10.5159  10.5914
    10.5914  12.8760  15.4873  15.4873  16.0773  16.4919  16.4919  18.3621
    24.7311

          k = 0.0341 0.0341 0.0341 ( 11005 PWs)   bands (ev):

  -108.5857 -56.9169 -56.9169 -56.9169  -5.2293  -0.7012  -0.7012  -0.6999
    -0.2713  -0.2713   5.0466   6.1539   6.1539   6.3328  10.5129  10.5938
    10.5938  12.8876  15.4744  15.4744  16.0699  16.5097  16.5097  18.3758
    24.7159

          k = 0.0354 0.0354 0.0354 ( 11005 PWs)   bands (ev):

  -108.5857 -56.9169 -56.9169 -56.9169  -5.2285  -0.7010  -0.7010  -0.6996
    -0.2714  -0.2714   5.0332   6.1522   6.1522   6.3423  10.5100  10.5963
    10.5963  12.8996  15.4615  15.4615  16.0622  16.5276  16.5276  18.3899
    24.7002

          k = 0.0366 0.0366 0.0366 ( 11011 PWs)   bands (ev):

  -108.5857 -56.9169 -56.9169 -56.9169  -5.2278  -0.7008  -0.7008  -0.6993
    -0.2714  -0.2714   5.0195   6.1504   6.1504   6.3519  10.5070  10.5988
    10.5988  12.9119  15.4485  15.4485  16.0544  16.5458  16.5458  18.4043
    24.6840

          k = 0.0379 0.0379 0.0379 ( 11014 PWs)   bands (ev):

  -108.5857 -56.9169 -56.9169 -56.9169  -5.2270  -0.7006  -0.7006  -0.6989
    -0.2714  -0.2714   5.0055   6.1486   6.1486   6.3616  10.5040  10.6015
    10.6015  12.9245  15.4356  15.4356  16.0465  16.5641  16.5641  18.4192
    24.6672

          k = 0.0391 0.0391 0.0391 ( 11014 PWs)   bands (ev):

  -108.5857 -56.9169 -56.9169 -56.9169  -5.2261  -0.7003  -0.7003  -0.6986
    -0.2714  -0.2714   4.9913   6.1467   6.1467   6.3714  10.5010  10.6042
    10.6042  12.9375  15.4227  15.4227  16.0385  16.5826  16.5826  18.4344
    24.6499

          k = 0.0404 0.0404 0.0404 ( 11014 PWs)   bands (ev):

  -108.5857 -56.9169 -56.9169 -56.9169  -5.2253  -0.7001  -0.7001  -0.6982
    -0.2714  -0.2714   4.9769   6.1447   6.1447   6.3813  10.4979  10.6070
    10.6070  12.9507  15.4099  15.4099  16.0303  16.6012  16.6012  18.4500
    24.6320

          k = 0.0417 0.0417 0.0417 ( 11020 PWs)   bands (ev):

  -108.5857 -56.9169 -56.9169 -56.9169  -5.2244  -0.6999  -0.6999  -0.6978
    -0.2715  -0.2715   4.9623   6.1427   6.1427   6.3912  10.4949  10.6099
    10.6099  12.9643  15.3970  15.3970  16.0220  16.6200  16.6200  18.4659
    24.6136

          k = 0.0429 0.0429 0.0429 ( 11026 PWs)   bands (ev):

  -108.5857 -56.9169 -56.9169 -56.9169  -5.2235  -0.6996  -0.6996  -0.6974
    -0.2715  -0.2715   4.9475   6.1407   6.1407   6.4012  10.4919  10.6129
    10.6129  12.9782  15.3843  15.3843  16.0137  16.6389  16.6389  18.4822
    24.5948

          k = 0.0442 0.0442 0.0442 ( 11026 PWs)   bands (ev):

  -108.5857 -56.9169 -56.9169 -56.9169  -5.2226  -0.6994  -0.6994  -0.6970
    -0.2715  -0.2715   4.9325   6.1386   6.1386   6.4112  10.4889  10.6160
    10.6160  12.9924  15.3715  15.3715  16.0052  16.6580  16.6580  18.4989
    24.5754

          k = 0.0455 0.0455 0.0455 ( 11026 PWs)   bands (ev):

  -108.5857 -56.9169 -56.9169 -56.9169  -5.2216  -0.6991  -0.6991  -0.6966
    -0.2715  -0.2715   4.9173   6.1364   6.1364   6.4213  10.4859  10.6191
    10.6191  13.0068  15.3589  15.3589  15.9967  16.6771  16.6771  18.5159
    24.5556

          k = 0.0467 0.0467 0.0467 ( 11026 PWs)   bands (ev):

  -108.5857 -56.9169 -56.9169 -56.9169  -5.2207  -0.6988  -0.6988  -0.6962
    -0.2716  -0.2716   4.9019   6.1342   6.1342   6.4313  10.4830  10.6223
    10.6223  13.0216  15.3462  15.3462  15.9881  16.6965  16.6965  18.5332
    24.5352

          k = 0.0480 0.0480 0.0480 ( 11020 PWs)   bands (ev):

  -108.5857 -56.9169 -56.9169 -56.9169  -5.2197  -0.6985  -0.6985  -0.6957
    -0.2716  -0.2716   4.8863   6.1319   6.1319   6.4414  10.4800  10.6256
    10.6256  13.0365  15.3337  15.3337  15.9794  16.7159  16.7159  18.5508
    24.5144

          k = 0.0492 0.0492 0.0492 ( 11020 PWs)   bands (ev):

  -108.5857 -56.9169 -56.9169 -56.9169  -5.2186  -0.6983  -0.6983  -0.6953
    -0.2716  -0.2716   4.8706   6.1295   6.1295   6.4515  10.4772  10.6289
    10.6289  13.0518  15.3212  15.3212  15.9708  16.7355  16.7355  18.5688
    24.4932

          k = 0.0505 0.0505 0.0505 ( 11020 PWs)   bands (ev):

  -108.5857 -56.9169 -56.9169 -56.9169  -5.2176  -0.6980  -0.6980  -0.6948
    -0.2716  -0.2716   4.8548   6.1272   6.1272   6.4616  10.4743  10.6324
    10.6324  13.0673  15.3088  15.3088  15.9620  16.7551  16.7551  18.5870
    24.4715

          k = 0.0518 0.0518 0.0518 ( 11017 PWs)   bands (ev):

  -108.5857 -56.9169 -56.9169 -56.9169  -5.2165  -0.6977  -0.6977  -0.6943
    -0.2717  -0.2717   4.8388   6.1247   6.1247   6.4717  10.4715  10.6359
    10.6359  13.0830  15.2965  15.2965  15.9533  16.7749  16.7749  18.6056
    24.4493

          k = 0.0530 0.0530 0.0530 ( 11017 PWs)   bands (ev):

  -108.5857 -56.9169 -56.9169 -56.9169  -5.2154  -0.6974  -0.6974  -0.6938
    -0.2717  -0.2717   4.8226   6.1222   6.1222   6.4818  10.4688  10.6395
    10.6395  13.0990  15.2842  15.2842  15.9445  16.7948  16.7948  18.6244
    24.4268

          k = 0.0543 0.0543 0.0543 ( 11023 PWs)   bands (ev):

  -108.5857 -56.9169 -56.9169 -56.9169  -5.2143  -0.6971  -0.6971  -0.6933
    -0.2717  -0.2717   4.8064   6.1197   6.1197   6.4918  10.4662  10.6431
    10.6431  13.1152  15.2721  15.2721  15.9358  16.8148  16.8148  18.6435
    24.4038

          k = 0.0556 0.0556 0.0556 ( 11023 PWs)   bands (ev):

  -108.5857 -56.9169 -56.9169 -56.9169  -5.2131  -0.6967  -0.6967  -0.6928
    -0.2717  -0.2717   4.7900   6.1171   6.1171   6.5019  10.4636  10.6468
    10.6468  13.1316  15.2600  15.2600  15.9270  16.8349  16.8349  18.6630
    24.3805

          k = 0.0568 0.0568 0.0568 ( 11023 PWs)   bands (ev):

  -108.5857 -56.9169 -56.9169 -56.9169  -5.2119  -0.6964  -0.6964  -0.6923
    -0.2718  -0.2718   4.7734   6.1144   6.1144   6.5119  10.4611  10.6506
    10.6506  13.1482  15.2480  15.2480  15.9182  16.8551  16.8551  18.6826
    24.3567

          k = 0.0581 0.0581 0.0581 ( 11023 PWs)   bands (ev):

  -108.5857 -56.9169 -56.9169 -56.9169  -5.2107  -0.6961  -0.6961  -0.6917
    -0.2718  -0.2718   4.7568   6.1117   6.1117   6.5218  10.4587  10.6545
    10.6545  13.1649  15.2361  15.2361  15.9095  16.8754  16.8754  18.7026
    24.3326

          k = 0.0593 0.0593 0.0593 ( 11023 PWs)   bands (ev):

  -108.5857 -56.9169 -56.9169 -56.9169  -5.2095  -0.6957  -0.6957  -0.6911
    -0.2718  -0.2718   4.7400   6.1090   6.1090   6.5317  10.4563  10.6584
    10.6584  13.1819  15.2243  15.2243  15.9008  16.8958  16.8958  18.7228
    24.3081

          k = 0.0606 0.0606 0.0606 ( 11023 PWs)   bands (ev):

  -108.5857 -56.9169 -56.9169 -56.9169  -5.2082  -0.6954  -0.6954  -0.6905
    -0.2718  -0.2718   4.7231   6.1062   6.1062   6.5416  10.4541  10.6624
    10.6624  13.1991  15.2126  15.2126  15.8922  16.9163  16.9163  18.7433
    24.2833

          k = 0.0619 0.0619 0.0619 ( 11017 PWs)   bands (ev):

  -108.5857 -56.9169 -56.9169 -56.9169  -5.2070  -0.6950  -0.6950  -0.6900
    -0.2719  -0.2719   4.7062   6.1033   6.1033   6.5514  10.4520  10.6665
    10.6665  13.2164  15.2010  15.2010  15.8836  16.9369  16.9369  18.7640
    24.2581

          k = 0.0631 0.0631 0.0631 ( 11017 PWs)   bands (ev):

  -108.5857 -56.9169 -56.9169 -56.9169  -5.2057  -0.6947  -0.6947  -0.6893
    -0.2719  -0.2719   4.6891   6.1005   6.1005   6.5612  10.4499  10.6706
    10.6706  13.2338  15.1895  15.1895  15.8751  16.9576  16.9576  18.7849
    24.2326

          k = 0.0644 0.0644 0.0644 ( 11020 PWs)   bands (ev):

  -108.5857 -56.9169 -56.9169 -56.9169  -5.2043  -0.6943  -0.6943  -0.6887
    -0.2719  -0.2719   4.6719   6.0975   6.0975   6.5709  10.4480  10.6748
    10.6748  13.2514  15.1781  15.1781  15.8666  16.9783  16.9783  18.8061
    24.2068

          k = 0.0657 0.0657 0.0657 ( 11020 PWs)   bands (ev):

  -108.5857 -56.9169 -56.9169 -56.9169  -5.2030  -0.6940  -0.6940  -0.6881
    -0.2719  -0.2719   4.6546   6.0945   6.0945   6.5805  10.4462  10.6790
    10.6790  13.2692  15.1668  15.1668  15.8582  16.9992  16.9992  18.8276
    24.1806

          k = 0.0669 0.0669 0.0669 ( 11020 PWs)   bands (ev):

  -108.5857 -56.9169 -56.9169 -56.9169  -5.2016  -0.6936  -0.6936  -0.6874
    -0.2720  -0.2720   4.6373   6.0915   6.0915   6.5901  10.4445  10.6833
    10.6833  13.2870  15.1556  15.1556  15.8499  17.0201  17.0201  18.8493
    24.1542

          k = 0.0682 0.0682 0.0682 ( 11020 PWs)   bands (ev):

  -108.5857 -56.9169 -56.9169 -56.9169  -5.2002  -0.6932  -0.6932  -0.6868
    -0.2720  -0.2720   4.6198   6.0884   6.0884   6.5995  10.4430  10.6877
    10.6877  13.3050  15.1445  15.1445  15.8418  17.0412  17.0412  18.8711
    24.1275

          k = 0.0694 0.0694 0.0694 ( 11020 PWs)   bands (ev):

  -108.5857 -56.9169 -56.9169 -56.9169  -5.1988  -0.6928  -0.6928  -0.6861
    -0.2720  -0.2720   4.6023   6.0853   6.0853   6.6090  10.4416  10.6921
    10.6921  13.3231  15.1335  15.1335  15.8337  17.0623  17.0623  18.8933
    24.1005

          k = 0.0707 0.0707 0.0707 ( 11017 PWs)   bands (ev):

  -108.5857 -56.9169 -56.9169 -56.9169  -5.1974  -0.6924  -0.6924  -0.6854
    -0.2721  -0.2721   4.5847   6.0821   6.0821   6.6183  10.4403  10.6966
    10.6966  13.3413  15.1227  15.1227  15.8257  17.0835  17.0835  18.9156
    24.0732

          k = 0.0720 0.0720 0.0720 ( 11017 PWs)   bands (ev):

  -108.5857 -56.9169 -56.9169 -56.9169  -5.1959  -0.6920  -0.6920  -0.6846
    -0.2721  -0.2721   4.5670   6.0789   6.0789   6.6275  10.4391  10.7011
    10.7011  13.3595  15.1119  15.1119  15.8179  17.1047  17.1047  18.9381
    24.0457

          k = 0.0732 0.0732 0.0732 ( 11017 PWs)   bands (ev):

  -108.5857 -56.9169 -56.9169 -56.9169  -5.1944  -0.6916  -0.6916  -0.6839
    -0.2721  -0.2721   4.5492   6.0757   6.0757   6.6367  10.4381  10.7057
    10.7057  13.3779  15.1013  15.1013  15.8103  17.1261  17.1261  18.9609
    24.0180

          k = 0.0745 0.0745 0.0745 ( 11017 PWs)   bands (ev):

  -108.5857 -56.9169 -56.9169 -56.9169  -5.1929  -0.6912  -0.6912  -0.6832
    -0.2721  -0.2721   4.5314   6.0724   6.0724   6.6457  10.4373  10.7103
    10.7103  13.3963  15.0908  15.0908  15.8027  17.1475  17.1475  18.9838
    23.9900

          k = 0.0758 0.0758 0.0758 ( 11017 PWs)   bands (ev):

  -108.5857 -56.9169 -56.9169 -56.9169  -5.1914  -0.6908  -0.6908  -0.6824
    -0.2722  -0.2722   4.5135   6.0690   6.0690   6.6547  10.4366  10.7150
    10.7150  13.4147  15.0804  15.0804  15.7954  17.1690  17.1690  19.0070
    23.9618

          k = 0.0770 0.0770 0.0770 ( 11011 PWs)   bands (ev):

  -108.5857 -56.9169 -56.9169 -56.9169  -5.1898  -0.6904  -0.6904  -0.6816
    -0.2722  -0.2722   4.4956   6.0656   6.0656   6.6636  10.4360  10.7197
    10.7197  13.4332  15.0701  15.0701  15.7882  17.1906  17.1906  19.0303
    23.9334

          k = 0.0783 0.0783 0.0783 ( 11011 PWs)   bands (ev):

  -108.5857 -56.9169 -56.9169 -56.9169  -5.1882  -0.6899  -0.6899  -0.6808
    -0.2722  -0.2722   4.4775   6.0622   6.0622   6.6724  10.4357  10.7245
    10.7245  13.4517  15.0599  15.0599  15.7812  17.2123  17.2123  19.0539
    23.9048

          k = 0.0795 0.0795 0.0795 ( 11023 PWs)   bands (ev):

  -108.5857 -56.9169 -56.9169 -56.9169  -5.1866  -0.6895  -0.6895  -0.6800
    -0.2722  -0.2722   4.4594   6.0588   6.0588   6.6811  10.4354  10.7294
    10.7294  13.4702  15.0499  15.0499  15.7744  17.2340  17.2340  19.0776
    23.8759

          k = 0.0808 0.0808 0.0808 ( 11023 PWs)   bands (ev):

  -108.5857 -56.9169 -56.9169 -56.9169  -5.1850  -0.6891  -0.6891  -0.6792
    -0.2723  -0.2723   4.4413   6.0553   6.0553   6.6896  10.4354  10.7343
    10.7343  13.4887  15.0400  15.0400  15.7678  17.2559  17.2559  19.1015
    23.8469

          k = 0.0821 0.0821 0.0821 ( 11023 PWs)   bands (ev):

  -108.5857 -56.9169 -56.9169 -56.9169  -5.1833  -0.6886  -0.6886  -0.6783
    -0.2723  -0.2723   4.4231   6.0517   6.0517   6.6981  10.4355  10.7392
    10.7392  13.5072  15.0302  15.0302  15.7614  17.2777  17.2777  19.1256
    23.8177

          k = 0.0833 0.0833 0.0833 ( 11023 PWs)   bands (ev):

  -108.5857 -56.9169 -56.9169 -56.9169  -5.1817  -0.6882  -0.6882  -0.6774
    -0.2723  -0.2723   4.4048   6.0482   6.0482   6.7065  10.4358  10.7442
    10.7442  13.5257  15.0206  15.0206  15.7553  17.2997  17.2997  19.1499
    23.7884

          k = 0.0846 0.0846 0.0846 ( 11023 PWs)   bands (ev):

  -108.5857 -56.9169 -56.9169 -56.9169  -5.1800  -0.6877  -0.6877  -0.6766
    -0.2723  -0.2723   4.3865   6.0445   6.0445   6.7147  10.4363  10.7492
    10.7492  13.5442  15.0110  15.0110  15.7494  17.3217  17.3217  19.1744
    23.7588

          k = 0.0859 0.0859 0.0859 ( 11023 PWs)   bands (ev):

  -108.5857 -56.9169 -56.9169 -56.9169  -5.1783  -0.6873  -0.6873  -0.6757
    -0.2723  -0.2723   4.3682   6.0409   6.0409   6.7229  10.4369  10.7542
    10.7542  13.5626  15.0016  15.0016  15.7437  17.3438  17.3438  19.1990
    23.7291

          k = 0.0871 0.0871 0.0871 ( 11023 PWs)   bands (ev):

  -108.5857 -56.9169 -56.9169 -56.9169  -5.1765  -0.6868  -0.6868  -0.6747
    -0.2724  -0.2724   4.3498   6.0372   6.0372   6.7309  10.4378  10.7593
    10.7593  13.5809  14.9924  14.9924  15.7384  17.3660  17.3660  19.2238
    23.6993

          k = 0.0884 0.0884 0.0884 ( 11014 PWs)   bands (ev):

  -108.5857 -56.9169 -56.9169 -56.9169  -5.1748  -0.6863  -0.6863  -0.6738
    -0.2724  -0.2724   4.3313   6.0335   6.0335   6.7388  10.4388  10.7644
    10.7644  13.5992  14.9832  14.9832  15.7333  17.3882  17.3882  19.2488
    23.6693

          k = 0.0897 0.0897 0.0897 ( 11014 PWs)   bands (ev):

  -108.5857 -56.9169 -56.9169 -56.9169  -5.1730  -0.6859  -0.6859  -0.6728
    -0.2724  -0.2724   4.3128   6.0297   6.0297   6.7466  10.4400  10.7696
    10.7696  13.6174  14.9742  14.9742  15.7285  17.4106  17.4106  19.2739
    23.6392

          k = 0.0909 0.0909 0.0909 ( 11014 PWs)   bands (ev):

  -108.5857 -56.9169 -56.9169 -56.9169  -5.1712  -0.6854  -0.6854  -0.6719
    -0.2724  -0.2724   4.2943   6.0259   6.0259   6.7543  10.4414  10.7748
    10.7748  13.6354  14.9654  14.9654  15.7240  17.4329  17.4329  19.2992
    23.6090

          k = 0.0922 0.0922 0.0922 ( 11014 PWs)   bands (ev):

  -108.5857 -56.9169 -56.9169 -56.9169  -5.1694  -0.6849  -0.6849  -0.6709
    -0.2725  -0.2725   4.2757   6.0221   6.0221   6.7618  10.4430  10.7800
    10.7800  13.6534  14.9566  14.9566  15.7198  17.4554  17.4554  19.3247
    23.5786

          k = 0.0934 0.0934 0.0934 ( 11002 PWs)   bands (ev):

  -108.5857 -56.9169 -56.9169 -56.9169  -5.1676  -0.6844  -0.6844  -0.6699
    -0.2725  -0.2725   4.2571   6.0183   6.0183   6.7693  10.4448  10.7853
    10.7853  13.6712  14.9481  14.9481  15.7159  17.4779  17.4779  19.3503
    23.5481

          k = 0.0947 0.0947 0.0947 ( 11002 PWs)   bands (ev):

  -108.5857 -56.9169 -56.9169 -56.9169  -5.1657  -0.6839  -0.6839  -0.6688
    -0.2725  -0.2725   4.2384   6.0144   6.0144   6.7766  10.4468  10.7906
    10.7906  13.6889  14.9396  14.9396  15.7124  17.5004  17.5004  19.3760
    23.5175

          k = 0.0960 0.0960 0.0960 ( 11002 PWs)   bands (ev):

  -108.5857 -56.9169 -56.9169 -56.9169  -5.1638  -0.6834  -0.6834  -0.6678
    -0.2725  -0.2725   4.2197   6.0105   6.0105   6.7838  10.4490  10.7959
    10.7959  13.7064  14.9313  14.9313  15.7093  17.5231  17.5231  19.4020
    23.4868

          k = 0.0972 0.0972 0.0972 ( 11002 PWs)   bands (ev):

  -108.5857 -56.9169 -56.9169 -56.9169  -5.1619  -0.6829  -0.6829  -0.6667
    -0.2725  -0.2725   4.2010   6.0065   6.0065   6.7908  10.4514  10.8013
    10.8013  13.7238  14.9231  14.9231  15.7065  17.5458  17.5458  19.4280
    23.4560

          k = 0.0985 0.0985 0.0985 ( 11002 PWs)   bands (ev):

  -108.5857 -56.9169 -56.9169 -56.9169  -5.1600  -0.6824  -0.6824  -0.6656
    -0.2725  -0.2725   4.1822   6.0026   6.0026   6.7978  10.4540  10.8067
    10.8067  13.7409  14.9151  14.9151  15.7042  17.5685  17.5685  19.4543
    23.4251

          k = 0.0998 0.0998 0.0998 ( 11002 PWs)   bands (ev):

  -108.5857 -56.9169 -56.9169 -56.9169  -5.1581  -0.6819  -0.6819  -0.6645
    -0.2726  -0.2726   4.1634   5.9985   5.9985   6.8046  10.4568  10.8121
    10.8121  13.7579  14.9072  14.9072  15.7022  17.5913  17.5913  19.4806
    23.3941

          k = 0.1010 0.1010 0.1010 ( 10996 PWs)   bands (ev):

  -108.5857 -56.9169 -56.9169 -56.9169  -5.1561  -0.6814  -0.6814  -0.6634
    -0.2726  -0.2726   4.1446   5.9945   5.9945   6.8113  10.4598  10.8175
    10.8175  13.7746  14.8995  14.8995  15.7006  17.6142  17.6142  19.5071
    23.3630

          k = 0.1023 0.1023 0.1023 ( 11002 PWs)   bands (ev):

  -108.5857 -56.9169 -56.9169 -56.9169  -5.1541  -0.6809  -0.6809  -0.6622
    -0.2726  -0.2726   4.1258   5.9905   5.9905   6.8179  10.4630  10.8229
    10.8229  13.7911  14.8919  14.8919  15.6995  17.6371  17.6371  19.5338
    23.3318

          k = 0.1035 0.1035 0.1035 ( 11002 PWs)   bands (ev):

  -108.5857 -56.9169 -56.9169 -56.9169  -5.1521  -0.6804  -0.6804  -0.6611
    -0.2726  -0.2726   4.1069   5.9864   5.9864   6.8243  10.4665  10.8284
    10.8284  13.8073  14.8845  14.8845  15.6988  17.6601  17.6601  19.5606
    23.3006

          k = 0.1048 0.1048 0.1048 ( 11002 PWs)   bands (ev):

  -108.5857 -56.9169 -56.9169 -56.9169  -5.1501  -0.6799  -0.6799  -0.6599
    -0.2726  -0.2726   4.0880   5.9822   5.9822   6.8306  10.4701  10.8339
    10.8339  13.8232  14.8772  14.8772  15.6986  17.6832  17.6832  19.5875
    23.2693

          k = 0.1061 0.1061 0.1061 ( 11008 PWs)   bands (ev):

  -108.5857 -56.9169 -56.9169 -56.9169  -5.1481  -0.6793  -0.6793  -0.6587
    -0.2726  -0.2726   4.0691   5.9781   5.9781   6.8368  10.4740  10.8394
    10.8394  13.8389  14.8700  14.8700  15.6989  17.7063  17.7063  19.6146
    23.2380

          k = 0.1073 0.1073 0.1073 ( 11008 PWs)   bands (ev):

  -108.5857 -56.9169 -56.9169 -56.9169  -5.1460  -0.6788  -0.6788  -0.6574
    -0.2726  -0.2726   4.0501   5.9739   5.9739   6.8428  10.4781  10.8449
    10.8449  13.8543  14.8630  14.8630  15.6997  17.7295  17.7295  19.6418
    23.2065

          k = 0.1086 0.1086 0.1086 ( 11008 PWs)   bands (ev):

  -108.5857 -56.9169 -56.9169 -56.9169  -5.1440  -0.6783  -0.6783  -0.6562
    -0.2727  -0.2727   4.0311   5.9698   5.9698   6.8488  10.4823  10.8504
    10.8504  13.8693  14.8562  14.8562  15.7009  17.7527  17.7527  19.6691
    23.1751

          k = 0.1099 0.1099 0.1099 ( 11008 PWs)   bands (ev):

  -108.5857 -56.9169 -56.9169 -56.9169  -5.1419  -0.6777  -0.6777  -0.6549
    -0.2727  -0.2727   4.0121   5.9655   5.9655   6.8546  10.4869  10.8560
    10.8560  13.8841  14.8495  14.8495  15.7027  17.7759  17.7759  19.6965
    23.1435

          k = 0.1111 0.1111 0.1111 ( 11008 PWs)   bands (ev):

  -108.5857 -56.9169 -56.9169 -56.9169  -5.1398  -0.6772  -0.6772  -0.6536
    -0.2727  -0.2727   3.9931   5.9613   5.9613   6.8602  10.4916  10.8615
    10.8615  13.8984  14.8430  14.8430  15.7050  17.7993  17.7993  19.7241
    23.1120

          k = 0.1124 0.1124 0.1124 ( 11017 PWs)   bands (ev):

  -108.5857 -56.9169 -56.9169 -56.9169  -5.1377  -0.6767  -0.6767  -0.6523
    -0.2727  -0.2727   3.9741   5.9570   5.9570   6.8657  10.4965  10.8671
    10.8671  13.9125  14.8366  14.8366  15.7079  17.8227  17.8227  19.7518
    23.0803

          k = 0.1136 0.1136 0.1136 ( 11017 PWs)   bands (ev):

  -108.5857 -56.9169 -56.9169 -56.9169  -5.1355  -0.6761  -0.6761  -0.6510
    -0.2727  -0.2727   3.9551   5.9528   5.9528   6.8712  10.5017  10.8727
    10.8727  13.9261  14.8304  14.8304  15.7113  17.8461  17.8461  19.7796
    23.0487

          k = 0.1149 0.1149 0.1149 ( 11017 PWs)   bands (ev):

  -108.5857 -56.9169 -56.9169 -56.9169  -5.1334  -0.6756  -0.6756  -0.6496
    -0.2727  -0.2727   3.9360   5.9485   5.9485   6.8764  10.5071  10.8783
    10.8783  13.9394  14.8243  14.8243  15.7152  17.8696  17.8696  19.8076
    23.0170

          k = 0.1162 0.1162 0.1162 ( 11017 PWs)   bands (ev):

  -108.5857 -56.9169 -56.9169 -56.9169  -5.1312  -0.6750  -0.6750  -0.6482
    -0.2727  -0.2727   3.9169   5.9441   5.9441   6.8816  10.5127  10.8838
    10.8838  13.9522  14.8184  14.8184  15.7198  17.8931  17.8931  19.8357
    22.9853

          k = 0.1174 0.1174 0.1174 ( 11017 PWs)   bands (ev):

  -108.5857 -56.9169 -56.9169 -56.9169  -5.1290  -0.6744  -0.6744  -0.6468
    -0.2727  -0.2727   3.8978   5.9398   5.9398   6.8866  10.5185  10.8894
    10.8894  13.9647  14.8126  14.8126  15.7249  17.9167  17.9167  19.8638
    22.9535

          k = 0.1187 0.1187 0.1187 ( 11035 PWs)   bands (ev):

  -108.5857 -56.9169 -56.9169 -56.9169  -5.1268  -0.6739  -0.6739  -0.6454
    -0.2727  -0.2727   3.8787   5.9354   5.9354   6.8915  10.5245  10.8950
    10.8950  13.9767  14.8071  14.8071  15.7307  17.9403  17.9403  19.8921
    22.9217

          k = 0.1200 0.1200 0.1200 ( 11035 PWs)   bands (ev):

  -108.5857 -56.9169 -56.9169 -56.9169  -5.1246  -0.6733  -0.6733  -0.6439
    -0.2727  -0.2727   3.8596   5.9311   5.9311   6.8962  10.5308  10.9006
    10.9006  13.9883  14.8016  14.8016  15.7370  17.9640  17.9640  19.9206
    22.8899

          k = 0.1212 0.1212 0.1212 ( 11047 PWs)   bands (ev):

  -108.5857 -56.9169 -56.9169 -56.9169  -5.1224  -0.6728  -0.6728  -0.6424
    -0.2727  -0.2727   3.8405   5.9267   5.9267   6.9009  10.5372  10.9062
    10.9062  13.9995  14.7964  14.7964  15.7440  17.9877  17.9877  19.9491
    22.8581

          k = 0.1225 0.1225 0.1225 ( 11047 PWs)   bands (ev):

  -108.5857 -56.9169 -56.9169 -56.9169  -5.1201  -0.6722  -0.6722  -0.6409
    -0.2727  -0.2727   3.8213   5.9223   5.9223   6.9054  10.5439  10.9118
    10.9118  14.0102  14.7913  14.7913  15.7516  18.0115  18.0115  19.9777
    22.8263

          k = 0.1237 0.1237 0.1237 ( 11044 PWs)   bands (ev):

  -108.5857 -56.9169 -56.9169 -56.9169  -5.1179  -0.6716  -0.6716  -0.6394
    -0.2727  -0.2727   3.8022   5.9178   5.9178   6.9098  10.5508  10.9174
    10.9174  14.0205  14.7864  14.7864  15.7598  18.0353  18.0353  20.0064
    22.7945

          k = 0.1250 0.1250 0.1250 ( 11038 PWs)   bands (ev):

  -108.5857 -56.9169 -56.9169 -56.9169  -5.1156  -0.6710  -0.6710  -0.6379
    -0.2727  -0.2727   3.7830   5.9134   5.9134   6.9140  10.5579  10.9229
    10.9229  14.0303  14.7816  14.7816  15.7686  18.0592  18.0592  20.0353
    22.7626

          k = 0.1263 0.1263 0.1263 ( 11041 PWs)   bands (ev):

  -108.5857 -56.9169 -56.9169 -56.9169  -5.1133  -0.6705  -0.6705  -0.6363
    -0.2727  -0.2727   3.7639   5.9089   5.9089   6.9182  10.5653  10.9285
    10.9285  14.0396  14.7770  14.7770  15.7781  18.0831  18.0831  20.0642
    22.7308

          k = 0.1275 0.1275 0.1275 ( 11041 PWs)   bands (ev):

  -108.5857 -56.9169 -56.9169 -56.9169  -5.1110  -0.6699  -0.6699  -0.6347
    -0.2726  -0.2726   3.7447   5.9045   5.9045   6.9222  10.5729  10.9341
    10.9341  14.0485  14.7726  14.7726  15.7882  18.1070  18.1070  20.0932
    22.6989

          k = 0.1288 0.1288 0.1288 ( 11041 PWs)   bands (ev):

  -108.5857 -56.9169 -56.9169 -56.9169  -5.1087  -0.6693  -0.6693  -0.6331
    -0.2726  -0.2726   3.7255   5.9000   5.9000   6.9261  10.5806  10.9396
    10.9396  14.0569  14.7683  14.7683  15.7989  18.1310  18.1310  20.1224
    22.6671

          k = 0.1301 0.1301 0.1301 ( 11041 PWs)   bands (ev):

  -108.5857 -56.9169 -56.9169 -56.9169  -5.1063  -0.6687  -0.6687  -0.6314
    -0.2726  -0.2726   3.7064   5.8955   5.8955   6.9298  10.5886  10.9451
    10.9451  14.0648  14.7642  14.7642  15.8103  18.1550  18.1550  20.1516
    22.6352

          k = 0.1313 0.1313 0.1313 ( 11041 PWs)   bands (ev):

  -108.5857 -56.9169 -56.9169 -56.9169  -5.1040  -0.6682  -0.6682  -0.6297
    -0.2726  -0.2726   3.6872   5.8910   5.8910   6.9335  10.5968  10.9507
    10.9507  14.0723  14.7603  14.7603  15.8223  18.1791  18.1791  20.1809
    22.6034

          k = 0.1326 0.1326 0.1326 ( 11041 PWs)   bands (ev):

  -108.5857 -56.9169 -56.9169 -56.9169  -5.1016  -0.6676  -0.6676  -0.6280
    -0.2726  -0.2726   3.6680   5.8864   5.8864   6.9370  10.6052  10.9562
    10.9562  14.0793  14.7566  14.7566  15.8350  18.2031  18.2031  20.2103
    22.5716

          k = 0.1338 0.1338 0.1338 ( 11041 PWs)   bands (ev):

  -108.5857 -56.9169 -56.9169 -56.9169  -5.0992  -0.6670  -0.6670  -0.6263
    -0.2726  -0.2726   3.6488   5.8819   5.8819   6.9404  10.6139  10.9617
    10.9617  14.0859  14.7530  14.7530  15.8482  18.2273  18.2273  20.2398
    22.5398

          k = 0.1351 0.1351 0.1351 ( 11041 PWs)   bands (ev):

  -108.5857 -56.9169 -56.9169 -56.9169  -5.0968  -0.6664  -0.6664  -0.6246
    -0.2726  -0.2726   3.6297   5.8774   5.8774   6.9437  10.6227  10.9671
    10.9671  14.0919  14.7496  14.7496  15.8621  18.2514  18.2514  20.2693
    22.5080

          k = 0.1364 0.1364 0.1364 ( 11041 PWs)   bands (ev):

  -108.5857 -56.9169 -56.9169 -56.9169  -5.0944  -0.6658  -0.6658  -0.6228
    -0.2725  -0.2725   3.6105   5.8728   5.8728   6.9468  10.6318  10.9726
    10.9726  14.0976  14.7464  14.7464  15.8766  18.2756  18.2756  20.2989
    22.4762

          k = 0.1376 0.1376 0.1376 ( 11041 PWs)   bands (ev):

  -108.5857 -56.9169 -56.9169 -56.9169  -5.0920  -0.6652  -0.6652  -0.6210
    -0.2725  -0.2725   3.5913   5.8682   5.8682   6.9499  10.6411  10.9780
    10.9780  14.1027  14.7434  14.7434  15.8917  18.2998  18.2998  20.3286
    22.4445

          k = 0.1389 0.1389 0.1389 ( 11029 PWs)   bands (ev):

  -108.5857 -56.9169 -56.9169 -56.9169  -5.0896  -0.6646  -0.6646  -0.6191
    -0.2725  -0.2725   3.5722   5.8637   5.8637   6.9528  10.6505  10.9835
    10.9835  14.1075  14.7405  14.7405  15.9074  18.3241  18.3241  20.3584
    22.4128

          k = 0.1402 0.1402 0.1402 ( 11023 PWs)   bands (ev):

  -108.5857 -56.9169 -56.9169 -56.9169  -5.0872  -0.6640  -0.6640  -0.6173
    -0.2725  -0.2725   3.5530   5.8591   5.8591   6.9557  10.6602  10.9888
    10.9888  14.1118  14.7378  14.7378  15.9237  18.3484  18.3484  20.3882
    22.3811

          k = 0.1414 0.1414 0.1414 ( 11011 PWs)   bands (ev):

  -108.5857 -56.9169 -56.9169 -56.9169  -5.0847  -0.6634  -0.6634  -0.6154
    -0.2724  -0.2724   3.5338   5.8545   5.8545   6.9584  10.6701  10.9942
    10.9942  14.1157  14.7353  14.7353  15.9406  18.3727  18.3727  20.4181
    22.3494

          k = 0.1427 0.1427 0.1427 ( 11011 PWs)   bands (ev):

  -108.5857 -56.9169 -56.9169 -56.9169  -5.0823  -0.6629  -0.6629  -0.6135
    -0.2724  -0.2724   3.5147   5.8499   5.8499   6.9610  10.6802  10.9995
    10.9995  14.1191  14.7330  14.7330  15.9580  18.3970  18.3970  20.4480
    22.3178

          k = 0.1439 0.1439 0.1439 ( 11023 PWs)   bands (ev):

  -108.5857 -56.9169 -56.9169 -56.9169  -5.0798  -0.6623  -0.6623  -0.6116
    -0.2724  -0.2724   3.4955   5.8453   5.8453   6.9635  10.6905  11.0049
    11.0049  14.1222  14.7308  14.7308  15.9760  18.4213  18.4213  20.4780
    22.2862

          k = 0.1452 0.1452 0.1452 ( 11032 PWs)   bands (ev):

  -108.5857 -56.9169 -56.9169 -56.9169  -5.0773  -0.6617  -0.6617  -0.6096
    -0.2723  -0.2723   3.4764   5.8407   5.8407   6.9659  10.7010  11.0101
    11.0101  14.1248  14.7289  14.7289  15.9945  18.4457  18.4457  20.5079
    22.2547

          k = 0.1465 0.1465 0.1465 ( 11044 PWs)   bands (ev):

  -108.5857 -56.9169 -56.9169 -56.9169  -5.0748  -0.6611  -0.6611  -0.6076
    -0.2723  -0.2723   3.4573   5.8361   5.8361   6.9681  10.7117  11.0154
    11.0154  14.1271  14.7271  14.7271  16.0136  18.4701  18.4701  20.5379
    22.2232

          k = 0.1477 0.1477 0.1477 ( 11044 PWs)   bands (ev):

  -108.5857 -56.9169 -56.9169 -56.9169  -5.0723  -0.6605  -0.6605  -0.6056
    -0.2723  -0.2723   3.4382   5.8315   5.8315   6.9703  10.7226  11.0206
    11.0206  14.1290  14.7255  14.7255  16.0331  18.4945  18.4945  20.5680
    22.1918

          k = 0.1490 0.1490 0.1490 ( 11044 PWs)   bands (ev):

  -108.5857 -56.9169 -56.9169 -56.9169  -5.0698  -0.6599  -0.6599  -0.6035
    -0.2722  -0.2722   3.4191   5.8269   5.8269   6.9724  10.7337  11.0258
    11.0258  14.1305  14.7241  14.7241  16.0532  18.5189  18.5189  20.5980
    22.1604

          k = 0.1503 0.1503 0.1503 ( 11044 PWs)   bands (ev):

  -108.5857 -56.9169 -56.9169 -56.9169  -5.0673  -0.6593  -0.6593  -0.6014
    -0.2722  -0.2722   3.4000   5.8222   5.8222   6.9744  10.7450  11.0310
    11.0310  14.1317  14.7228  14.7228  16.0738  18.5433  18.5433  20.6279
    22.1291

          k = 0.1515 0.1515 0.1515 ( 11044 PWs)   bands (ev):

  -108.5857 -56.9169 -56.9169 -56.9169  -5.0647  -0.6587  -0.6587  -0.5993
    -0.2721  -0.2721   3.3809   5.8176   5.8176   6.9762  10.7564  11.0361
    11.0361  14.1325  14.7218  14.7218  16.0948  18.5677  18.5677  20.6579
    22.0979

          k = 0.1528 0.1528 0.1528 ( 11044 PWs)   bands (ev):

  -108.5857 -56.9169 -56.9169 -56.9169  -5.0622  -0.6581  -0.6581  -0.5972
    -0.2721  -0.2721   3.3618   5.8130   5.8130   6.9780  10.7681  11.0412
    11.0412  14.1330  14.7209  14.7209  16.1163  18.5922  18.5922  20.6877
    22.0667

          k = 0.1540 0.1540 0.1540 ( 11044 PWs)   bands (ev):

  -108.5857 -56.9169 -56.9169 -56.9169  -5.0597  -0.6575  -0.6575  -0.5950
    -0.2720  -0.2720   3.3428   5.8084   5.8084   6.9797  10.7800  11.0462
    11.0462  14.1332  14.7202  14.7202  16.1383  18.6166  18.6166  20.7175
    22.0355

          k = 0.1553 0.1553 0.1553 ( 11044 PWs)   bands (ev):

  -108.5857 -56.9169 -56.9169 -56.9169  -5.0571  -0.6569  -0.6569  -0.5928
    -0.2720  -0.2720   3.3237   5.8037   5.8037   6.9813  10.7920  11.0512
    11.0512  14.1331  14.7197  14.7197  16.1607  18.6410  18.6410  20.7472
    22.0045

          k = 0.1566 0.1566 0.1566 ( 11038 PWs)   bands (ev):

  -108.5857 -56.9169 -56.9169 -56.9169  -5.0545  -0.6563  -0.6563  -0.5906
    -0.2719  -0.2719   3.3047   5.7991   5.7991   6.9828  10.8043  11.0562
    11.0562  14.1327  14.7194  14.7194  16.1835  18.6654  18.6654  20.7767
    21.9735

          k = 0.1578 0.1578 0.1578 ( 11038 PWs)   bands (ev):

  -108.5857 -56.9169 -56.9169 -56.9169  -5.0520  -0.6557  -0.6557  -0.5883
    -0.2719  -0.2719   3.2857   5.7945   5.7945   6.9841  10.8167  11.0612
    11.0612  14.1320  14.7193  14.7193  16.2067  18.6899  18.6899  20.8060
    21.9426

          k = 0.1591 0.1591 0.1591 ( 11038 PWs)   bands (ev):

  -108.5857 -56.9169 -56.9169 -56.9169  -5.0494  -0.6551  -0.6551  -0.5861
    -0.2718  -0.2718   3.2667   5.7899   5.7899   6.9855  10.8293  11.0660
    11.0660  14.1311  14.7194  14.7194  16.2303  18.7143  18.7143  20.8350
    21.9114

          k = 0.1604 0.1604 0.1604 ( 11038 PWs)   bands (ev):

  -108.5857 -56.9169 -56.9169 -56.9169  -5.0468  -0.6545  -0.6545  -0.5837
    -0.2718  -0.2718   3.2477   5.7852   5.7852   6.9867  10.8421  11.0709
    11.0709  14.1299  14.7196  14.7196  16.2543  18.7387  18.7387  20.8637
    21.8756

          k = 0.1616 0.1616 0.1616 ( 11026 PWs)   bands (ev):

  -108.5857 -56.9169 -56.9169 -56.9169  -5.0442  -0.6539  -0.6539  -0.5814
    -0.2717  -0.2717   3.2288   5.7806   5.7806   6.9878  10.8550  11.0757
    11.0757  14.1284  14.7201  14.7201  16.2786  18.7630  18.7630  20.8920
    21.8404

          k = 0.1629 0.1629 0.1629 ( 11026 PWs)   bands (ev):

  -108.5857 -56.9169 -56.9169 -56.9169  -5.0416  -0.6533  -0.6533  -0.5790
    -0.2716  -0.2716   3.2098   5.7760   5.7760   6.9888  10.8682  11.0805
    11.0805  14.1268  14.7207  14.7207  16.3033  18.7874  18.7874  20.9197
    21.8060

          k = 0.1641 0.1641 0.1641 ( 11026 PWs)   bands (ev):

  -108.5857 -56.9169 -56.9169 -56.9169  -5.0390  -0.6527  -0.6527  -0.5766
    -0.2716  -0.2716   3.1909   5.7714   5.7714   6.9898  10.8815  11.0852
    11.0852  14.1249  14.7215  14.7215  16.3283  18.8117  18.8117  20.9468
    21.7725

          k = 0.1654 0.1654 0.1654 ( 11029 PWs)   bands (ev):

  -108.5857 -56.9169 -56.9169 -56.9169  -5.0364  -0.6521  -0.6521  -0.5742
    -0.2715  -0.2715   3.1720   5.7668   5.7668   6.9907  10.8949  11.0899
    11.0899  14.1228  14.7225  14.7225  16.3536  18.8360  18.8360  20.9730
    21.7401

          k = 0.1667 0.1667 0.1667 ( 11029 PWs)   bands (ev):

  -108.5857 -56.9169 -56.9169 -56.9169  -5.0338  -0.6515  -0.6515  -0.5717
    -0.2714  -0.2714   3.1532   5.7622   5.7622   6.9915  10.9086  11.0945
    11.0945  14.1204  14.7237  14.7237  16.3792  18.8602  18.8602  20.9982
    21.7089

          k = 0.1679 0.1679 0.1679 ( 11029 PWs)   bands (ev):

  -108.5857 -56.9169 -56.9169 -56.9169  -5.0312  -0.6509  -0.6509  -0.5692
    -0.2714  -0.2714   3.1343   5.7575   5.7575   6.9922  10.9224  11.0991
    11.0991  14.1179  14.7251  14.7251  16.4052  18.8845  18.8845  21.0219
    21.6794

          k = 0.1692 0.1692 0.1692 ( 11017 PWs)   bands (ev):

  -108.5857 -56.9169 -56.9169 -56.9169  -5.0285  -0.6503  -0.6503  -0.5667
    -0.2713  -0.2713   3.1155   5.7529   5.7529   6.9929  10.9364  11.1036
    11.1036  14.1153  14.7267  14.7267  16.4314  18.9086  18.9086  21.0439
    21.6519

          k = 0.1705 0.1705 0.1705 ( 11017 PWs)   bands (ev):

  -108.5857 -56.9169 -56.9169 -56.9169  -5.0259  -0.6497  -0.6497  -0.5641
    -0.2712  -0.2712   3.0967   5.7484   5.7484   6.9934  10.9505  11.1081
    11.1081  14.1124  14.7285  14.7285  16.4578  18.9327  18.9327  21.0635
    21.6269

          k = 0.1717 0.1717 0.1717 ( 11017 PWs)   bands (ev):

  -108.5857 -56.9169 -56.9169 -56.9169  -5.0233  -0.6491  -0.6491  -0.5615
    -0.2711  -0.2711   3.0779   5.7438   5.7438   6.9939  10.9648  11.1125
    11.1125  14.1094  14.7305  14.7305  16.4846  18.9567  18.9567  21.0803
    21.6050

          k = 0.1730 0.1730 0.1730 ( 11017 PWs)   bands (ev):

  -108.5857 -56.9169 -56.9169 -56.9169  -5.0206  -0.6485  -0.6485  -0.5589
    -0.2710  -0.2710   3.0592   5.7392   5.7392   6.9943  10.9793  11.1169
    11.1169  14.1062  14.7326  14.7326  16.5115  18.9807  18.9807  21.0936
    21.5803

          k = 0.1743 0.1743 0.1743 ( 11017 PWs)   bands (ev):

  -108.5857 -56.9169 -56.9169 -56.9169  -5.0180  -0.6480  -0.6480  -0.5562
    -0.2710  -0.2710   3.0405   5.7346   5.7346   6.9947  10.9939  11.1212
    11.1212  14.1029  14.7350  14.7350  16.5387  19.0046  19.0046  21.1025
    21.5511

          k = 0.1755 0.1755 0.1755 ( 11017 PWs)   bands (ev):

  -108.5857 -56.9169 -56.9169 -56.9169  -5.0153  -0.6474  -0.6474  -0.5535
    -0.2709  -0.2709   3.0218   5.7301   5.7301   6.9950  11.0087  11.1255
    11.1255  14.0995  14.7375  14.7375  16.5661  19.0284  19.0284  21.1065
    21.5219

          k = 0.1768 0.1768 0.1768 ( 11017 PWs)   bands (ev):

  -108.5857 -56.9169 -56.9169 -56.9169  -5.0127  -0.6468  -0.6468  -0.5508
    -0.2708  -0.2708   3.0031   5.7255   5.7255   6.9952  11.0236  11.1297
    11.1297  14.0959  14.7402  14.7402  16.5937  19.0520  19.0520  21.1052
    21.4930

          k = 0.1780 0.1780 0.1780 ( 11017 PWs)   bands (ev):

  -108.5857 -56.9169 -56.9169 -56.9169  -5.0100  -0.6462  -0.6462  -0.5480
    -0.2707  -0.2707   2.9845   5.7210   5.7210   6.9954  11.0387  11.1339
    11.1339  14.0922  14.7432  14.7432  16.6215  19.0756  19.0756  21.0985
    21.4643

          k = 0.1793 0.1793 0.1793 ( 11017 PWs)   bands (ev):

  -108.5857 -56.9169 -56.9169 -56.9169  -5.0074  -0.6456  -0.6456  -0.5452
    -0.2706  -0.2706   2.9659   5.7164   5.7164   6.9954  11.0539  11.1380
    11.1380  14.0884  14.7463  14.7463  16.6494  19.0991  19.0991  21.0868
    21.4357

          k = 0.1806 0.1806 0.1806 ( 11023 PWs)   bands (ev):

  -108.5857 -56.9169 -56.9169 -56.9169  -5.0047  -0.6450  -0.6450  -0.5424
    -0.2705  -0.2705   2.9474   5.7119   5.7119   6.9955  11.0693  11.1420
    11.1420  14.0845  14.7496  14.7496  16.6776  19.1224  19.1224  21.0707
    21.4074

          k = 0.1818 0.1818 0.1818 ( 11017 PWs)   bands (ev):

  -108.5857 -56.9169 -56.9169 -56.9169  -5.0021  -0.6445  -0.6445  -0.5395
    -0.2704  -0.2704   2.9288   5.7074   5.7074   6.9954  11.0848  11.1460
    11.1460  14.0805  14.7531  14.7531  16.7058  19.1456  19.1456  21.0510
    21.3793

          k = 0.1831 0.1831 0.1831 ( 11017 PWs)   bands (ev):

  -108.5857 -56.9169 -56.9169 -56.9169  -4.9994  -0.6439  -0.6439  -0.5366
    -0.2703  -0.2703   2.9103   5.7029   5.7029   6.9953  11.1004  11.1500
    11.1500  14.0764  14.7568  14.7568  16.7343  19.1686  19.1686  21.0282
    21.3515

          k = 0.1844 0.1844 0.1844 ( 11020 PWs)   bands (ev):

  -108.5857 -56.9169 -56.9169 -56.9169  -4.9968  -0.6433  -0.6433  -0.5337
    -0.2702  -0.2702   2.8919   5.6984   5.6984   6.9952  11.1162  11.1539
    11.1539  14.0722  14.7607  14.7607  16.7628  19.1915  19.1915  21.0032
    21.3239

          k = 0.1856 0.1856 0.1856 ( 11020 PWs)   bands (ev):

  -108.5857 -56.9169 -56.9169 -56.9169  -4.9941  -0.6427  -0.6427  -0.5307
    -0.2701  -0.2701   2.8734   5.6939   5.6939   6.9950  11.1321  11.1577
    11.1577  14.0680  14.7647  14.7647  16.7914  19.2141  19.2141  20.9764
    21.2967

          k = 0.1869 0.1869 0.1869 ( 11020 PWs)   bands (ev):

  -108.5857 -56.9169 -56.9169 -56.9169  -4.9914  -0.6422  -0.6422  -0.5277
    -0.2700  -0.2700   2.8550   5.6894   5.6894   6.9947  11.1481  11.1615
    11.1615  14.0637  14.7690  14.7690  16.8202  19.2366  19.2366  20.9482
    21.2697

          k = 0.1881 0.1881 0.1881 ( 11026 PWs)   bands (ev):

  -108.5857 -56.9169 -56.9169 -56.9169  -4.9888  -0.6416  -0.6416  -0.5247
    -0.2699  -0.2699   2.8367   5.6850   5.6850   6.9944  11.1643  11.1652
    11.1652  14.0593  14.7734  14.7734  16.8490  19.2588  19.2588  20.9189
    21.2430

          k = 0.1894 0.1894 0.1894 ( 11038 PWs)   bands (ev):

  -108.5857 -56.9170 -56.9169 -56.9169  -4.9861  -0.6410  -0.6410  -0.5216
    -0.2698  -0.2698   2.8183   5.6805   5.6805   6.9941  11.1689  11.1689
    11.1806  14.0549  14.7781  14.7781  16.8779  19.2808  19.2808  20.8889
    21.2167

          k = 0.1907 0.1907 0.1907 ( 11038 PWs)   bands (ev):

  -108.5857 -56.9170 -56.9169 -56.9169  -4.9835  -0.6405  -0.6405  -0.5185
    -0.2697  -0.2697   2.8001   5.6761   5.6761   6.9936  11.1725  11.1725
    11.1971  14.0504  14.7829  14.7829  16.9069  19.3025  19.3025  20.8583
    21.1908

          k = 0.1919 0.1919 0.1919 ( 11038 PWs)   bands (ev):

  -108.5857 -56.9170 -56.9169 -56.9169  -4.9808  -0.6399  -0.6399  -0.5154
    -0.2696  -0.2696   2.7818   5.6717   5.6717   6.9932  11.1760  11.1760
    11.2136  14.0458  14.7879  14.7879  16.9359  19.3238  19.3238  20.8273
    21.1652

          k = 0.1932 0.1932 0.1932 ( 11038 PWs)   bands (ev):

  -108.5857 -56.9170 -56.9169 -56.9169  -4.9782  -0.6393  -0.6393  -0.5122
    -0.2695  -0.2695   2.7636   5.6673   5.6673   6.9927  11.1795  11.1795
    11.2303  14.0413  14.7931  14.7931  16.9650  19.3449  19.3449  20.7960
    21.1401

          k = 0.1945 0.1945 0.1945 ( 11038 PWs)   bands (ev):

  -108.5857 -56.9170 -56.9169 -56.9169  -4.9755  -0.6388  -0.6388  -0.5090
    -0.2693  -0.2693   2.7454   5.6629   5.6629   6.9921  11.1830  11.1830
    11.2470  14.0367  14.7985  14.7985  16.9940  19.3656  19.3656  20.7645
    21.1154

          k = 0.1957 0.1957 0.1957 ( 11038 PWs)   bands (ev):

  -108.5857 -56.9170 -56.9169 -56.9169  -4.9729  -0.6382  -0.6382  -0.5058
    -0.2692  -0.2692   2.7273   5.6585   5.6585   6.9915  11.1863  11.1863
    11.2639  14.0320  14.8041  14.8041  17.0231  19.3859  19.3859  20.7329
    21.0912

          k = 0.1970 0.1970 0.1970 ( 11038 PWs)   bands (ev):

  -108.5857 -56.9170 -56.9169 -56.9169  -4.9702  -0.6377  -0.6377  -0.5025
    -0.2691  -0.2691   2.7092   5.6542   5.6542   6.9909  11.1896  11.1896
    11.2810  14.0273  14.8099  14.8099  17.0522  19.4058  19.4058  20.7012
    21.0675

          k = 0.1982 0.1982 0.1982 ( 11038 PWs)   bands (ev):

  -108.5857 -56.9170 -56.9169 -56.9169  -4.9676  -0.6371  -0.6371  -0.4992
    -0.2690  -0.2690   2.6912   5.6499   5.6499   6.9902  11.1929  11.1929
    11.2981  14.0226  14.8159  14.8159  17.0812  19.4253  19.4253  20.6696
    21.0444

          k = 0.1995 0.1995 0.1995 ( 11029 PWs)   bands (ev):

  -108.5857 -56.9170 -56.9169 -56.9169  -4.9649  -0.6366  -0.6366  -0.4959
    -0.2688  -0.2688   2.6732   5.6455   5.6455   6.9895  11.1961  11.1961
    11.3153  14.0179  14.8220  14.8220  17.1102  19.4442  19.4442  20.6380
    21.0219

          k = 0.2008 0.2008 0.2008 ( 11029 PWs)   bands (ev):

  -108.5857 -56.9170 -56.9169 -56.9169  -4.9623  -0.6360  -0.6360  -0.4925
    -0.2687  -0.2687   2.6553   5.6412   5.6412   6.9887  11.1992  11.1992
    11.3326  14.0132  14.8283  14.8283  17.1392  19.4626  19.4626  20.6066
    21.0001

          k = 0.2020 0.2020 0.2020 ( 11029 PWs)   bands (ev):

  -108.5857 -56.9170 -56.9169 -56.9169  -4.9596  -0.6355  -0.6355  -0.4891
    -0.2686  -0.2686   2.6374   5.6370   5.6370   6.9879  11.2023  11.2023
    11.3500  14.0084  14.8348  14.8348  17.1680  19.4804  19.4804  20.5753
    20.9789

          k = 0.2033 0.2033 0.2033 ( 11029 PWs)   bands (ev):

  -108.5857 -56.9170 -56.9169 -56.9169  -4.9570  -0.6350  -0.6350  -0.4856
    -0.2684  -0.2684   2.6195   5.6327   5.6327   6.9871  11.2054  11.2054
    11.3676  14.0037  14.8415  14.8415  17.1968  19.4975  19.4975  20.5442
    20.9585

          k = 0.2046 0.2046 0.2046 ( 11029 PWs)   bands (ev):

  -108.5857 -56.9170 -56.9169 -56.9169  -4.9544  -0.6344  -0.6344  -0.4821
    -0.2683  -0.2683   2.6017   5.6285   5.6285   6.9863  11.2083  11.2083
    11.3852  13.9989  14.8484  14.8484  17.2255  19.5139  19.5139  20.5134
    20.9388

          k = 0.2058 0.2058 0.2058 ( 11023 PWs)   bands (ev):

  -108.5857 -56.9170 -56.9169 -56.9169  -4.9518  -0.6339  -0.6339  -0.4786
    -0.2682  -0.2682   2.5839   5.6242   5.6242   6.9854  11.2112  11.2112
    11.4029  13.9942  14.8555  14.8555  17.2540  19.5296  19.5296  20.4828
    20.9201

          k = 0.2071 0.2071 0.2071 ( 11023 PWs)   bands (ev):

  -108.5857 -56.9170 -56.9169 -56.9169  -4.9492  -0.6334  -0.6334  -0.4751
    -0.2680  -0.2680   2.5662   5.6200   5.6200   6.9844  11.2141  11.2141
    11.4207  13.9894  14.8627  14.8627  17.2824  19.5445  19.5445  20.4524
    20.9023

          k = 0.2083 0.2083 0.2083 ( 11023 PWs)   bands (ev):

  -108.5857 -56.9170 -56.9169 -56.9169  -4.9465  -0.6329  -0.6329  -0.4715
    -0.2679  -0.2679   2.5485   5.6158   5.6158   6.9835  11.2169  11.2169
    11.4386  13.9847  14.8701  14.8701  17.3106  19.5584  19.5584  20.4224
    20.8854

          k = 0.2096 0.2096 0.2096 ( 11029 PWs)   bands (ev):

  -108.5857 -56.9170 -56.9169 -56.9169  -4.9439  -0.6323  -0.6323  -0.4678
    -0.2678  -0.2678   2.5309   5.6117   5.6117   6.9825  11.2196  11.2196
    11.4566  13.9800  14.8777  14.8777  17.3387  19.5714  19.5714  20.3928
    20.8696

          k = 0.2109 0.2109 0.2109 ( 11029 PWs)   bands (ev):

  -108.5857 -56.9170 -56.9169 -56.9169  -4.9413  -0.6318  -0.6318  -0.4642
    -0.2676  -0.2676   2.5134   5.6075   5.6075   6.9815  11.2223  11.2223
    11.4746  13.9752  14.8855  14.8855  17.3665  19.5834  19.5834  20.3635
    20.8549

          k = 0.2121 0.2121 0.2121 ( 11029 PWs)   bands (ev):

  -108.5857 -56.9170 -56.9169 -56.9169  -4.9387  -0.6313  -0.6313  -0.4605
    -0.2675  -0.2675   2.4959   5.6034   5.6034   6.9804  11.2249  11.2249
    11.4927  13.9706  14.8934  14.8934  17.3941  19.5943  19.5943  20.3347
    20.8415

          k = 0.2134 0.2134 0.2134 ( 11029 PWs)   bands (ev):

  -108.5857 -56.9170 -56.9169 -56.9169  -4.9362  -0.6308  -0.6308  -0.4568
    -0.2673  -0.2673   2.4784   5.5993   5.5993   6.9794  11.2275  11.2275
    11.5109  13.9659  14.9015  14.9015  17.4214  19.6041  19.6041  20.3062
    20.8292

          k = 0.2147 0.2147 0.2147 ( 11029 PWs)   bands (ev):

  -108.5857 -56.9170 -56.9169 -56.9169  -4.9336  -0.6303  -0.6303  -0.4530
    -0.2672  -0.2672   2.4610   5.5952   5.5952   6.9783  11.2300  11.2300
    11.5292  13.9612  14.9098  14.9098  17.4484  19.6126  19.6126  20.2783
    20.8183

          k = 0.2159 0.2159 0.2159 ( 11029 PWs)   bands (ev):

  -108.5857 -56.9170 -56.9169 -56.9169  -4.9310  -0.6298  -0.6298  -0.4492
    -0.2670  -0.2670   2.4437   5.5912   5.5912   6.9772  11.2324  11.2324
    11.5476  13.9566  14.9183  14.9183  17.4751  19.6198  19.6198  20.2508
    20.8088

          k = 0.2172 0.2172 0.2172 ( 11029 PWs)   bands (ev):

  -108.5857 -56.9170 -56.9169 -56.9169  -4.9285  -0.6293  -0.6293  -0.4454
    -0.2669  -0.2669   2.4264   5.5871   5.5871   6.9760  11.2348  11.2348
    11.5660  13.9520  14.9270  14.9270  17.5014  19.6258  19.6258  20.2239
    20.8007

          k = 0.2184 0.2184 0.2184 ( 11029 PWs)   bands (ev):

  -108.5857 -56.9170 -56.9169 -56.9169  -4.9259  -0.6288  -0.6288  -0.4415
    -0.2667  -0.2667   2.4091   5.5831   5.5831   6.9749  11.2372  11.2372
    11.5845  13.9474  14.9358  14.9358  17.5274  19.6303  19.6303  20.1975
    20.7941

          k = 0.2197 0.2197 0.2197 ( 11035 PWs)   bands (ev):

  -108.5857 -56.9170 -56.9169 -56.9169  -4.9234  -0.6283  -0.6283  -0.4376
    -0.2666  -0.2666   2.3920   5.5791   5.5791   6.9737  11.2394  11.2394
    11.6030  13.9429  14.9447  14.9447  17.5530  19.6334  19.6334  20.1717
    20.7890

          k = 0.2210 0.2210 0.2210 ( 11035 PWs)   bands (ev):

  -108.5857 -56.9170 -56.9169 -56.9169  -4.9208  -0.6278  -0.6278  -0.4336
    -0.2664  -0.2664   2.3748   5.5752   5.5752   6.9725  11.2417  11.2417
    11.6216  13.9384  14.9539  14.9539  17.5781  19.6351  19.6351  20.1466
    20.7855

          k = 0.2222 0.2222 0.2222 ( 11029 PWs)   bands (ev):

  -108.5857 -56.9170 -56.9169 -56.9169  -4.9183  -0.6273  -0.6273  -0.4297
    -0.2662  -0.2662   2.3578   5.5712   5.5712   6.9713  11.2439  11.2439
    11.6402  13.9340  14.9632  14.9632  17.6027  19.6353  19.6353  20.1221
    20.7836

          k = 0.2235 0.2235 0.2235 ( 11029 PWs)   bands (ev):

  -108.5857 -56.9170 -56.9169 -56.9169  -4.9158  -0.6269  -0.6269  -0.4257
    -0.2661  -0.2661   2.3408   5.5673   5.5673   6.9701  11.2460  11.2460
    11.6589  13.9296  14.9727  14.9727  17.6268  19.6340  19.6340  20.0984
    20.7832

          k = 0.2248 0.2248 0.2248 ( 11029 PWs)   bands (ev):

  -108.5857 -56.9170 -56.9169 -56.9169  -4.9133  -0.6264  -0.6264  -0.4216
    -0.2659  -0.2659   2.3239   5.5634   5.5634   6.9688  11.2480  11.2480
    11.6777  13.9252  14.9823  14.9823  17.6503  19.6312  19.6312  20.0754
    20.7844

          k = 0.2260 0.2260 0.2260 ( 11029 PWs)   bands (ev):

  -108.5857 -56.9170 -56.9169 -56.9169  -4.9108  -0.6259  -0.6259  -0.4175
    -0.2657  -0.2657   2.3070   5.5596   5.5596   6.9676  11.2501  11.2501
    11.6964  13.9209  14.9921  14.9921  17.6733  19.6270  19.6270  20.0532
    20.7872

          k = 0.2273 0.2273 0.2273 ( 11029 PWs)   bands (ev):

  -108.5857 -56.9170 -56.9169 -56.9169  -4.9083  -0.6254  -0.6254  -0.4134
    -0.2656  -0.2656   2.2902   5.5558   5.5558   6.9663  11.2520  11.2520
    11.7153  13.9166  15.0021  15.0021  17.6956  19.6214  19.6214  20.0318
    20.7915

          k = 0.2285 0.2285 0.2285 ( 11029 PWs)   bands (ev):

  -108.5857 -56.9170 -56.9169 -56.9169  -4.9058  -0.6250  -0.6250  -0.4093
    -0.2654  -0.2654   2.2734   5.5519   5.5519   6.9650  11.2539  11.2539
    11.7341  13.9124  15.0122  15.0122  17.7172  19.6144  19.6144  20.0113
    20.7973

          k = 0.2298 0.2298 0.2298 ( 11029 PWs)   bands (ev):

  -108.5857 -56.9170 -56.9169 -56.9169  -4.9034  -0.6245  -0.6245  -0.4051
    -0.2652  -0.2652   2.2568   5.5482   5.5482   6.9637  11.2558  11.2558
    11.7530  13.9082  15.0225  15.0225  17.7381  19.6061  19.6061  19.9917
    20.8045

          k = 0.2311 0.2311 0.2311 ( 11029 PWs)   bands (ev):

  -108.5857 -56.9170 -56.9169 -56.9169  -4.9009  -0.6241  -0.6241  -0.4009
    -0.2651  -0.2651   2.2401   5.5444   5.5444   6.9624  11.2576  11.2576
    11.7719  13.9041  15.0329  15.0329  17.7582  19.5965  19.5965  19.9731
    20.8132

          k = 0.2323 0.2323 0.2323 ( 11029 PWs)   bands (ev):

  -108.5857 -56.9170 -56.9169 -56.9169  -4.8985  -0.6236  -0.6236  -0.3966
    -0.2649  -0.2649   2.2236   5.5407   5.5407   6.9611  11.2594  11.2594
    11.7909  13.9001  15.0435  15.0435  17.7775  19.5856  19.5856  19.9555
    20.8231

          k = 0.2336 0.2336 0.2336 ( 11023 PWs)   bands (ev):

  -108.5857 -56.9170 -56.9169 -56.9169  -4.8961  -0.6232  -0.6232  -0.3924
    -0.2647  -0.2647   2.2071   5.5370   5.5370   6.9598  11.2611  11.2611
    11.8099  13.8961  15.0543  15.0543  17.7959  19.5737  19.5737  19.9390
    20.8343

          k = 0.2349 0.2349 0.2349 ( 11023 PWs)   bands (ev):

  -108.5857 -56.9170 -56.9169 -56.9169  -4.8937  -0.6227  -0.6227  -0.3880
    -0.2646  -0.2646   2.1907   5.5333   5.5333   6.9584  11.2628  11.2628
    11.8288  13.8922  15.0652  15.0652  17.8134  19.5606  19.5606  19.9236
    20.8467

          k = 0.2361 0.2361 0.2361 ( 11023 PWs)   bands (ev):

  -108.5857 -56.9170 -56.9169 -56.9169  -4.8913  -0.6223  -0.6223  -0.3837
    -0.2644  -0.2644   2.1744   5.5297   5.5297   6.9571  11.2644  11.2644
    11.8478  13.8884  15.0762  15.0762  17.8299  19.5466  19.5466  19.9093
    20.8602

          k = 0.2374 0.2374 0.2374 ( 11017 PWs)   bands (ev):

  -108.5857 -56.9170 -56.9169 -56.9169  -4.8889  -0.6219  -0.6219  -0.3793
    -0.2642  -0.2642   2.1581   5.5260   5.5260   6.9558  11.2660  11.2660
    11.8668  13.8846  15.0874  15.0874  17.8454  19.5316  19.5316  19.8963
    20.8747

          k = 0.2386 0.2386 0.2386 ( 11017 PWs)   bands (ev):

  -108.5857 -56.9170 -56.9169 -56.9169  -4.8865  -0.6214  -0.6214  -0.3749
    -0.2640  -0.2640   2.1419   5.5225   5.5225   6.9544  11.2675  11.2675
    11.8859  13.8809  15.0987  15.0987  17.8598  19.5157  19.5157  19.8845
    20.8903

          k = 0.2399 0.2399 0.2399 ( 11029 PWs)   bands (ev):

  -108.5857 -56.9170 -56.9169 -56.9169  -4.8842  -0.6210  -0.6210  -0.3705
    -0.2639  -0.2639   2.1258   5.5189   5.5189   6.9530  11.2690  11.2690
    11.9049  13.8772  15.1102  15.1102  17.8731  19.4990  19.4990  19.8740
    20.9067

          k = 0.2412 0.2412 0.2412 ( 11029 PWs)   bands (ev):

  -108.5857 -56.9170 -56.9169 -56.9169  -4.8818  -0.6206  -0.6206  -0.3660
    -0.2637  -0.2637   2.1098   5.5154   5.5154   6.9517  11.2704  11.2704
    11.9239  13.8737  15.1218  15.1218  17.8853  19.4816  19.4816  19.8649
    20.9241

          k = 0.2424 0.2424 0.2424 ( 11035 PWs)   bands (ev):

  -108.5857 -56.9170 -56.9169 -56.9169  -4.8795  -0.6202  -0.6202  -0.3615
    -0.2635  -0.2635   2.0938   5.5119   5.5119   6.9503  11.2718  11.2718
    11.9429  13.8702  15.1335  15.1335  17.8963  19.4635  19.4635  19.8571
    20.9422

          k = 0.2437 0.2437 0.2437 ( 11035 PWs)   bands (ev):

  -108.5857 -56.9170 -56.9169 -56.9169  -4.8772  -0.6198  -0.6198  -0.3570
    -0.2633  -0.2633   2.0779   5.5084   5.5084   6.9489  11.2732  11.2732
    11.9619  13.8668  15.1454  15.1454  17.9061  19.4448  19.4448  19.8508
    20.9610

          k = 0.2450 0.2450 0.2450 ( 11035 PWs)   bands (ev):

  -108.5857 -56.9170 -56.9169 -56.9169  -4.8749  -0.6194  -0.6194  -0.3524
    -0.2632  -0.2632   2.0621   5.5050   5.5050   6.9476  11.2745  11.2745
    11.9809  13.8635  15.1574  15.1574  17.9147  19.4256  19.4256  19.8459
    20.9805

          k = 0.2462 0.2462 0.2462 ( 11035 PWs)   bands (ev):

  -108.5857 -56.9170 -56.9169 -56.9169  -4.8726  -0.6190  -0.6190  -0.3479
    -0.2630  -0.2630   2.0464   5.5016   5.5016   6.9462  11.2757  11.2757
    11.9999  13.8603  15.1696  15.1696  17.9219  19.4058  19.4058  19.8424
    21.0007

          k = 0.2475 0.2475 0.2475 ( 11035 PWs)   bands (ev):

  -108.5857 -56.9170 -56.9169 -56.9169  -4.8703  -0.6186  -0.6186  -0.3432
    -0.2628  -0.2628   2.0308   5.4982   5.4982   6.9448  11.2769  11.2769
    12.0188  13.8571  15.1819  15.1819  17.9279  19.3855  19.3855  19.8405
    21.0214

          k = 0.2488 0.2488 0.2488 ( 11036 PWs)   bands (ev):

  -108.5857 -56.9170 -56.9169 -56.9169  -4.8681  -0.6182  -0.6182  -0.3386
    -0.2626  -0.2626   2.0152   5.4949   5.4949   6.9435  11.2781  11.2781
    12.0377  13.8541  15.1943  15.1943  17.9326  19.3648  19.3648  19.8400
    21.0427

          k = 0.2500 0.2500 0.2500 ( 11036 PWs)   bands (ev):

  -108.5857 -56.9170 -56.9169 -56.9169  -4.8659  -0.6178  -0.6178  -0.3339
    -0.2625  -0.2625   1.9997   5.4916   5.4916   6.9421  11.2793  11.2793
    12.0566  13.8511  15.2068  15.2068  17.9360  19.3437  19.3437  19.8410
    21.0645

          k = 0.2513 0.2513 0.2513 ( 11036 PWs)   bands (ev):

  -108.5857 -56.9170 -56.9169 -56.9169  -4.8637  -0.6174  -0.6174  -0.3292
    -0.2623  -0.2623   1.9844   5.4883   5.4883   6.9407  11.2804  11.2804
    12.0754  13.8483  15.2195  15.2195  17.9381  19.3222  19.3222  19.8436
    21.0868

          k = 0.2525 0.2525 0.2525 ( 11030 PWs)   bands (ev):

  -108.5857 -56.9170 -56.9169 -56.9169  -4.8615  -0.6170  -0.6170  -0.3245
    -0.2621  -0.2621   1.9690   5.4850   5.4850   6.9394  11.2814  11.2814
    12.0942  13.8455  15.2322  15.2322  17.9389  19.3005  19.3005  19.8476
    21.1095

          k = 0.2538 0.2538 0.2538 ( 11030 PWs)   bands (ev):

  -108.5857 -56.9170 -56.9169 -56.9169  -4.8593  -0.6166  -0.6166  -0.3198
    -0.2619  -0.2619   1.9538   5.4818   5.4818   6.9380  11.2825  11.2825
    12.1129  13.8428  15.2451  15.2451  17.9384  19.2784  19.2784  19.8531
    21.1326

          k = 0.2551 0.2551 0.2551 ( 11030 PWs)   bands (ev):

  -108.5857 -56.9170 -56.9169 -56.9169  -4.8571  -0.6163  -0.6163  -0.3150
    -0.2617  -0.2617   1.9387   5.4786   5.4786   6.9366  11.2835  11.2835
    12.1316  13.8403  15.2581  15.2581  17.9366  19.2561  19.2561  19.8601
    21.1561

          k = 0.2563 0.2563 0.2563 ( 11030 PWs)   bands (ev):

  -108.5857 -56.9170 -56.9169 -56.9169  -4.8550  -0.6159  -0.6159  -0.3102
    -0.2616  -0.2616   1.9237   5.4755   5.4755   6.9353  11.2844  11.2844
    12.1503  13.8378  15.2712  15.2712  17.9336  19.2336  19.2336  19.8685
    21.1799

          k = 0.2576 0.2576 0.2576 ( 11030 PWs)   bands (ev):

  -108.5857 -56.9170 -56.9169 -56.9169  -4.8529  -0.6155  -0.6155  -0.3054
    -0.2614  -0.2614   1.9087   5.4724   5.4724   6.9339  11.2853  11.2853
    12.1688  13.8355  15.2845  15.2845  17.9294  19.2109  19.2109  19.8783
    21.2041

          k = 0.2589 0.2589 0.2589 ( 11030 PWs)   bands (ev):

  -108.5857 -56.9170 -56.9169 -56.9169  -4.8508  -0.6152  -0.6152  -0.3006
    -0.2612  -0.2612   1.8939   5.4693   5.4693   6.9326  11.2862  11.2862
    12.1873  13.8332  15.2978  15.2978  17.9240  19.1880  19.1880  19.8895
    21.2285

          k = 0.2601 0.2601 0.2601 ( 11030 PWs)   bands (ev):

  -108.5857 -56.9170 -56.9169 -56.9169  -4.8487  -0.6148  -0.6148  -0.2957
    -0.2610  -0.2610   1.8791   5.4663   5.4663   6.9313  11.2871  11.2871
    12.2057  13.8311  15.3112  15.3112  17.9175  19.1650  19.1650  19.9020
    21.2532

          k = 0.2614 0.2614 0.2614 ( 11024 PWs)   bands (ev):

  -108.5857 -56.9170 -56.9169 -56.9169  -4.8466  -0.6145  -0.6145  -0.2908
    -0.2608  -0.2608   1.8645   5.4632   5.4632   6.9299  11.2879  11.2879
    12.2241  13.8291  15.3247  15.3247  17.9100  19.1418  19.1418  19.9157
    21.2782

          k = 0.2626 0.2626 0.2626 ( 11024 PWs)   bands (ev):

  -108.5857 -56.9170 -56.9169 -56.9169  -4.8446  -0.6142  -0.6142  -0.2859
    -0.2607  -0.2607   1.8499   5.4603   5.4603   6.9286  11.2887  11.2887
    12.2423  13.8272  15.3384  15.3384  17.9014  19.1185  19.1185  19.9307
    21.3034

          k = 0.2639 0.2639 0.2639 ( 11024 PWs)   bands (ev):

  -108.5857 -56.9170 -56.9169 -56.9169  -4.8426  -0.6138  -0.6138  -0.2810
    -0.2605  -0.2605   1.8355   5.4573   5.4573   6.9273  11.2894  11.2894
    12.2605  13.8254  15.3521  15.3521  17.8918  19.0951  19.0951  19.9469
    21.3289

          k = 0.2652 0.2652 0.2652 ( 11024 PWs)   bands (ev):

  -108.5857 -56.9170 -56.9169 -56.9169  -4.8406  -0.6135  -0.6135  -0.2761
    -0.2603  -0.2603   1.8211   5.4544   5.4544   6.9260  11.2902  11.2902
    12.2785  13.8237  15.3659  15.3659  17.8812  19.0716  19.0716  19.9643
    21.3545

          k = 0.2664 0.2664 0.2664 ( 11024 PWs)   bands (ev):

  -108.5857 -56.9170 -56.9169 -56.9169  -4.8386  -0.6132  -0.6132  -0.2712
    -0.2601  -0.2601   1.8069   5.4516   5.4516   6.9247  11.2909  11.2909
    12.2965  13.8222  15.3798  15.3798  17.8698  19.0480  19.0480  19.9827
    21.3803

          k = 0.2677 0.2677 0.2677 ( 11024 PWs)   bands (ev):

  -108.5857 -56.9170 -56.9169 -56.9169  -4.8366  -0.6128  -0.6128  -0.2662
    -0.2599  -0.2599   1.7927   5.4487   5.4487   6.9234  11.2915  11.2915
    12.3143  13.8208  15.3938  15.3938  17.8576  19.0244  19.0244  20.0021
    21.4064

          k = 0.2690 0.2690 0.2690 ( 11036 PWs)   bands (ev):

  -108.5857 -56.9170 -56.9169 -56.9169  -4.8347  -0.6125  -0.6125  -0.2612
    -0.2598  -0.2598   1.7787   5.4459   5.4459   6.9221  11.2922  11.2922
    12.3320  13.8195  15.4079  15.4079  17.8446  19.0008  19.0008  20.0225
    21.4325

          k = 0.2702 0.2702 0.2702 ( 11036 PWs)   bands (ev):

  -108.5857 -56.9170 -56.9169 -56.9169  -4.8328  -0.6122  -0.6122  -0.2596
    -0.2596  -0.2562   1.7647   5.4432   5.4432   6.9208  11.2928  11.2928
    12.3496  13.8183  15.4220  15.4220  17.8309  18.9771  18.9771  20.0438
    21.4589

          k = 0.2715 0.2715 0.2715 ( 11036 PWs)   bands (ev):

  -108.5857 -56.9170 -56.9169 -56.9169  -4.8309  -0.6119  -0.6119  -0.2594
    -0.2594  -0.2513   1.7509   5.4404   5.4404   6.9196  11.2934  11.2934
    12.3670  13.8173  15.4363  15.4363  17.8165  18.9534  18.9534  20.0660
    21.4853

          k = 0.2727 0.2727 0.2727 ( 11036 PWs)   bands (ev):

  -108.5857 -56.9170 -56.9169 -56.9169  -4.8290  -0.6116  -0.6116  -0.2592
    -0.2592  -0.2462   1.7372   5.4377   5.4377   6.9183  11.2939  11.2939
    12.3843  13.8164  15.4505  15.4505  17.8015  18.9298  18.9298  20.0891
    21.5119

          k = 0.2740 0.2740 0.2740 ( 11036 PWs)   bands (ev):

  -108.5857 -56.9170 -56.9169 -56.9169  -4.8272  -0.6113  -0.6113  -0.2591
    -0.2591  -0.2412   1.7236   5.4351   5.4351   6.9171  11.2944  11.2944
    12.4015  13.8157  15.4649  15.4649  17.7859  18.9061  18.9061  20.1129
    21.5386

          k = 0.2753 0.2753 0.2753 ( 11042 PWs)   bands (ev):

  -108.5857 -56.9170 -56.9169 -56.9169  -4.8253  -0.6110  -0.6110  -0.2589
    -0.2589  -0.2362   1.7101   5.4325   5.4325   6.9158  11.2950  11.2950
    12.4185  13.8151  15.4793  15.4793  17.7697  18.8825  18.8825  20.1374
    21.5655

          k = 0.2765 0.2765 0.2765 ( 11036 PWs)   bands (ev):

  -108.5857 -56.9170 -56.9169 -56.9169  -4.8235  -0.6107  -0.6107  -0.2587
    -0.2587  -0.2312   1.6968   5.4299   5.4299   6.9146  11.2954  11.2954
    12.4354  13.8146  15.4938  15.4938  17.7531  18.8588  18.8588  20.1626
    21.5924

          k = 0.2778 0.2778 0.2778 ( 11042 PWs)   bands (ev):

  -108.5857 -56.9170 -56.9169 -56.9169  -4.8218  -0.6104  -0.6104  -0.2586
    -0.2586  -0.2262   1.6836   5.4274   5.4274   6.9134  11.2959  11.2959
    12.4520  13.8143  15.5083  15.5083  17.7361  18.8353  18.8353  20.1885
    21.6194

          k = 0.2791 0.2791 0.2791 ( 11048 PWs)   bands (ev):

  -108.5857 -56.9170 -56.9169 -56.9169  -4.8200  -0.6102  -0.6102  -0.2584
    -0.2584  -0.2211   1.6704   5.4248   5.4248   6.9122  11.2963  11.2963
    12.4685  13.8141  15.5229  15.5229  17.7187  18.8117  18.8117  20.2149
    21.6465

          k = 0.2803 0.2803 0.2803 ( 11048 PWs)   bands (ev):

  -108.5857 -56.9170 -56.9169 -56.9169  -4.8183  -0.6099  -0.6099  -0.2582
    -0.2582  -0.2161   1.6575   5.4224   5.4224   6.9110  11.2967  11.2967
    12.4849  13.8140  15.5375  15.5375  17.7009  18.7883  18.7883  20.2419
    21.6736

          k = 0.2816 0.2816 0.2816 ( 11048 PWs)   bands (ev):

  -108.5857 -56.9170 -56.9169 -56.9169  -4.8166  -0.6096  -0.6096  -0.2581
    -0.2581  -0.2111   1.6446   5.4200   5.4200   6.9099  11.2971  11.2971
    12.5010  13.8142  15.5522  15.5522  17.6828  18.7649  18.7649  20.2694
    21.7009

          k = 0.2828 0.2828 0.2828 ( 11048 PWs)   bands (ev):

  -108.5857 -56.9170 -56.9169 -56.9169  -4.8149  -0.6093  -0.6093  -0.2579
    -0.2579  -0.2060   1.6319   5.4176   5.4176   6.9087  11.2975  11.2975
    12.5169  13.8144  15.5669  15.5669  17.6645  18.7416  18.7416  20.2974
    21.7281

          k = 0.2841 0.2841 0.2841 ( 11048 PWs)   bands (ev):

  -108.5857 -56.9170 -56.9169 -56.9169  -4.8132  -0.6091  -0.6091  -0.2577
    -0.2577  -0.2010   1.6193   5.4152   5.4152   6.9076  11.2979  11.2979
    12.5327  13.8148  15.5816  15.5816  17.6459  18.7184  18.7184  20.3258
    21.7555

          k = 0.2854 0.2854 0.2854 ( 11048 PWs)   bands (ev):

  -108.5857 -56.9170 -56.9169 -56.9169  -4.8116  -0.6088  -0.6088  -0.2576
    -0.2576  -0.1960   1.6068   5.4129   5.4129   6.9065  11.2982  11.2982
    12.5482  13.8154  15.5964  15.5964  17.6271  18.6952  18.6952  20.3546
    21.7828

          k = 0.2866 0.2866 0.2866 ( 11045 PWs)   bands (ev):

  -108.5857 -56.9170 -56.9169 -56.9169  -4.8100  -0.6086  -0.6086  -0.2574
    -0.2574  -0.1910   1.5945   5.4106   5.4106   6.9054  11.2985  11.2985
    12.5635  13.8161  15.6112  15.6112  17.6081  18.6722  18.6722  20.3838
    21.8102

          k = 0.2879 0.2879 0.2879 ( 11045 PWs)   bands (ev):

  -108.5857 -56.9170 -56.9169 -56.9169  -4.8084  -0.6083  -0.6083  -0.2572
    -0.2572  -0.1860   1.5823   5.4084   5.4084   6.9043  11.2988  11.2988
    12.5786  13.8170  15.6259  15.6259  17.5890  18.6493  18.6493  20.4133
    21.8376

          k = 0.2892 0.2892 0.2892 ( 11042 PWs)   bands (ev):

  -108.5857 -56.9170 -56.9169 -56.9169  -4.8069  -0.6081  -0.6081  -0.2571
    -0.2571  -0.1810   1.5703   5.4062   5.4062   6.9032  11.2991  11.2991
    12.5934  13.8180  15.6407  15.6407  17.5698  18.6265  18.6265  20.4432
    21.8650

          k = 0.2904 0.2904 0.2904 ( 11042 PWs)   bands (ev):

  -108.5857 -56.9170 -56.9169 -56.9169  -4.8053  -0.6079  -0.6079  -0.2569
    -0.2569  -0.1761   1.5584   5.4041   5.4041   6.9022  11.2994  11.2994
    12.6081  13.8192  15.6555  15.6555  17.5505  18.6039  18.6039  20.4733
    21.8925

          k = 0.2917 0.2917 0.2917 ( 11036 PWs)   bands (ev):

  -108.5857 -56.9170 -56.9169 -56.9169  -4.8038  -0.6076  -0.6076  -0.2568
    -0.2568  -0.1711   1.5466   5.4019   5.4019   6.9011  11.2996  11.2996
    12.6224  13.8205  15.6703  15.6703  17.5312  18.5813  18.5813  20.5036
    21.9199

          k = 0.2929 0.2929 0.2929 ( 11036 PWs)   bands (ev):

  -108.5857 -56.9170 -56.9169 -56.9169  -4.8023  -0.6074  -0.6074  -0.2566
    -0.2566  -0.1662   1.5350   5.3999   5.3999   6.9001  11.2999  11.2999
    12.6365  13.8220  15.6851  15.6851  17.5118  18.5590  18.5590  20.5342
    21.9473

          k = 0.2942 0.2942 0.2942 ( 11036 PWs)   bands (ev):

  -108.5857 -56.9170 -56.9169 -56.9169  -4.8009  -0.6072  -0.6072  -0.2565
    -0.2565  -0.1613   1.5236   5.3978   5.3978   6.8991  11.3001  11.3001
    12.6504  13.8237  15.6999  15.6999  17.4924  18.5368  18.5368  20.5649
    21.9747

          k = 0.2955 0.2955 0.2955 ( 11018 PWs)   bands (ev):

  -108.5857 -56.9170 -56.9169 -56.9169  -4.7995  -0.6070  -0.6070  -0.2563
    -0.2563  -0.1565   1.5123   5.3958   5.3958   6.8981  11.3003  11.3003
    12.6640  13.8255  15.7146  15.7146  17.4731  18.5147  18.5147  20.5959
    22.0020

          k = 0.2967 0.2967 0.2967 ( 11018 PWs)   bands (ev):

  -108.5857 -56.9170 -56.9169 -56.9169  -4.7981  -0.6068  -0.6068  -0.2562
    -0.2562  -0.1516   1.5012   5.3939   5.3939   6.8971  11.3005  11.3005
    12.6773  13.8274  15.7293  15.7293  17.4538  18.4928  18.4928  20.6269
    22.0294

          k = 0.2980 0.2980 0.2980 ( 11012 PWs)   bands (ev):

  -108.5857 -56.9170 -56.9169 -56.9169  -4.7967  -0.6066  -0.6066  -0.2560
    -0.2560  -0.1468   1.4902   5.3920   5.3920   6.8962  11.3007  11.3007
    12.6904  13.8295  15.7440  15.7440  17.4345  18.4711  18.4711  20.6581
    22.0566

          k = 0.2993 0.2993 0.2993 ( 11012 PWs)   bands (ev):

  -108.5857 -56.9170 -56.9169 -56.9169  -4.7954  -0.6064  -0.6064  -0.2559
    -0.2559  -0.1420   1.4794   5.3901   5.3901   6.8952  11.3008  11.3008
    12.7031  13.8317  15.7586  15.7586  17.4154  18.4497  18.4497  20.6893
    22.0838

          k = 0.3005 0.3005 0.3005 ( 11015 PWs)   bands (ev):

  -108.5857 -56.9170 -56.9169 -56.9169  -4.7941  -0.6062  -0.6062  -0.2558
    -0.2558  -0.1373   1.4688   5.3883   5.3883   6.8943  11.3010  11.3010
    12.7156  13.8341  15.7732  15.7732  17.3964  18.4284  18.4284  20.7206
    22.1110

          k = 0.3018 0.3018 0.3018 ( 11015 PWs)   bands (ev):

  -108.5857 -56.9170 -56.9169 -56.9169  -4.7928  -0.6060  -0.6060  -0.2556
    -0.2556  -0.1326   1.4583   5.3865   5.3865   6.8934  11.3011  11.3011
    12.7278  13.8366  15.7877  15.7877  17.3775  18.4073  18.4073  20.7519
    22.1380

          k = 0.3030 0.3030 0.3030 ( 11015 PWs)   bands (ev):

  -108.5857 -56.9170 -56.9169 -56.9169  -4.7915  -0.6058  -0.6058  -0.2555
    -0.2555  -0.1279   1.4481   5.3847   5.3847   6.8925  11.3013  11.3013
    12.7397  13.8392  15.8021  15.8021  17.3588  18.3864  18.3864  20.7833
    22.1650

          k = 0.3043 0.3043 0.3043 ( 11015 PWs)   bands (ev):

  -108.5857 -56.9170 -56.9169 -56.9169  -4.7903  -0.6056  -0.6056  -0.2554
    -0.2554  -0.1233   1.4380   5.3830   5.3830   6.8917  11.3014  11.3014
    12.7513  13.8420  15.8164  15.8164  17.3402  18.3658  18.3658  20.8146
    22.1919

          k = 0.3056 0.3056 0.3056 ( 11015 PWs)   bands (ev):

  -108.5857 -56.9170 -56.9169 -56.9169  -4.7891  -0.6054  -0.6054  -0.2552
    -0.2552  -0.1187   1.4281   5.3813   5.3813   6.8908  11.3015  11.3015
    12.7626  13.8449  15.8307  15.8307  17.3218  18.3454  18.3454  20.8459
    22.2186

          k = 0.3068 0.3068 0.3068 ( 11015 PWs)   bands (ev):

  -108.5857 -56.9170 -56.9169 -56.9169  -4.7879  -0.6052  -0.6052  -0.2551
    -0.2551  -0.1142   1.4183   5.3797   5.3797   6.8900  11.3016  11.3016
    12.7736  13.8479  15.8448  15.8448  17.3037  18.3253  18.3253  20.8771
    22.2452

          k = 0.3081 0.3081 0.3081 ( 11015 PWs)   bands (ev):

  -108.5857 -56.9170 -56.9169 -56.9169  -4.7868  -0.6051  -0.6051  -0.2550
    -0.2550  -0.1098   1.4088   5.3781   5.3781   6.8892  11.3017  11.3017
    12.7842  13.8510  15.8589  15.8589  17.2858  18.3054  18.3054  20.9082
    22.2717

          k = 0.3094 0.3094 0.3094 ( 11015 PWs)   bands (ev):

  -108.5857 -56.9170 -56.9169 -56.9169  -4.7857  -0.6049  -0.6049  -0.2549
    -0.2549  -0.1054   1.3995   5.3766   5.3766   6.8884  11.3018  11.3018
    12.7946  13.8542  15.8728  15.8728  17.2681  18.2858  18.2858  20.9392
    22.2980

          k = 0.3106 0.3106 0.3106 ( 11027 PWs)   bands (ev):

  -108.5857 -56.9170 -56.9169 -56.9169  -4.7846  -0.6048  -0.6048  -0.2548
    -0.2548  -0.1011   1.3903   5.3751   5.3751   6.8876  11.3019  11.3019
    12.8047  13.8575  15.8865  15.8865  17.2507  18.2666  18.2666  20.9700
    22.3241

          k = 0.3119 0.3119 0.3119 ( 11027 PWs)   bands (ev):

  -108.5857 -56.9170 -56.9169 -56.9169  -4.7835  -0.6046  -0.6046  -0.2546
    -0.2546  -0.0968   1.3814   5.3736   5.3736   6.8869  11.3019  11.3019
    12.8144  13.8609  15.9002  15.9002  17.2336  18.2476  18.2476  21.0006
    22.3501

          k = 0.3131 0.3131 0.3131 ( 11021 PWs)   bands (ev):

  -108.5857 -56.9170 -56.9169 -56.9169  -4.7825  -0.6044  -0.6044  -0.2545
    -0.2545  -0.0926   1.3726   5.3722   5.3722   6.8862  11.3020  11.3020
    12.8238  13.8643  15.9136  15.9136  17.2168  18.2289  18.2289  21.0310
    22.3758

          k = 0.3144 0.3144 0.3144 ( 11015 PWs)   bands (ev):

  -108.5857 -56.9170 -56.9169 -56.9169  -4.7815  -0.6043  -0.6043  -0.2544
    -0.2544  -0.0885   1.3641   5.3708   5.3708   6.8855  11.3021  11.3021
    12.8329  13.8679  15.9269  15.9269  17.2003  18.2105  18.2105  21.0612
    22.4013

          k = 0.3157 0.3157 0.3157 ( 11021 PWs)   bands (ev):

  -108.5857 -56.9170 -56.9169 -56.9169  -4.7805  -0.6042  -0.6042  -0.2543
    -0.2543  -0.0844   1.3558   5.3695   5.3695   6.8848  11.3021  11.3021
    12.8417  13.8715  15.9400  15.9400  17.1841  18.1925  18.1925  21.0911
    22.4266

          k = 0.3169 0.3169 0.3169 ( 11021 PWs)   bands (ev):

  -108.5857 -56.9170 -56.9169 -56.9169  -4.7796  -0.6040  -0.6040  -0.2542
    -0.2542  -0.0805   1.3477   5.3682   5.3682   6.8841  11.3022  11.3022
    12.8502  13.8751  15.9530  15.9530  17.1683  18.1749  18.1749  21.1207
    22.4516

          k = 0.3182 0.3182 0.3182 ( 11021 PWs)   bands (ev):

  -108.5857 -56.9170 -56.9169 -56.9169  -4.7787  -0.6039  -0.6039  -0.2541
    -0.2541  -0.0766   1.3399   5.3670   5.3670   6.8835  11.3022  11.3022
    12.8583  13.8788  15.9657  15.9657  17.1529  18.1576  18.1576  21.1499
    22.4763

          k = 0.3195 0.3195 0.3195 ( 11021 PWs)   bands (ev):

  -108.5857 -56.9170 -56.9169 -56.9169  -4.7778  -0.6038  -0.6038  -0.2540
    -0.2540  -0.0728   1.3322   5.3658   5.3658   6.8829  11.3023  11.3023
    12.8662  13.8825  15.9781  15.9781  17.1378  18.1407  18.1407  21.1788
    22.5007

          k = 0.3207 0.3207 0.3207 ( 11021 PWs)   bands (ev):

  -108.5857 -56.9170 -56.9169 -56.9169  -4.7770  -0.6036  -0.6036  -0.2539
    -0.2539  -0.0691   1.3248   5.3646   5.3646   6.8823  11.3023  11.3023
    12.8737  13.8862  15.9904  15.9904  17.1231  18.1242  18.1242  21.2073
    22.5247

          k = 0.3220 0.3220 0.3220 ( 11021 PWs)   bands (ev):

  -108.5857 -56.9170 -56.9169 -56.9169  -4.7762  -0.6035  -0.6035  -0.2538
    -0.2538  -0.0655   1.3177   5.3635   5.3635   6.8817  11.3023  11.3023
    12.8809  13.8899  16.0023  16.0023  17.1089  18.1082  18.1082  21.2353
    22.5484

          k = 0.3232 0.3232 0.3232 ( 11015 PWs)   bands (ev):

  -108.5857 -56.9170 -56.9169 -56.9169  -4.7754  -0.6034  -0.6034  -0.2538
    -0.2538  -0.0620   1.3107   5.3624   5.3624   6.8811  11.3023  11.3023
    12.8878  13.8936  16.0140  16.0140  17.0951  18.0925  18.0925  21.2628
    22.5716

          k = 0.3245 0.3245 0.3245 ( 11006 PWs)   bands (ev):

  -108.5857 -56.9170 -56.9169 -56.9169  -4.7747  -0.6033  -0.6033  -0.2537
    -0.2537  -0.0587   1.3040   5.3614   5.3614   6.8806  11.3024  11.3024
    12.8944  13.8973  16.0254  16.0254  17.0817  18.0773  18.0773  21.2897
    22.5945

          k = 0.3258 0.3258 0.3258 ( 11006 PWs)   bands (ev):

  -108.5857 -56.9170 -56.9169 -56.9169  -4.7739  -0.6032  -0.6032  -0.2536
    -0.2536  -0.0554   1.2976   5.3604   5.3604   6.8801  11.3024  11.3024
    12.9007  13.9009  16.0365  16.0365  17.0687  18.0626  18.0626  21.3161
    22.6168

          k = 0.3270 0.3270 0.3270 ( 10997 PWs)   bands (ev):

  -108.5857 -56.9170 -56.9169 -56.9169  -4.7732  -0.6031  -0.6031  -0.2535
    -0.2535  -0.0522   1.2914   5.3595   5.3595   6.8796  11.3024  11.3024
    12.9066  13.9045  16.0473  16.0473  17.0563  18.0484  18.0484  21.3419
    22.6387

          k = 0.3283 0.3283 0.3283 ( 10997 PWs)   bands (ev):

  -108.5857 -56.9170 -56.9169 -56.9169  -4.7726  -0.6030  -0.6030  -0.2534
    -0.2534  -0.0492   1.2855   5.3586   5.3586   6.8791  11.3024  11.3024
    12.9123  13.9081  16.0577  16.0577  17.0443  18.0346  18.0346  21.3670
    22.6600

          k = 0.3296 0.3296 0.3296 ( 10997 PWs)   bands (ev):

  -108.5857 -56.9170 -56.9169 -56.9169  -4.7720  -0.6029  -0.6029  -0.2534
    -0.2534  -0.0462   1.2798   5.3577   5.3577   6.8787  11.3024  11.3024
    12.9177  13.9115  16.0678  16.0678  17.0328  18.0214  18.0214  21.3913
    22.6808

          k = 0.3308 0.3308 0.3308 ( 10997 PWs)   bands (ev):

  -108.5857 -56.9170 -56.9169 -56.9169  -4.7714  -0.6028  -0.6028  -0.2533
    -0.2533  -0.0434   1.2744   5.3569   5.3569   6.8782  11.3024  11.3024
    12.9227  13.9149  16.0775  16.0775  17.0218  18.0087  18.0087  21.4149
    22.7009

          k = 0.3321 0.3321 0.3321 ( 11003 PWs)   bands (ev):

  -108.5857 -56.9170 -56.9169 -56.9169  -4.7708  -0.6028  -0.6028  -0.2532
    -0.2532  -0.0407   1.2693   5.3561   5.3561   6.8778  11.3024  11.3024
    12.9275  13.9182  16.0868  16.0868  17.0113  17.9966  17.9966  21.4377
    22.7204

          k = 0.3334 0.3334 0.3334 ( 11003 PWs)   bands (ev):

  -108.5857 -56.9170 -56.9169 -56.9169  -4.7703  -0.6027  -0.6027  -0.2532
    -0.2532  -0.0382   1.2644   5.3554   5.3554   6.8775  11.3025  11.3025
    12.9320  13.9214  16.0957  16.0957  17.0014  17.9850  17.9850  21.4595
    22.7391

          k = 0.3346 0.3346 0.3346 ( 11003 PWs)   bands (ev):

  -108.5857 -56.9170 -56.9169 -56.9169  -4.7698  -0.6026  -0.6026  -0.2531
    -0.2531  -0.0358   1.2598   5.3547   5.3547   6.8771  11.3025  11.3025
    12.9362  13.9244  16.1042  16.1042  16.9920  17.9741  17.9741  21.4805
    22.7571

          k = 0.3359 0.3359 0.3359 ( 11003 PWs)   bands (ev):

  -108.5857 -56.9170 -56.9169 -56.9169  -4.7693  -0.6025  -0.6025  -0.2531
    -0.2531  -0.0335   1.2555   5.3541   5.3541   6.8768  11.3025  11.3025
    12.9401  13.9273  16.1122  16.1122  16.9831  17.9637  17.9637  21.5004
    22.7743

          k = 0.3371 0.3371 0.3371 ( 11003 PWs)   bands (ev):

  -108.5857 -56.9170 -56.9169 -56.9169  -4.7689  -0.6025  -0.6025  -0.2530
    -0.2530  -0.0314   1.2514   5.3535   5.3535   6.8765  11.3025  11.3025
    12.9437  13.9301  16.1197  16.1197  16.9748  17.9540  17.9540  21.5193
    22.7906

          k = 0.3384 0.3384 0.3384 ( 11003 PWs)   bands (ev):

  -108.5857 -56.9170 -56.9169 -56.9169  -4.7685  -0.6024  -0.6024  -0.2530
    -0.2530  -0.0294   1.2477   5.3529   5.3529   6.8762  11.3025  11.3025
    12.9470  13.9327  16.1268  16.1268  16.9671  17.9449  17.9449  21.5371
    22.8060

          k = 0.3397 0.3397 0.3397 ( 11003 PWs)   bands (ev):

  -108.5857 -56.9170 -56.9169 -56.9169  -4.7681  -0.6024  -0.6024  -0.2529
    -0.2529  -0.0276   1.2442   5.3524   5.3524   6.8759  11.3025  11.3025
    12.9501  13.9351  16.1334  16.1334  16.9600  17.9364  17.9364  21.5538
    22.8204

          k = 0.3409 0.3409 0.3409 ( 11003 PWs)   bands (ev):

  -108.5857 -56.9170 -56.9169 -56.9169  -4.7678  -0.6023  -0.6023  -0.2529
    -0.2529  -0.0259   1.2411   5.3520   5.3520   6.8757  11.3025  11.3025
    12.9529  13.9374  16.1395  16.1395  16.9535  17.9287  17.9287  21.5692
    22.8338

          k = 0.3422 0.3422 0.3422 ( 11009 PWs)   bands (ev):

  -108.5857 -56.9170 -56.9169 -56.9169  -4.7675  -0.6023  -0.6023  -0.2529
    -0.2529  -0.0243   1.2382   5.3515   5.3515   6.8755  11.3025  11.3025
    12.9554  13.9395  16.1450  16.1450  16.9475  17.9216  17.9216  21.5833
    22.8461

          k = 0.3435 0.3435 0.3435 ( 10997 PWs)   bands (ev):

  -108.5857 -56.9170 -56.9169 -56.9169  -4.7672  -0.6022  -0.6022  -0.2528
    -0.2528  -0.0230   1.2356   5.3512   5.3512   6.8753  11.3025  11.3025
    12.9576  13.9414  16.1500  16.1500  16.9422  17.9152  17.9152  21.5961
    22.8573

          k = 0.3447 0.3447 0.3447 ( 10997 PWs)   bands (ev):

  -108.5857 -56.9170 -56.9169 -56.9169  -4.7669  -0.6022  -0.6022  -0.2528
    -0.2528  -0.0217   1.2333   5.3508   5.3508   6.8751  11.3025  11.3025
    12.9596  13.9430  16.1544  16.1544  16.9375  17.9096  17.9096  21.6075
    22.8673

          k = 0.3460 0.3460 0.3460 ( 10994 PWs)   bands (ev):

  -108.5857 -56.9170 -56.9169 -56.9169  -4.7667  -0.6022  -0.6022  -0.2528
    -0.2528  -0.0207   1.2313   5.3505   5.3505   6.8749  11.3025  11.3025
    12.9613  13.9445  16.1583  16.1583  16.9333  17.9047  17.9047  21.6176
    22.8761

          k = 0.3472 0.3472 0.3472 ( 10994 PWs)   bands (ev):

  -108.5857 -56.9170 -56.9169 -56.9169  -4.7666  -0.6022  -0.6022  -0.2528
    -0.2528  -0.0198   1.2297   5.3503   5.3503   6.8748  11.3025  11.3025
    12.9627  13.9457  16.1616  16.1616  16.9299  17.9005  17.9005  21.6261
    22.8836

          k = 0.3485 0.3485 0.3485 ( 10994 PWs)   bands (ev):

  -108.5857 -56.9170 -56.9169 -56.9169  -4.7664  -0.6021  -0.6021  -0.2527
    -0.2527  -0.0190   1.2283   5.3501   5.3501   6.8747  11.3025  11.3025
    12.9639  13.9468  16.1643  16.1643  16.9270  17.8971  17.8971  21.6332
    22.8898

          k = 0.3498 0.3498 0.3498 ( 10994 PWs)   bands (ev):

  -108.5857 -56.9170 -56.9169 -56.9169  -4.7663  -0.6021  -0.6021  -0.2527
    -0.2527  -0.0184   1.2272   5.3500   5.3500   6.8746  11.3025  11.3025
    12.9648  13.9476  16.1664  16.1664  16.9248  17.8944  17.8944  21.6387
    22.8946

          k = 0.3510 0.3510 0.3510 ( 10994 PWs)   bands (ev):

  -108.5857 -56.9170 -56.9169 -56.9169  -4.7662  -0.6021  -0.6021  -0.2527
    -0.2527  -0.0180   1.2264   5.3498   5.3498   6.8746  11.3025  11.3025
    12.9655  13.9482  16.1679  16.1679  16.9232  17.8925  17.8925  21.6426
    22.8981

          k = 0.3523 0.3523 0.3523 ( 10994 PWs)   bands (ev):

  -108.5857 -56.9170 -56.9169 -56.9169  -4.7662  -0.6021  -0.6021  -0.2527
    -0.2527  -0.0178   1.2260   5.3498   5.3498   6.8745  11.3025  11.3025
    12.9659  13.9485  16.1688  16.1688  16.9222  17.8913  17.8913  21.6450
    22.9002

          k = 0.3536 0.3536 0.3536 ( 10994 PWs)   bands (ev):

  -108.5857 -56.9170 -56.9169 -56.9169  -4.7661  -0.6021  -0.6021  -0.2527
    -0.2527  -0.0177   1.2258   5.3498   5.3498   6.8745  11.3025  11.3025
    12.9660  13.9486  16.1691  16.1691  16.9219  17.8909  17.8909  21.6458
    22.9009

          k = 0.3536 0.3553 0.3518 ( 10994 PWs)   bands (ev):

  -108.5857 -56.9170 -56.9169 -56.9169  -4.7661  -0.6021  -0.6021  -0.2527
    -0.2527  -0.0177   1.2259   5.3494   5.3497   6.8749  11.3023  11.3026
    12.9660  13.9488  16.1690  16.1690  16.9217  17.8911  17.8916  21.6457
    22.9008

          k = 0.3536 0.3571 0.3500 ( 10994 PWs)   bands (ev):

  -108.5857 -56.9170 -56.9169 -56.9169  -4.7661  -0.6021  -0.6021  -0.2527
    -0.2527  -0.0177   1.2259   5.3484   5.3496   6.8759  11.3018  11.3029
    12.9661  13.9493  16.1685  16.1687  16.9209  17.8915  17.8935  21.6454
    22.9004

          k = 0.3536 0.3589 0.3483 ( 10994 PWs)   bands (ev):

  -108.5857 -56.9170 -56.9169 -56.9169  -4.7661  -0.6021  -0.6020  -0.2528
    -0.2527  -0.0176   1.2260   5.3468   5.3493   6.8776  11.3009  11.3034
    12.9662  13.9502  16.1677  16.1682  16.9196  17.8923  17.8967  21.6450
    22.8997

          k = 0.3536 0.3606 0.3465 ( 10994 PWs)   bands (ev):

  -108.5857 -56.9170 -56.9169 -56.9169  -4.7660  -0.6020  -0.6020  -0.2528
    -0.2527  -0.0176   1.2261   5.3445   5.3490   6.8800  11.2998  11.3041
    12.9663  13.9514  16.1665  16.1675  16.9178  17.8934  17.9011  21.6443
    22.8988

          k = 0.3536 0.3624 0.3447 ( 10998 PWs)   bands (ev):

  -108.5857 -56.9170 -56.9169 -56.9169  -4.7659  -0.6020  -0.6019  -0.2529
    -0.2527  -0.0175   1.2262   5.3415   5.3485   6.8831  11.2983  11.3050
    12.9665  13.9530  16.1649  16.1667  16.9156  17.8948  17.9068  21.6435
    22.8976

          k = 0.3536 0.3642 0.3429 ( 11000 PWs)   bands (ev):

  -108.5857 -56.9170 -56.9169 -56.9169  -4.7658  -0.6020  -0.6018  -0.2530
    -0.2527  -0.0174   1.2264   5.3379   5.3480   6.8868  11.2965  11.3062
    12.9667  13.9549  16.1630  16.1657  16.9130  17.8965  17.9137  21.6424
    22.8961

          k = 0.3536 0.3659 0.3412 ( 11004 PWs)   bands (ev):

  -108.5857 -56.9170 -56.9169 -56.9169  -4.7657  -0.6019  -0.6017  -0.2530
    -0.2527  -0.0173   1.2265   5.3337   5.3473   6.8912  11.2943  11.3075
    12.9669  13.9572  16.1607  16.1645  16.9100  17.8985  17.9217  21.6412
    22.8944

          k = 0.3536 0.3677 0.3394 ( 11006 PWs)   bands (ev):

  -108.5857 -56.9170 -56.9169 -56.9169  -4.7655  -0.6019  -0.6016  -0.2532
    -0.2527  -0.0172   1.2268   5.3289   5.3466   6.8963  11.2919  11.3091
    12.9671  13.9599  16.1579  16.1633  16.9067  17.9008  17.9308  21.6398
    22.8923

          k = 0.3536 0.3695 0.3376 ( 11010 PWs)   bands (ev):

  -108.5857 -56.9170 -56.9169 -56.9169  -4.7654  -0.6018  -0.6015  -0.2533
    -0.2528  -0.0171   1.2270   5.3234   5.3458   6.9019  11.2891  11.3108
    12.9673  13.9629  16.1547  16.1619  16.9032  17.9034  17.9410  21.6382
    22.8900

          k = 0.3536 0.3712 0.3359 ( 11010 PWs)   bands (ev):

  -108.5857 -56.9170 -56.9169 -56.9169  -4.7652  -0.6017  -0.6013  -0.2534
    -0.2528  -0.0170   1.2273   5.3174   5.3448   6.9082  11.2860  11.3128
    12.9675  13.9663  16.1510  16.1604  16.8994  17.9063  17.9523  21.6364
    22.8874

          k = 0.3536 0.3730 0.3341 ( 11012 PWs)   bands (ev):

  -108.5857 -56.9170 -56.9169 -56.9169  -4.7650  -0.6017  -0.6012  -0.2535
    -0.2528  -0.0168   1.2276   5.3108   5.3438   6.9151  11.2826  11.3149
    12.9677  13.9700  16.1468  16.1589  16.8955  17.9096  17.9644  21.6344
    22.8844

          k = 0.3536 0.3748 0.3323 ( 11010 PWs)   bands (ev):

  -108.5857 -56.9170 -56.9169 -56.9169  -4.7647  -0.6016  -0.6010  -0.2537
    -0.2528  -0.0166   1.2279   5.3037   5.3426   6.9225  11.2789  11.3173
    12.9679  13.9741  16.1421  16.1572  16.8914  17.9131  17.9775  21.6322
    22.8812

          k = 0.3536 0.3765 0.3306 ( 11010 PWs)   bands (ev):

  -108.5857 -56.9170 -56.9169 -56.9169  -4.7645  -0.6015  -0.6008  -0.2539
    -0.2528  -0.0165   1.2283   5.2960   5.3414   6.9306  11.2750  11.3199
    12.9681  13.9786  16.1369  16.1556  16.8873  17.9170  17.9915  21.6298
    22.8776

          k = 0.3536 0.3783 0.3288 ( 11010 PWs)   bands (ev):

  -108.5857 -56.9170 -56.9169 -56.9169  -4.7642  -0.6014  -0.6006  -0.2541
    -0.2528  -0.0163   1.2286   5.2878   5.3401   6.9391  11.2707  11.3226
    12.9682  13.9835  16.1311  16.1539  16.8833  17.9211  18.0063  21.6272
    22.8737

          k = 0.3536 0.3801 0.3270 ( 11012 PWs)   bands (ev):

  -108.5857 -56.9170 -56.9169 -56.9169  -4.7640  -0.6013  -0.6004  -0.2543
    -0.2529  -0.0161   1.2291   5.2791   5.3386   6.9482  11.2662  11.3256
    12.9683  13.9887  16.1247  16.1521  16.8792  17.9256  18.0218  21.6245
    22.8695

          k = 0.3536 0.3818 0.3253 ( 11012 PWs)   bands (ev):

  -108.5857 -56.9170 -56.9169 -56.9169  -4.7637  -0.6012  -0.6002  -0.2545
    -0.2529  -0.0158   1.2295   5.2699   5.3371   6.9578  11.2615  11.3288
    12.9683  13.9943  16.1178  16.1504  16.8753  17.9304  18.0381  21.6215
    22.8649

          k = 0.3536 0.3836 0.3235 ( 11012 PWs)   bands (ev):

  -108.5857 -56.9170 -56.9169 -56.9169  -4.7633  -0.6010  -0.5999  -0.2547
    -0.2529  -0.0156   1.2300   5.2602   5.3355   6.9679  11.2565  11.3321
    12.9683  14.0003  16.1103  16.1486  16.8715  17.9355  18.0550  21.6183
    22.8601

          k = 0.3536 0.3854 0.3217 ( 11012 PWs)   bands (ev):

  -108.5857 -56.9170 -56.9169 -56.9169  -4.7630  -0.6009  -0.5996  -0.2549
    -0.2529  -0.0153   1.2304   5.2501   5.3338   6.9785  11.2512  11.3357
    12.9681  14.0067  16.1023  16.1468  16.8679  17.9409  18.0726  21.6149
    22.8549

          k = 0.3536 0.3871 0.3200 ( 11012 PWs)   bands (ev):

  -108.5857 -56.9170 -56.9169 -56.9169  -4.7627  -0.6008  -0.5994  -0.2552
    -0.2529  -0.0151   1.2310   5.2396   5.3319   6.9895  11.2457  11.3395
    12.9679  14.0135  16.0936  16.1450  16.8645  17.9466  18.0908  21.6112
    22.8493

          k = 0.3536 0.3889 0.3182 ( 11018 PWs)   bands (ev):

  -108.5857 -56.9170 -56.9169 -56.9169  -4.7623  -0.6006  -0.5991  -0.2554
    -0.2530  -0.0148   1.2315   5.2287   5.3300   7.0009  11.2400  11.3434
    12.9676  14.0207  16.0844  16.1433  16.8614  17.9527  18.1094  21.6074
    22.8434

          k = 0.3536 0.3907 0.3164 ( 11022 PWs)   bands (ev):

  -108.5857 -56.9170 -56.9169 -56.9169  -4.7619  -0.6005  -0.5988  -0.2557
    -0.2530  -0.0145   1.2321   5.2174   5.3280   7.0127  11.2340  11.3476
    12.9672  14.0282  16.0746  16.1416  16.8585  17.9590  18.1287  21.6034
    22.8372

          k = 0.3536 0.3924 0.3147 ( 11018 PWs)   bands (ev):

  -108.5857 -56.9170 -56.9169 -56.9169  -4.7615  -0.6003  -0.5984  -0.2560
    -0.2530  -0.0142   1.2327   5.2058   5.3259   7.0250  11.2279  11.3519
    12.9666  14.0362  16.0642  16.1399  16.8559  17.9656  18.1483  21.5991
    22.8307

          k = 0.3536 0.3942 0.3129 ( 11022 PWs)   bands (ev):

  -108.5857 -56.9170 -56.9169 -56.9169  -4.7610  -0.6001  -0.5981  -0.2563
    -0.2531  -0.0139   1.2333   5.1937   5.3237   7.0376  11.2216  11.3564
    12.9659  14.0445  16.0533  16.1383  16.8535  17.9726  18.1684  21.5946
    22.8238

          k = 0.3536 0.3960 0.3111 ( 11018 PWs)   bands (ev):

  -108.5857 -56.9170 -56.9169 -56.9169  -4.7606  -0.6000  -0.5977  -0.2566
    -0.2531  -0.0135   1.2339   5.1814   5.3214   7.0506  11.2151  11.3612
    12.9651  14.0532  16.0419  16.1367  16.8515  17.9799  18.1890  21.5899
    22.8166

          k = 0.3536 0.3977 0.3094 ( 11028 PWs)   bands (ev):

  -108.5857 -56.9170 -56.9169 -56.9169  -4.7601  -0.5998  -0.5974  -0.2569
    -0.2531  -0.0132   1.2346   5.1688   5.3189   7.0638  11.2084  11.3661
    12.9642  14.0623  16.0299  16.1351  16.8498  17.9874  18.2098  21.5850
    22.8090

          k = 0.3536 0.3995 0.3076 ( 11028 PWs)   bands (ev):

  -108.5857 -56.9170 -56.9169 -56.9169  -4.7596  -0.5996  -0.5970  -0.2573
    -0.2532  -0.0128   1.2353   5.1558   5.3164   7.0775  11.2015  11.3712
    12.9631  14.0717  16.0175  16.1336  16.8484  17.9953  18.2311  21.5799
    22.8012

          k = 0.3536 0.4013 0.3058 ( 11028 PWs)   bands (ev):

  -108.5857 -56.9170 -56.9169 -56.9169  -4.7591  -0.5994  -0.5966  -0.2576
    -0.2532  -0.0124   1.2360   5.1426   5.3138   7.0914  11.1945  11.3764
    12.9619  14.0816  16.0046  16.1322  16.8473  18.0035  18.2527  21.5745
    22.7930

          k = 0.3536 0.4031 0.3041 ( 11028 PWs)   bands (ev):

  -108.5857 -56.9170 -56.9169 -56.9169  -4.7586  -0.5992  -0.5962  -0.2580
    -0.2532  -0.0120   1.2367   5.1291   5.3111   7.1056  11.1874  11.3819
    12.9605  14.0917  15.9912  16.1308  16.8466  18.0120  18.2745  21.5689
    22.7845

          k = 0.3536 0.4048 0.3023 ( 11028 PWs)   bands (ev):

  -108.5857 -56.9170 -56.9169 -56.9169  -4.7581  -0.5990  -0.5958  -0.2583
    -0.2533  -0.0116   1.2375   5.1154   5.3083   7.1201  11.1801  11.3875
    12.9590  14.1023  15.9774  16.1295  16.8461  18.0208  18.2966  21.5631
    22.7756

          k = 0.3536 0.4066 0.3005 ( 11024 PWs)   bands (ev):

  -108.5857 -56.9170 -56.9169 -56.9169  -4.7575  -0.5987  -0.5953  -0.2587
    -0.2533  -0.0112   1.2383   5.1014   5.3054   7.1348  11.1727  11.3933
    12.9573  14.1132  15.9633  16.1283  16.8459  18.0299  18.3190  21.5571
    22.7665

          k = 0.3536 0.4084 0.2988 ( 11026 PWs)   bands (ev):

  -108.5857 -56.9170 -56.9169 -56.9169  -4.7570  -0.5985  -0.5949  -0.2591
    -0.2534  -0.0107   1.2390   5.0873   5.3024   7.1498  11.1652  11.3993
    12.9554  14.1244  15.9488  16.1272  16.8460  18.0393  18.3416  21.5508
    22.7571

          k = 0.3536 0.4101 0.2970 ( 11026 PWs)   bands (ev):

  -108.5857 -56.9170 -56.9169 -56.9169  -4.7564  -0.5983  -0.5944  -0.2595
    -0.2534  -0.0103   1.2399   5.0729   5.2993   7.1649  11.1575  11.4054
    12.9534  14.1359  15.9339  16.1261  16.8464  18.0490  18.3645  21.5443
    22.7473

          k = 0.3536 0.4119 0.2952 ( 11018 PWs)   bands (ev):

  -108.5857 -56.9170 -56.9169 -56.9169  -4.7558  -0.5980  -0.5940  -0.2599
    -0.2535  -0.0098   1.2407   5.0584   5.2961   7.1803  11.1498  11.4117
    12.9512  14.1478  15.9188  16.1252  16.8470  18.0590  18.3875  21.5376
    22.7373

          k = 0.3536 0.4137 0.2934 ( 11018 PWs)   bands (ev):

  -108.5857 -56.9170 -56.9169 -56.9169  -4.7551  -0.5978  -0.5935  -0.2603
    -0.2535  -0.0093   1.2416   5.0437   5.2929   7.1959  11.1420  11.4182
    12.9489  14.1599  15.9034  16.1243  16.8478  18.0694  18.4107  21.5306
    22.7270

          k = 0.3536 0.4154 0.2917 ( 11026 PWs)   bands (ev):

  -108.5857 -56.9170 -56.9169 -56.9169  -4.7545  -0.5975  -0.5930  -0.2607
    -0.2536  -0.0089   1.2424   5.0288   5.2895   7.2117  11.1341  11.4248
    12.9464  14.1723  15.8878  16.1235  16.8489  18.0800  18.4340  21.5234
    22.7164

          k = 0.3536 0.4172 0.2899 ( 11020 PWs)   bands (ev):

  -108.5857 -56.9170 -56.9169 -56.9169  -4.7538  -0.5973  -0.5924  -0.2612
    -0.2536  -0.0083   1.2433   5.0137   5.2860   7.2277  11.1262  11.4316
    12.9438  14.1850  15.8719  16.1228  16.8503  18.0909  18.4575  21.5160
    22.7055

          k = 0.3536 0.4190 0.2881 ( 11020 PWs)   bands (ev):

  -108.5857 -56.9170 -56.9169 -56.9169  -4.7532  -0.5970  -0.5919  -0.2616
    -0.2537  -0.0078   1.2442   4.9986   5.2824   7.2438  11.1182  11.4385
    12.9410  14.1979  15.8560  16.1222  16.8518  18.1021  18.4811  21.5084
    22.6944

          k = 0.3536 0.4207 0.2864 ( 11018 PWs)   bands (ev):

  -108.5857 -56.9170 -56.9169 -56.9169  -4.7525  -0.5967  -0.5914  -0.2621
    -0.2537  -0.0073   1.2452   4.9833   5.2788   7.2601  11.1101  11.4456
    12.9381  14.2111  15.8399  16.1217  16.8535  18.1136  18.5048  21.5005
    22.6830

          k = 0.3536 0.4225 0.2846 ( 11018 PWs)   bands (ev):

  -108.5857 -56.9170 -56.9169 -56.9169  -4.7517  -0.5964  -0.5908  -0.2625
    -0.2538  -0.0067   1.2461   4.9679   5.2750   7.2765  11.1020  11.4528
    12.9350  14.2244  15.8237  16.1213  16.8554  18.1253  18.5286  21.4924
    22.6714

          k = 0.3536 0.4243 0.2828 ( 11030 PWs)   bands (ev):

  -108.5857 -56.9170 -56.9169 -56.9169  -4.7510  -0.5961  -0.5903  -0.2630
    -0.2538  -0.0062   1.2471   4.9524   5.2711   7.2930  11.0939  11.4601
    12.9318  14.2379  15.8074  16.1211  16.8574  18.1374  18.5525  21.4841
    22.6595

          k = 0.3536 0.4260 0.2811 ( 11028 PWs)   bands (ev):

  -108.5857 -56.9170 -56.9169 -56.9169  -4.7503  -0.5958  -0.5897  -0.2635
    -0.2539  -0.0056   1.2480   4.9368   5.2672   7.3097  11.0857  11.4676
    12.9285  14.2516  15.7912  16.1209  16.8597  18.1498  18.5765  21.4756
    22.6474

          k = 0.3536 0.4278 0.2793 ( 11024 PWs)   bands (ev):

  -108.5857 -56.9170 -56.9169 -56.9169  -4.7495  -0.5955  -0.5891  -0.2640
    -0.2540  -0.0050   1.2490   4.9211   5.2631   7.3264  11.0776  11.4752
    12.9251  14.2654  15.7750  16.1208  16.8620  18.1624  18.6005  21.4668
    22.6351

          k = 0.3536 0.4296 0.2775 ( 11024 PWs)   bands (ev):

  -108.5857 -56.9170 -56.9169 -56.9169  -4.7488  -0.5951  -0.5885  -0.2645
    -0.2540  -0.0044   1.2500   4.9054   5.2590   7.3433  11.0694  11.4829
    12.9215  14.2792  15.7588  16.1208  16.8645  18.1753  18.6246  21.4579
    22.6226

          k = 0.3536 0.4313 0.2758 ( 11020 PWs)   bands (ev):

  -108.5857 -56.9170 -56.9169 -56.9169  -4.7480  -0.5948  -0.5879  -0.2650
    -0.2541  -0.0038   1.2510   4.8896   5.2547   7.3602  11.0612  11.4908
    12.9179  14.2931  15.7428  16.1210  16.8671  18.1885  18.6487  21.4487
    22.6098

          k = 0.3536 0.4331 0.2740 ( 11022 PWs)   bands (ev):

  -108.5857 -56.9170 -56.9169 -56.9169  -4.7472  -0.5945  -0.5873  -0.2655
    -0.2542  -0.0032   1.2520   4.8737   5.2504   7.3773  11.0530  11.4987
    12.9142  14.3071  15.7269  16.1212  16.8698  18.2020  18.6728  21.4393
    22.5969

          k = 0.3536 0.4349 0.2722 ( 11022 PWs)   bands (ev):

  -108.5857 -56.9170 -56.9169 -56.9169  -4.7463  -0.5941  -0.5866  -0.2660
    -0.2542  -0.0025   1.2531   4.8578   5.2460   7.3944  11.0449  11.5067
    12.9104  14.3210  15.7111  16.1216  16.8726  18.2157  18.6970  21.4297
    22.5838

          k = 0.3536 0.4366 0.2705 ( 11022 PWs)   bands (ev):

  -108.5857 -56.9170 -56.9169 -56.9169  -4.7455  -0.5938  -0.5860  -0.2665
    -0.2543  -0.0018   1.2541   4.8418   5.2415   7.4115  11.0367  11.5149
    12.9066  14.3349  15.6957  16.1221  16.8755  18.2297  18.7211  21.4199
    22.5705

          k = 0.3536 0.4384 0.2687 ( 11024 PWs)   bands (ev):

  -108.5857 -56.9170 -56.9169 -56.9169  -4.7447  -0.5934  -0.5853  -0.2670
    -0.2544  -0.0012   1.2551   4.8258   5.2369   7.4288  11.0286  11.5231
    12.9027  14.3486  15.6805  16.1227  16.8784  18.2439  18.7453  21.4099
    22.5570

          k = 0.3536 0.4402 0.2669 ( 11026 PWs)   bands (ev):

  -108.5857 -56.9170 -56.9169 -56.9169  -4.7438  -0.5930  -0.5846  -0.2675
    -0.2545  -0.0005   1.2562   4.8098   5.2321   7.4460  11.0205  11.5314
    12.8988  14.3623  15.6657  16.1234  16.8815  18.2585  18.7694  21.3997
    22.5434

          k = 0.3536 0.4419 0.2652 ( 11026 PWs)   bands (ev):

  -108.5857 -56.9170 -56.9169 -56.9169  -4.7429  -0.5927  -0.5840  -0.2681
    -0.2546   0.0002   1.2573   4.7938   5.2273   7.4634  11.0124  11.5397
    12.8948  14.3757  15.6512  16.1243  16.8846  18.2732  18.7935  21.3893
    22.5296

          k = 0.3536 0.4437 0.2634 ( 11026 PWs)   bands (ev):

  -108.5857 -56.9170 -56.9169 -56.9169  -4.7420  -0.5923  -0.5833  -0.2686
    -0.2546   0.0009   1.2583   4.7777   5.2225   7.4807  11.0044  11.5481
    12.8908  14.3889  15.6372  16.1252  16.8877  18.2883  18.8175  21.3787
    22.5157

          k = 0.3536 0.4455 0.2616 ( 11022 PWs)   bands (ev):

  -108.5857 -56.9170 -56.9169 -56.9169  -4.7411  -0.5919  -0.5826  -0.2692
    -0.2547   0.0017   1.2594   4.7617   5.2175   7.4981  10.9965  11.5566
    12.8869  14.4017  15.6237  16.1263  16.8909  18.3036  18.8415  21.3680
    22.5016

          k = 0.3536 0.4472 0.2599 ( 11024 PWs)   bands (ev):

  -108.5857 -56.9170 -56.9169 -56.9169  -4.7402  -0.5915  -0.5819  -0.2697
    -0.2548   0.0024   1.2605   4.7457   5.2124   7.5155  10.9886  11.5651
    12.8830  14.4142  15.6108  16.1275  16.8942  18.3191  18.8654  21.3570
    22.4874

          k = 0.3536 0.4490 0.2581 ( 11024 PWs)   bands (ev):

  -108.5857 -56.9170 -56.9169 -56.9169  -4.7393  -0.5911  -0.5811  -0.2703
    -0.2549   0.0032   1.2616   4.7296   5.2072   7.5330  10.9807  11.5736
    12.8791  14.4263  15.5985  16.1288  16.8975  18.3349  18.8893  21.3459
    22.4731

          k = 0.3536 0.4508 0.2563 ( 11022 PWs)   bands (ev):

  -108.5857 -56.9170 -56.9169 -56.9169  -4.7383  -0.5906  -0.5804  -0.2708
    -0.2550   0.0039   1.2627   4.7136   5.2020   7.5504  10.9730  11.5821
    12.8752  14.4379  15.5868  16.1303  16.9008  18.3509  18.9131  21.3346
    22.4587

          k = 0.3536 0.4525 0.2546 ( 11024 PWs)   bands (ev):

  -108.5857 -56.9170 -56.9169 -56.9169  -4.7373  -0.5902  -0.5797  -0.2714
    -0.2551   0.0047   1.2637   4.6976   5.1966   7.5679  10.9653  11.5906
    12.8715  14.4489  15.5760  16.1318  16.9041  18.3671  18.9367  21.3231
    22.4441

          k = 0.3536 0.4543 0.2528 ( 11024 PWs)   bands (ev):

  -108.5857 -56.9170 -56.9169 -56.9169  -4.7364  -0.5898  -0.5789  -0.2720
    -0.2552   0.0055   1.2648   4.6816   5.1912   7.5853  10.9576  11.5991
    12.8678  14.4593  15.5660  16.1335  16.9074  18.3836  18.9603  21.3115
    22.4295

          k = 0.3536 0.4561 0.2510 ( 11024 PWs)   bands (ev):

  -108.5857 -56.9170 -56.9169 -56.9169  -4.7354  -0.5893  -0.5782  -0.2725
    -0.2553   0.0064   1.2659   4.6657   5.1857   7.6028  10.9501  11.6076
    12.8642  14.4690  15.5568  16.1354  16.9108  18.4002  18.9838  21.2997
    22.4148

          k = 0.3536 0.4579 0.2493 ( 11018 PWs)   bands (ev):

  -108.5857 -56.9170 -56.9169 -56.9169  -4.7344  -0.5889  -0.5774  -0.2731
    -0.2554   0.0072   1.2670   4.6498   5.1800   7.6203  10.9426  11.6161
    12.8608  14.4779  15.5487  16.1373  16.9142  18.4171  19.0071  21.2878
    22.4000

          k = 0.3536 0.4596 0.2475 ( 11020 PWs)   bands (ev):

  -108.5857 -56.9170 -56.9169 -56.9169  -4.7334  -0.5884  -0.5766  -0.2737
    -0.2555   0.0080   1.2681   4.6339   5.1743   7.6377  10.9352  11.6245
    12.8575  14.4860  15.5415  16.1394  16.9176  18.4343  19.0303  21.2757
    22.3852

          k = 0.3536 0.4614 0.2457 ( 11018 PWs)   bands (ev):

  -108.5857 -56.9170 -56.9169 -56.9169  -4.7324  -0.5879  -0.5758  -0.2743
    -0.2556   0.0089   1.2691   4.6181   5.1685   7.6551  10.9280  11.6328
    12.8544  14.4931  15.5355  16.1416  16.9210  18.4516  19.0534  21.2635
    22.3702

          k = 0.3536 0.4632 0.2440 ( 11020 PWs)   bands (ev):

  -108.5857 -56.9170 -56.9169 -56.9169  -4.7313  -0.5875  -0.5750  -0.2748
    -0.2557   0.0098   1.2702   4.6024   5.1627   7.6725  10.9208  11.6411
    12.8514  14.4993  15.5307  16.1440  16.9244  18.4692  19.0763  21.2511
    22.3553

          k = 0.3536 0.4649 0.2422 ( 11026 PWs)   bands (ev):

  -108.5857 -56.9170 -56.9169 -56.9169  -4.7303  -0.5870  -0.5742  -0.2754
    -0.2559   0.0107   1.2713   4.5867   5.1567   7.6899  10.9137  11.6492
    12.8487  14.5045  15.5270  16.1465  16.9278  18.4869  19.0990  21.2386
    22.3402

          k = 0.3536 0.4667 0.2404 ( 11026 PWs)   bands (ev):

  -108.5857 -56.9170 -56.9169 -56.9169  -4.7292  -0.5865  -0.5734  -0.2760
    -0.2560   0.0116   1.2723   4.5710   5.1506   7.7073  10.9067  11.6573
    12.8462  14.5085  15.5247  16.1492  16.9312  18.5048  19.1216  21.2260
    22.3252

          k = 0.3536 0.4685 0.2386 ( 11022 PWs)   bands (ev):

  -108.5857 -56.9170 -56.9169 -56.9169  -4.7281  -0.5860  -0.5726  -0.2766
    -0.2561   0.0125   1.2734   4.5554   5.1445   7.7246  10.8999  11.6652
    12.8439  14.5114  15.5236  16.1519  16.9346  18.5230  19.1439  21.2133
    22.3101

          k = 0.3536 0.4702 0.2369 ( 11018 PWs)   bands (ev):

  -108.5857 -56.9170 -56.9169 -56.9169  -4.7271  -0.5855  -0.5718  -0.2772
    -0.2562   0.0134   1.2744   4.5399   5.1383   7.7418  10.8931  11.6729
    12.8420  14.5132  15.5239  16.1549  16.9380  18.5413  19.1661  21.2004
    22.2949

          k = 0.3536 0.4720 0.2351 ( 11018 PWs)   bands (ev):

  -108.5857 -56.9170 -56.9169 -56.9169  -4.7260  -0.5850  -0.5710  -0.2778
    -0.2564   0.0144   1.2755   4.5245   5.1320   7.7591  10.8865  11.6805
    12.8403  14.5137  15.5255  16.1579  16.9413  18.5598  19.1880  21.1874
    22.2798

          k = 0.3536 0.4738 0.2333 ( 11024 PWs)   bands (ev):

  -108.5857 -56.9170 -56.9169 -56.9169  -4.7249  -0.5844  -0.5701  -0.2784
    -0.2565   0.0153   1.2765   4.5092   5.1256   7.7763  10.8800  11.6879
    12.8389  14.5131  15.5286  16.1612  16.9447  18.5785  19.2097  21.1743
    22.2646

          k = 0.3536 0.4755 0.2316 ( 11024 PWs)   bands (ev):

  -108.5857 -56.9170 -56.9169 -56.9169  -4.7238  -0.5839  -0.5693  -0.2789
    -0.2566   0.0163   1.2775   4.4939   5.1191   7.7934  10.8736  11.6951
    12.8379  14.5112  15.5330  16.1646  16.9480  18.5974  19.2312  21.1611
    22.2494

          k = 0.3536 0.4773 0.2298 ( 11028 PWs)   bands (ev):

  -108.5857 -56.9170 -56.9169 -56.9169  -4.7226  -0.5834  -0.5684  -0.2795
    -0.2568   0.0173   1.2785   4.4787   5.1125   7.8105  10.8673  11.7021
    12.8373  14.5081  15.5387  16.1681  16.9514  18.6164  19.2524  21.1479
    22.2343

          k = 0.3536 0.4791 0.2280 ( 11022 PWs)   bands (ev):

  -108.5857 -56.9170 -56.9169 -56.9169  -4.7215  -0.5828  -0.5676  -0.2801
    -0.2569   0.0183   1.2795   4.4636   5.1059   7.8276  10.8612  11.7088
    12.8370  14.5038  15.5458  16.1718  16.9547  18.6356  19.2734  21.1345
    22.2191

          k = 0.3536 0.4808 0.2263 ( 11024 PWs)   bands (ev):

  -108.5857 -56.9170 -56.9169 -56.9169  -4.7204  -0.5823  -0.5667  -0.2807
    -0.2571   0.0194   1.2804   4.4486   5.0992   7.8445  10.8552  11.7153
    12.8372  14.4983  15.5542  16.1757  16.9580  18.6550  19.2941  21.1210
    22.2040

          k = 0.3536 0.4826 0.2245 ( 11022 PWs)   bands (ev):

  -108.5857 -56.9170 -56.9169 -56.9169  -4.7192  -0.5817  -0.5659  -0.2813
    -0.2572   0.0204   1.2814   4.4337   5.0924   7.8615  10.8494  11.7215
    12.8377  14.4917  15.5639  16.1798  16.9613  18.6745  19.3144  21.1074
    22.1889

          k = 0.3536 0.4844 0.2227 ( 11026 PWs)   bands (ev):

  -108.5857 -56.9170 -56.9169 -56.9169  -4.7181  -0.5811  -0.5650  -0.2819
    -0.2574   0.0215   1.2823   4.4189   5.0855   7.8783  10.8436  11.7274
    12.8388  14.4840  15.5748  16.1841  16.9646  18.6942  19.3345  21.0938
    22.1738

          k = 0.3536 0.4861 0.2210 ( 11020 PWs)   bands (ev):

  -108.5857 -56.9170 -56.9169 -56.9169  -4.7169  -0.5805  -0.5641  -0.2825
    -0.2575   0.0225   1.2832   4.4042   5.0785   7.8951  10.8380  11.7330
    12.8403  14.4753  15.5868  16.1885  16.9678  18.7140  19.3543  21.0801
    22.1588

          k = 0.3536 0.4879 0.2192 ( 11024 PWs)   bands (ev):

  -108.5857 -56.9170 -56.9169 -56.9169  -4.7157  -0.5800  -0.5632  -0.2830
    -0.2577   0.0236   1.2841   4.3897   5.0715   7.9118  10.8326  11.7382
    12.8423  14.4655  15.5998  16.1932  16.9710  18.7340  19.3737  21.0663
    22.1438

          k = 0.3536 0.4897 0.2174 ( 11020 PWs)   bands (ev):

  -108.5857 -56.9170 -56.9169 -56.9169  -4.7145  -0.5794  -0.5623  -0.2836
    -0.2578   0.0247   1.2849   4.3752   5.0643   7.9285  10.8273  11.7431
    12.8448  14.4548  15.6139  16.1981  16.9743  18.7541  19.3927  21.0525
    22.1289

          k = 0.3536 0.4914 0.2157 ( 11020 PWs)   bands (ev):

  -108.5857 -56.9170 -56.9169 -56.9169  -4.7133  -0.5788  -0.5614  -0.2842
    -0.2580   0.0259   1.2858   4.3608   5.0571   7.9451  10.8221  11.7476
    12.8479  14.4433  15.6290  16.2032  16.9775  18.7743  19.4114  21.0386
    22.1140

          k = 0.3536 0.4932 0.2139 ( 11020 PWs)   bands (ev):

  -108.5857 -56.9170 -56.9169 -56.9169  -4.7122  -0.5782  -0.5606  -0.2848
    -0.2582   0.0270   1.2866   4.3466   5.0499   7.9616  10.8171  11.7518
    12.8515  14.4309  15.6449  16.2085  16.9806  18.7947  19.4297  21.0246
    22.0992

          k = 0.3536 0.4950 0.2121 ( 11010 PWs)   bands (ev):

  -108.5857 -56.9170 -56.9169 -56.9169  -4.7109  -0.5775  -0.5597  -0.2854
    -0.2583   0.0282   1.2874   4.3325   5.0425   7.9780  10.8123  11.7556
    12.8556  14.4177  15.6616  16.2141  16.9838  18.8152  19.4476  21.0106
    22.0845

          k = 0.3536 0.4967 0.2104 ( 11010 PWs)   bands (ev):

  -108.5857 -56.9170 -56.9169 -56.9169  -4.7097  -0.5769  -0.5588  -0.2859
    -0.2585   0.0293   1.2881   4.3185   5.0351   7.9944  10.8076  11.7590
    12.8604  14.4039  15.6790  16.2200  16.9869  18.8358  19.4651  20.9965
    22.0699

          k = 0.3536 0.4985 0.2086 ( 11010 PWs)   bands (ev):

  -108.5857 -56.9170 -56.9169 -56.9169  -4.7085  -0.5763  -0.5579  -0.2865
    -0.2587   0.0305   1.2889   4.3047   5.0276   8.0106  10.8030  11.7619
    12.8657  14.3893  15.6971  16.2261  16.9900  18.8566  19.4822  20.9824
    22.0553

          k = 0.3536 0.5003 0.2068 ( 11010 PWs)   bands (ev):

  -108.5857 -56.9170 -56.9169 -56.9169  -4.7073  -0.5756  -0.5570  -0.2871
    -0.2589   0.0317   1.2896   4.2910   5.0200   8.0268  10.7986  11.7645
    12.8716  14.3742  15.7157  16.2326  16.9931  18.8774  19.4987  20.9683
    22.0409

          k = 0.3536 0.5020 0.2051 ( 11010 PWs)   bands (ev):

  -108.5857 -56.9170 -56.9169 -56.9169  -4.7061  -0.5750  -0.5560  -0.2876
    -0.2591   0.0330   1.2902   4.2774   5.0124   8.0429  10.7944  11.7666
    12.8782  14.3585  15.7349  16.2394  16.9962  18.8984  19.5149  20.9541
    22.0266

          k = 0.3536 0.5038 0.2033 ( 11010 PWs)   bands (ev):

  -108.5857 -56.9170 -56.9169 -56.9169  -4.7048  -0.5744  -0.5551  -0.2882
    -0.2593   0.0342   1.2909   4.2639   5.0046   8.0589  10.7903  11.7683
    12.8853  14.3422  15.7544  16.2466  16.9993  18.9195  19.5305  20.9399
    22.0124

          k = 0.3536 0.5056 0.2015 ( 11016 PWs)   bands (ev):

  -108.5857 -56.9170 -56.9169 -56.9169  -4.7036  -0.5737  -0.5542  -0.2887
    -0.2594   0.0355   1.2915   4.2506   4.9968   8.0748  10.7864  11.7696
    12.8931  14.3255  15.7743  16.2541  17.0023  18.9406  19.5456  20.9256
    21.9983

          k = 0.3536 0.5073 0.1998 ( 11008 PWs)   bands (ev):

  -108.5857 -56.9170 -56.9169 -56.9169  -4.7023  -0.5730  -0.5533  -0.2893
    -0.2596   0.0368   1.2921   4.2375   4.9890   8.0907  10.7826  11.7705
    12.9015  14.3083  15.7945  16.2621  17.0053  18.9619  19.5602  20.9114
    21.9844

          k = 0.3536 0.5091 0.1980 ( 11006 PWs)   bands (ev):

  -108.5857 -56.9170 -56.9169 -56.9169  -4.7011  -0.5724  -0.5524  -0.2898
    -0.2598   0.0381   1.2926   4.2244   4.9811   8.1064  10.7790  11.7709
    12.9106  14.2907  15.8149  16.2706  17.0083  18.9832  19.5742  20.8971
    21.9706

          k = 0.3536 0.5109 0.1962 ( 11006 PWs)   bands (ev):

  -108.5857 -56.9170 -56.9169 -56.9169  -4.6998  -0.5717  -0.5515  -0.2904
    -0.2601   0.0394   1.2931   4.2116   4.9731   8.1220  10.7756  11.7709
    12.9202  14.2728  15.8354  16.2795  17.0113  19.0047  19.5877  20.8828
    21.9570

          k = 0.3536 0.5127 0.1945 ( 11006 PWs)   bands (ev):

  -108.5857 -56.9170 -56.9169 -56.9169  -4.6986  -0.5710  -0.5506  -0.2909
    -0.2603   0.0407   1.2936   4.1989   4.9650   8.1376  10.7723  11.7704
    12.9305  14.2545  15.8560  16.2890  17.0143  19.0262  19.6006  20.8685
    21.9435

          k = 0.3536 0.5144 0.1927 ( 11008 PWs)   bands (ev):

  -108.5857 -56.9170 -56.9169 -56.9169  -4.6973  -0.5703  -0.5497  -0.2915
    -0.2605   0.0420   1.2940   4.1863   4.9569   8.1530  10.7692  11.7696
    12.9414  14.2359  15.8765  16.2991  17.0172  19.0478  19.6128  20.8542
    21.9302

          k = 0.3536 0.5162 0.1909 ( 11002 PWs)   bands (ev):

  -108.5857 -56.9170 -56.9169 -56.9169  -4.6960  -0.5696  -0.5487  -0.2920
    -0.2607   0.0434   1.2944   4.1739   4.9487   8.1684  10.7662  11.7683
    12.9530  14.2170  15.8969  16.3098  17.0202  19.0695  19.6245  20.8399
    21.9170

          k = 0.3536 0.5180 0.1892 ( 11002 PWs)   bands (ev):

  -108.5857 -56.9170 -56.9169 -56.9169  -4.6948  -0.5689  -0.5478  -0.2925
    -0.2609   0.0448   1.2947   4.1617   4.9404   8.1836  10.7634  11.7667
    12.9651  14.1979  15.9170  16.3212  17.0231  19.0912  19.6355  20.8255
    21.9041

          k = 0.3536 0.5197 0.1874 ( 10998 PWs)   bands (ev):

  -108.5857 -56.9170 -56.9169 -56.9169  -4.6935  -0.5682  -0.5469  -0.2930
    -0.2611   0.0462   1.2950   4.1496   4.9321   8.1987  10.7608  11.7646
    12.9778  14.1785  15.9369  16.3333  17.0261  19.1130  19.6458  20.8112
    21.8913

          k = 0.3536 0.5215 0.1856 ( 11000 PWs)   bands (ev):

  -108.5857 -56.9170 -56.9169 -56.9169  -4.6922  -0.5675  -0.5460  -0.2936
    -0.2614   0.0476   1.2953   4.1377   4.9237   8.2138  10.7584  11.7622
    12.9912  14.1589  15.9565  16.3463  17.0290  19.1349  19.6554  20.7969
    21.8787

          k = 0.3536 0.5233 0.1838 ( 11000 PWs)   bands (ev):

  -108.5857 -56.9170 -56.9169 -56.9169  -4.6909  -0.5668  -0.5451  -0.2941
    -0.2616   0.0491   1.2955   4.1259   4.9153   8.2287  10.7561  11.7594
    13.0051  14.1391  15.9756  16.3601  17.0319  19.1568  19.6643  20.7827
    21.8663

          k = 0.3536 0.5250 0.1821 ( 11000 PWs)   bands (ev):

  -108.5857 -56.9170 -56.9169 -56.9169  -4.6897  -0.5661  -0.5442  -0.2946
    -0.2618   0.0505   1.2957   4.1144   4.9068   8.2435  10.7539  11.7563
    13.0195  14.1192  15.9942  16.3747  17.0348  19.1788  19.6725  20.7684
    21.8541

          k = 0.3536 0.5268 0.1803 ( 11000 PWs)   bands (ev):

  -108.5857 -56.9170 -56.9169 -56.9169  -4.6884  -0.5653  -0.5433  -0.2951
    -0.2621   0.0520   1.2958   4.1030   4.8982   8.2582  10.7520  11.7528
    13.0346  14.0990  16.0122  16.3903  17.0377  19.2008  19.6800  20.7542
    21.8422

          k = 0.3536 0.5286 0.1785 ( 11006 PWs)   bands (ev):

  -108.5857 -56.9170 -56.9169 -56.9169  -4.6871  -0.5646  -0.5424  -0.2956
    -0.2623   0.0535   1.2959   4.0917   4.8896   8.2728  10.7502  11.7490
    13.0501  14.0788  16.0296  16.4068  17.0407  19.2229  19.6866  20.7400
    21.8304

          k = 0.3536 0.5303 0.1768 ( 11006 PWs)   bands (ev):

  -108.5857 -56.9170 -56.9169 -56.9169  -4.6858  -0.5639  -0.5414  -0.2960
    -0.2626   0.0550   1.2959   4.0807   4.8809   8.2873  10.7486  11.7448
    13.0662  14.0584  16.0464  16.4243  17.0436  19.2450  19.6925  20.7258
    21.8188

          k = 0.3536 0.5321 0.1750 ( 11006 PWs)   bands (ev):

  -108.5857 -56.9170 -56.9169 -56.9169  -4.6845  -0.5631  -0.5405  -0.2965
    -0.2628   0.0565   1.2959   4.0698   4.8722   8.3017  10.7471  11.7404
    13.0829  14.0379  16.0625  16.4427  17.0466  19.2671  19.6976  20.7117
    21.8075

          k = 0.3536 0.5339 0.1732 ( 11002 PWs)   bands (ev):

  -108.5857 -56.9170 -56.9169 -56.9169  -4.6832  -0.5624  -0.5396  -0.2970
    -0.2631   0.0581   1.2958   4.0591   4.8634   8.3160  10.7458  11.7357
    13.1000  14.0173  16.0780  16.4621  17.0495  19.2893  19.7019  20.6976
    21.7963

          k = 0.3536 0.5356 0.1715 ( 10998 PWs)   bands (ev):

  -108.5857 -56.9170 -56.9169 -56.9169  -4.6820  -0.5616  -0.5387  -0.2974
    -0.2633   0.0597   1.2957   4.0486   4.8545   8.3301  10.7446  11.7307
    13.1176  13.9967  16.0927  16.4824  17.0525  19.3114  19.7054  20.6836
    21.7854

          k = 0.3536 0.5374 0.1697 ( 10998 PWs)   bands (ev):

  -108.5857 -56.9170 -56.9169 -56.9169  -4.6807  -0.5609  -0.5378  -0.2979
    -0.2636   0.0612   1.2955   4.0383   4.8456   8.3442  10.7437  11.7254
    13.1357  13.9759  16.1068  16.5036  17.0556  19.3336  19.7080  20.6697
    21.7747

          k = 0.3536 0.5392 0.1679 ( 10998 PWs)   bands (ev):

  -108.5857 -56.9170 -56.9169 -56.9169  -4.6794  -0.5601  -0.5370  -0.2984
    -0.2639   0.0628   1.2953   4.0281   4.8367   8.3581  10.7429  11.7199
    13.1542  13.9551  16.1202  16.5256  17.0587  19.3558  19.7097  20.6558
    21.7642

          k = 0.3536 0.5409 0.1662 ( 10998 PWs)   bands (ev):

  -108.5857 -56.9170 -56.9169 -56.9169  -4.6781  -0.5593  -0.5361  -0.2988
    -0.2641   0.0645   1.2950   4.0182   4.8277   8.3719  10.7422  11.7142
    13.1732  13.9342  16.1331  16.5484  17.0619  19.3780  19.7106  20.6420
    21.7539

          k = 0.3536 0.5427 0.1644 ( 11002 PWs)   bands (ev):

  -108.5857 -56.9170 -56.9169 -56.9169  -4.6768  -0.5586  -0.5352  -0.2992
    -0.2644   0.0661   1.2947   4.0084   4.8187   8.3856  10.7417  11.7083
    13.1927  13.9133  16.1453  16.5719  17.0651  19.4002  19.7106  20.6283
    21.7438

          k = 0.3536 0.5445 0.1626 ( 11002 PWs)   bands (ev):

  -108.5857 -56.9170 -56.9169 -56.9169  -4.6755  -0.5578  -0.5343  -0.2997
    -0.2647   0.0678   1.2943   3.9989   4.8096   8.3991  10.7414  11.7021
    13.2125  13.8924  16.1571  16.5961  17.0684  19.4223  19.7098  20.6147
    21.7339

          k = 0.3536 0.5462 0.1609 ( 11000 PWs)   bands (ev):

  -108.5857 -56.9170 -56.9169 -56.9169  -4.6743  -0.5570  -0.5334  -0.3001
    -0.2650   0.0694   1.2938   3.9895   4.8004   8.4126  10.7412  11.6958
    13.2327  13.8715  16.1683  16.6208  17.0719  19.4444  19.7081  20.6012
    21.7242

          k = 0.3536 0.5480 0.1591 ( 11000 PWs)   bands (ev):

  -108.5857 -56.9170 -56.9169 -56.9169  -4.6730  -0.5563  -0.5326  -0.3005
    -0.2653   0.0711   1.2934   3.9803   4.7912   8.4259  10.7412  11.6893
    13.2533  13.8505  16.1791  16.6460  17.0754  19.4665  19.7055  20.5879
    21.7147

          k = 0.3536 0.5498 0.1573 ( 11000 PWs)   bands (ev):

  -108.5857 -56.9170 -56.9169 -56.9169  -4.6717  -0.5555  -0.5317  -0.3009
    -0.2655   0.0729   1.2928   3.9713   4.7820   8.4391  10.7413  11.6827
    13.2743  13.8296  16.1895  16.6715  17.0792  19.4884  19.7021  20.5746
    21.7053

          k = 0.3536 0.5515 0.1556 ( 10998 PWs)   bands (ev):

  -108.5857 -56.9170 -56.9169 -56.9169  -4.6704  -0.5547  -0.5308  -0.3013
    -0.2658   0.0746   1.2922   3.9626   4.7727   8.4522  10.7416  11.6759
    13.2956  13.8086  16.1996  16.6974  17.0832  19.5103  19.6979  20.5615
    21.6960

          k = 0.3536 0.5533 0.1538 ( 11000 PWs)   bands (ev):

  -108.5857 -56.9170 -56.9169 -56.9169  -4.6692  -0.5539  -0.5300  -0.3017
    -0.2661   0.0763   1.2915   3.9540   4.7634   8.4652  10.7421  11.6690
    13.3172  13.7877  16.2093  16.7235  17.0874  19.5319  19.6929  20.5485
    21.6870

          k = 0.3536 0.5551 0.1520 ( 10996 PWs)   bands (ev):

  -108.5857 -56.9170 -56.9169 -56.9169  -4.6679  -0.5531  -0.5291  -0.3021
    -0.2664   0.0781   1.2908   3.9456   4.7541   8.4781  10.7426  11.6619
    13.3391  13.7669  16.2187  16.7497  17.0920  19.5532  19.6873  20.5357
    21.6780

          k = 0.3536 0.5568 0.1503 ( 11000 PWs)   bands (ev):

  -108.5857 -56.9170 -56.9169 -56.9169  -4.6666  -0.5524  -0.5283  -0.3024
    -0.2667   0.0799   1.2900   3.9374   4.7447   8.4908  10.7434  11.6548
    13.3613  13.7462  16.2279  16.7758  17.0970  19.5741  19.6812  20.5230
    21.6691

          k = 0.3536 0.5586 0.1485 ( 11000 PWs)   bands (ev):

  -108.5857 -56.9170 -56.9169 -56.9169  -4.6654  -0.5516  -0.5274  -0.3028
    -0.2670   0.0817   1.2892   3.9295   4.7353   8.5034  10.7443  11.6475
    13.3837  13.7256  16.2368  16.8017  17.1025  19.5938  19.6753  20.5105
    21.6604

          k = 0.3536 0.5604 0.1467 ( 10998 PWs)   bands (ev):

  -108.5857 -56.9170 -56.9169 -56.9169  -4.6641  -0.5508  -0.5266  -0.3032
    -0.2674   0.0835   1.2883   3.9217   4.7258   8.5159  10.7453  11.6402
    13.4062  13.7051  16.2455  16.8273  17.1087  19.6110  19.6710  20.4982
    21.6517

          k = 0.3536 0.5621 0.1450 ( 11002 PWs)   bands (ev):

  -108.5857 -56.9170 -56.9169 -56.9169  -4.6629  -0.5500  -0.5258  -0.3035
    -0.2677   0.0854   1.2874   3.9141   4.7163   8.5282  10.7464  11.6328
    13.4288  13.6850  16.2540  16.8523  17.1157  19.6220  19.6719  20.4861
    21.6431

          k = 0.3536 0.5639 0.1432 ( 11002 PWs)   bands (ev):

  -108.5857 -56.9170 -56.9169 -56.9169  -4.6616  -0.5492  -0.5249  -0.3039
    -0.2680   0.0872   1.2864   3.9068   4.7068   8.5405  10.7477  11.6254
    13.4513  13.6653  16.2624  16.8766  17.1237  19.6230  19.6820  20.4742
    21.6346

          k = 0.3536 0.5657 0.1414 ( 11002 PWs)   bands (ev):

  -108.5857 -56.9170 -56.9169 -56.9169  -4.6604  -0.5484  -0.5241  -0.3042
    -0.2683   0.0891   1.2853   3.8996   4.6972   8.5526  10.7492  11.6179
    13.4733  13.6463  16.2707  16.8998  17.1330  19.6165  19.6985  20.4626
    21.6261

          k = 0.3536 0.5675 0.1397 ( 11004 PWs)   bands (ev):

  -108.5857 -56.9170 -56.9169 -56.9169  -4.6592  -0.5476  -0.5233  -0.3045
    -0.2686   0.0910   1.2842   3.8927   4.6877   8.5645  10.7507  11.6104
    13.4942  13.6288  16.2788  16.9216  17.1438  19.6065  19.7176  20.4512
    21.6176

          k = 0.3536 0.5692 0.1379 ( 11004 PWs)   bands (ev):

  -108.5857 -56.9170 -56.9169 -56.9169  -4.6580  -0.5468  -0.5225  -0.3048
    -0.2690   0.0929   1.2830   3.8860   4.6780   8.5764  10.7524  11.6028
    13.5123  13.6143  16.2868  16.9418  17.1564  19.5945  19.7378  20.4401
    21.6092

          k = 0.3536 0.5710 0.1361 ( 11004 PWs)   bands (ev):

  -108.5857 -56.9170 -56.9169 -56.9169  -4.6567  -0.5461  -0.5217  -0.3052
    -0.2693   0.0948   1.2818   3.8795   4.6684   8.5881  10.7542  11.5952
    13.5238  13.6067  16.2947  16.9600  17.1709  19.5813  19.7583  20.4292
    21.6007

          k = 0.3536 0.5728 0.1344 ( 11000 PWs)   bands (ev):

  -108.5857 -56.9170 -56.9169 -56.9169  -4.6555  -0.5453  -0.5209  -0.3055
    -0.2696   0.0967   1.2805   3.8732   4.6587   8.5997  10.7562  11.5877
    13.5239  13.6109  16.3025  16.9763  17.1876  19.5670  19.7789  20.4187
    21.5923

          k = 0.3536 0.5745 0.1326 ( 11002 PWs)   bands (ev):

  -108.5857 -56.9170 -56.9169 -56.9169  -4.6543  -0.5445  -0.5201  -0.3058
    -0.2699   0.0987   1.2792   3.8671   4.6490   8.6112  10.7582  11.5801
    13.5136  13.6257  16.3103  16.9905  17.2064  19.5518  19.7996  20.4085
    21.5838

          k = 0.3536 0.5763 0.1308 ( 11002 PWs)   bands (ev):

  -108.5857 -56.9170 -56.9169 -56.9169  -4.6531  -0.5437  -0.5194  -0.3060
    -0.2703   0.1006   1.2778   3.8612   4.6393   8.6225  10.7604  11.5725
    13.4981  13.6460  16.3180  17.0027  17.2273  19.5359  19.8201  20.3987
    21.5753

          k = 0.3536 0.5781 0.1290 ( 11002 PWs)   bands (ev):

  -108.5857 -56.9170 -56.9169 -56.9169  -4.6519  -0.5429  -0.5186  -0.3063
    -0.2706   0.1026   1.2763   3.8555   4.6296   8.6337  10.7627  11.5650
    13.4803  13.6689  16.3256  17.0131  17.2499  19.5191  19.8405  20.3892
    21.5668

          k = 0.3536 0.5798 0.1273 ( 11004 PWs)   bands (ev):

  -108.5857 -56.9170 -56.9169 -56.9169  -4.6507  -0.5422  -0.5178  -0.3066
    -0.2710   0.1046   1.2748   3.8501   4.6198   8.6448  10.7650  11.5575
    13.4614  13.6931  16.3332  17.0219  17.2740  19.5018  19.8606  20.3802
    21.5582

          k = 0.3536 0.5816 0.1255 ( 11004 PWs)   bands (ev):

  -108.5857 -56.9170 -56.9169 -56.9169  -4.6496  -0.5414  -0.5171  -0.3069
    -0.2713   0.1066   1.2732   3.8448   4.6100   8.6558  10.7675  11.5500
    13.4420  13.7182  16.3408  17.0295  17.2994  19.4838  19.8805  20.3716
    21.5496

          k = 0.3536 0.5834 0.1237 ( 11006 PWs)   bands (ev):

  -108.5857 -56.9170 -56.9169 -56.9169  -4.6484  -0.5406  -0.5163  -0.3071
    -0.2717   0.1086   1.2716   3.8398   4.6002   8.6666  10.7701  11.5426
    13.4223  13.7437  16.3483  17.0360  17.3258  19.4652  19.9000  20.3636
    21.5409

          k = 0.3536 0.5851 0.1220 ( 11002 PWs)   bands (ev):

  -108.5857 -56.9170 -56.9169 -56.9169  -4.6472  -0.5398  -0.5156  -0.3074
    -0.2720   0.1106   1.2700   3.8350   4.5904   8.6773  10.7727  11.5353
    13.4024  13.7697  16.3558  17.0416  17.3530  19.4461  19.9191  20.3562
    21.5322

          k = 0.3536 0.5869 0.1202 ( 11000 PWs)   bands (ev):

  -108.5857 -56.9170 -56.9169 -56.9169  -4.6461  -0.5391  -0.5149  -0.3076
    -0.2724   0.1127   1.2683   3.8304   4.5806   8.6878  10.7755  11.5281
    13.3825  13.7960  16.3633  17.0465  17.3807  19.4265  19.9377  20.3494
    21.5234

          k = 0.3536 0.5887 0.1184 ( 11000 PWs)   bands (ev):

  -108.5857 -56.9170 -56.9169 -56.9169  -4.6449  -0.5383  -0.5141  -0.3078
    -0.2727   0.1147   1.2665   3.8260   4.5707   8.6982  10.7783  11.5209
    13.3625  13.8225  16.3708  17.0508  17.4089  19.4064  19.9558  20.3433
    21.5146

          k = 0.3536 0.5904 0.1167 ( 11000 PWs)   bands (ev):

  -108.5857 -56.9170 -56.9169 -56.9169  -4.6438  -0.5376  -0.5134  -0.3080
    -0.2731   0.1168   1.2647   3.8218   4.5608   8.7085  10.7812  11.5138
    13.3426  13.8493  16.3782  17.0546  17.4373  19.3860  19.9731  20.3381
    21.5058

          k = 0.3536 0.5922 0.1149 ( 11000 PWs)   bands (ev):

  -108.5857 -56.9170 -56.9169 -56.9169  -4.6427  -0.5368  -0.5127  -0.3083
    -0.2734   0.1188   1.2629   3.8178   4.5510   8.7187  10.7841  11.5068
    13.3226  13.8763  16.3857  17.0580  17.4659  19.3653  19.9897  20.3339
    21.4969

          k = 0.3536 0.5940 0.1131 ( 11004 PWs)   bands (ev):

  -108.5857 -56.9170 -56.9169 -56.9169  -4.6416  -0.5361  -0.5120  -0.3085
    -0.2738   0.1209   1.2610   3.8141   4.5411   8.7287  10.7871  11.4999
    13.3027  13.9034  16.3931  17.0611  17.4946  19.3442  20.0053  20.3308
    21.4879

          k = 0.3536 0.5957 0.1114 ( 10994 PWs)   bands (ev):

  -108.5857 -56.9170 -56.9169 -56.9169  -4.6405  -0.5353  -0.5113  -0.3087
    -0.2741   0.1230   1.2590   3.8105   4.5312   8.7386  10.7902  11.4932
    13.2829  13.9308  16.4006  17.0639  17.5233  19.3230  20.0199  20.3289
    21.4789

          k = 0.3536 0.5975 0.1096 ( 10994 PWs)   bands (ev):

  -108.5857 -56.9170 -56.9169 -56.9169  -4.6394  -0.5346  -0.5106  -0.3089
    -0.2745   0.1251   1.2570   3.8072   4.5213   8.7484  10.7933  11.4865
    13.2631  13.9582  16.4081  17.0664  17.5518  19.3015  20.0332  20.3284
    21.4699

          k = 0.3536 0.5993 0.1078 ( 10994 PWs)   bands (ev):

  -108.5857 -56.9170 -56.9169 -56.9169  -4.6383  -0.5339  -0.5099  -0.3090
    -0.2749   0.1272   1.2550   3.8041   4.5114   8.7580  10.7964  11.4801
    13.2435  13.9858  16.4155  17.0687  17.5802  19.2800  20.0451  20.3294
    21.4609

          k = 0.3536 0.6010 0.1061 ( 10996 PWs)   bands (ev):

  -108.5857 -56.9170 -56.9169 -56.9169  -4.6372  -0.5332  -0.5093  -0.3092
    -0.2752   0.1293   1.2529   3.8012   4.5015   8.7675  10.7996  11.4737
    13.2239  14.0135  16.4230  17.0709  17.6083  19.2585  20.0556  20.3320
    21.4518

          k = 0.3536 0.6028 0.1043 ( 10992 PWs)   bands (ev):

  -108.5857 -56.9170 -56.9169 -56.9169  -4.6362  -0.5325  -0.5086  -0.3094
    -0.2756   0.1314   1.2508   3.7985   4.4916   8.7769  10.8027  11.4675
    13.2043  14.0413  16.4306  17.0728  17.6360  19.2369  20.0645  20.3365
    21.4427

          k = 0.3536 0.6046 0.1025 ( 10988 PWs)   bands (ev):

  -108.5857 -56.9170 -56.9169 -56.9169  -4.6351  -0.5318  -0.5079  -0.3096
    -0.2759   0.1335   1.2487   3.7960   4.4817   8.7861  10.8059  11.4615
    13.1849  14.0692  16.4381  17.0746  17.6633  19.2155  20.0718  20.3426
    21.4336

          k = 0.3536 0.6063 0.1008 ( 10988 PWs)   bands (ev):

  -108.5857 -56.9170 -56.9169 -56.9169  -4.6341  -0.5311  -0.5073  -0.3097
    -0.2763   0.1356   1.2465   3.7937   4.4718   8.7952  10.8091  11.4557
    13.1656  14.0971  16.4456  17.0763  17.6901  19.1943  20.0775  20.3505
    21.4245

          k = 0.3536 0.6081 0.0990 ( 10988 PWs)   bands (ev):

  -108.5857 -56.9170 -56.9169 -56.9169  -4.6331  -0.5304  -0.5066  -0.3099
    -0.2767   0.1377   1.2443   3.7917   4.4619   8.8041  10.8124  11.4500
    13.1464  14.1252  16.4532  17.0779  17.7163  19.1734  20.0818  20.3601
    21.4154

          k = 0.3536 0.6099 0.0972 ( 10992 PWs)   bands (ev):

  -108.5857 -56.9170 -56.9169 -56.9169  -4.6321  -0.5297  -0.5060  -0.3100
    -0.2770   0.1398   1.2421   3.7898   4.4521   8.8130  10.8155  11.4446
    13.1273  14.1532  16.4608  17.0793  17.7418  19.1528  20.0848  20.3711
    21.4063

          k = 0.3536 0.6116 0.0955 ( 10992 PWs)   bands (ev):

  -108.5857 -56.9170 -56.9169 -56.9169  -4.6311  -0.5290  -0.5054  -0.3102
    -0.2774   0.1420   1.2399   3.7882   4.4422   8.8216  10.8187  11.4393
    13.1084  14.1814  16.4685  17.0807  17.7665  19.1327  20.0866  20.3835
    21.3972

          k = 0.3536 0.6134 0.0937 ( 10992 PWs)   bands (ev):

  -108.5857 -56.9170 -56.9169 -56.9169  -4.6301  -0.5284  -0.5047  -0.3103
    -0.2778   0.1441   1.2376   3.7867   4.4323   8.8302  10.8219  11.4343
    13.0895  14.2095  16.4762  17.0819  17.7903  19.1132  20.0874  20.3970
    21.3881

          k = 0.3536 0.6152 0.0919 ( 10992 PWs)   bands (ev):

  -108.5857 -56.9170 -56.9169 -56.9169  -4.6291  -0.5277  -0.5041  -0.3104
    -0.2781   0.1462   1.2353   3.7855   4.4224   8.8386  10.8250  11.4295
    13.0708  14.2377  16.4839  17.0831  17.8131  19.0944  20.0875  20.4115
    21.3790

          k = 0.3536 0.6170 0.0902 ( 10992 PWs)   bands (ev):

  -108.5857 -56.9170 -56.9169 -56.9169  -4.6282  -0.5271  -0.5035  -0.3105
    -0.2785   0.1483   1.2329   3.7844   4.4126   8.8468  10.8280  11.4249
    13.0522  14.2658  16.4917  17.0842  17.8347  19.0763  20.0870  20.4267
    21.3700

          k = 0.3536 0.6187 0.0884 ( 10982 PWs)   bands (ev):

  -108.5857 -56.9170 -56.9169 -56.9169  -4.6273  -0.5264  -0.5029  -0.3106
    -0.2788   0.1504   1.2306   3.7836   4.4027   8.8550  10.8310  11.4205
    13.0338  14.2940  16.4995  17.0852  17.8551  19.0593  20.0860  20.4426
    21.3610

          k = 0.3536 0.6205 0.0866 ( 10996 PWs)   bands (ev):

  -108.5857 -56.9170 -56.9169 -56.9169  -4.6263  -0.5258  -0.5023  -0.3108
    -0.2792   0.1525   1.2282   3.7829   4.3929   8.8629  10.8340  11.4164
    13.0155  14.3221  16.5074  17.0861  17.8740  19.0433  20.0848  20.4591
    21.3520

          k = 0.3536 0.6223 0.0849 ( 10996 PWs)   bands (ev):

  -108.5857 -56.9170 -56.9169 -56.9169  -4.6254  -0.5252  -0.5017  -0.3109
    -0.2795   0.1546   1.2259   3.7825   4.3831   8.8708  10.8368  11.4125
    12.9973  14.3502  16.5154  17.0870  17.8914  19.0285  20.0833  20.4759
    21.3430

          k = 0.3536 0.6240 0.0831 ( 10996 PWs)   bands (ev):

  -108.5857 -56.9170 -56.9169 -56.9169  -4.6245  -0.5246  -0.5011  -0.3110
    -0.2799   0.1567   1.2235   3.7822   4.3733   8.8785  10.8396  11.4089
    12.9794  14.3783  16.5234  17.0878  17.9072  19.0151  20.0817  20.4931
    21.3341

          k = 0.3536 0.6258 0.0813 ( 10994 PWs)   bands (ev):

  -108.5857 -56.9170 -56.9169 -56.9169  -4.6236  -0.5240  -0.5006  -0.3110
    -0.2803   0.1587   1.2211   3.7822   4.3635   8.8860  10.8423  11.4056
    12.9615  14.4063  16.5314  17.0886  17.9211  19.0032  20.0801  20.5106
    21.3251

          k = 0.3536 0.6276 0.0795 ( 10994 PWs)   bands (ev):

  -108.5857 -56.9170 -56.9169 -56.9169  -4.6228  -0.5235  -0.5000  -0.3111
    -0.2806   0.1608   1.2187   3.7823   4.3538   8.8934  10.8449  11.4025
    12.9439  14.4342  16.5396  17.0893  17.9330  18.9929  20.0786  20.5282
    21.3162

          k = 0.3536 0.6293 0.0778 ( 10994 PWs)   bands (ev):

  -108.5857 -56.9170 -56.9169 -56.9169  -4.6219  -0.5229  -0.4994  -0.3112
    -0.2810   0.1628   1.2163   3.7826   4.3441   8.9007  10.8474  11.3997
    12.9264  14.4620  16.5478  17.0899  17.9429  18.9843  20.0772  20.5459
    21.3074

          k = 0.3536 0.6311 0.0760 ( 10992 PWs)   bands (ev):

  -108.5857 -56.9170 -56.9169 -56.9169  -4.6211  -0.5224  -0.4989  -0.3113
    -0.2813   0.1649   1.2139   3.7832   4.3344   8.9078  10.8498  11.3972
    12.9091  14.4897  16.5561  17.0905  17.9506  18.9775  20.0760  20.5637
    21.2986

          k = 0.3536 0.6329 0.0742 ( 10994 PWs)   bands (ev):

  -108.5857 -56.9170 -56.9169 -56.9169  -4.6203  -0.5218  -0.4984  -0.3114
    -0.2816   0.1669   1.2114   3.7839   4.3247   8.9148  10.8521  11.3950
    12.8919  14.5173  16.5645  17.0911  17.9560  18.9727  20.0751  20.5816
    21.2897

          k = 0.3536 0.6346 0.0725 ( 10996 PWs)   bands (ev):

  -108.5857 -56.9170 -56.9169 -56.9169  -4.6195  -0.5213  -0.4978  -0.3114
    -0.2820   0.1689   1.2090   3.7848   4.3150   8.9216  10.8542  11.3931
    12.8750  14.5448  16.5730  17.0916  17.9591  18.9698  20.0744  20.5994
    21.2810

          k = 0.3536 0.6364 0.0707 ( 10996 PWs)   bands (ev):

  -108.5857 -56.9170 -56.9169 -56.9169  -4.6187  -0.5208  -0.4973  -0.3115
    -0.2823   0.1709   1.2067   3.7859   4.3054   8.9283  10.8562  11.3914
    12.8583  14.5721  16.5816  17.0920  17.9598  18.9689  20.0741  20.6172
    21.2722

          k = 0.3536 0.6382 0.0689 ( 10996 PWs)   bands (ev):

  -108.5857 -56.9170 -56.9169 -56.9169  -4.6179  -0.5203  -0.4968  -0.3116
    -0.2826   0.1728   1.2043   3.7871   4.2958   8.9349  10.8581  11.3900
    12.8418  14.5992  16.5903  17.0924  17.9582  18.9700  20.0742  20.6350
    21.2634

          k = 0.3536 0.6399 0.0672 ( 10996 PWs)   bands (ev):

  -108.5857 -56.9170 -56.9169 -56.9169  -4.6172  -0.5198  -0.4963  -0.3116
    -0.2830   0.1748   1.2019   3.7886   4.2863   8.9412  10.8599  11.3890
    12.8254  14.6261  16.5991  17.0928  17.9542  18.9729  20.0748  20.6526
    21.2546

          k = 0.3536 0.6417 0.0654 ( 10996 PWs)   bands (ev):

  -108.5857 -56.9170 -56.9169 -56.9169  -4.6164  -0.5193  -0.4958  -0.3117
    -0.2833   0.1767   1.1995   3.7902   4.2767   8.9475  10.8615  11.3882
    12.8093  14.6529  16.6080  17.0931  17.9481  18.9777  20.0758  20.6702
    21.2459

          k = 0.3536 0.6435 0.0636 ( 10998 PWs)   bands (ev):

  -108.5857 -56.9170 -56.9169 -56.9169  -4.6157  -0.5189  -0.4953  -0.3117
    -0.2836   0.1786   1.1972   3.7920   4.2673   8.9536  10.8630  11.3876
    12.7935  14.6793  16.6171  17.0934  17.9398  18.9841  20.0773  20.6876
    21.2371

          k = 0.3536 0.6452 0.0619 ( 11000 PWs)   bands (ev):

  -108.5857 -56.9170 -56.9169 -56.9169  -4.6150  -0.5184  -0.4948  -0.3118
    -0.2839   0.1804   1.1949   3.7940   4.2578   8.9595  10.8644  11.3874
    12.7778  14.7056  16.6263  17.0937  17.9295  18.9921  20.0794  20.7048
    21.2282

          k = 0.3536 0.6470 0.0601 ( 11000 PWs)   bands (ev):

  -108.5857 -56.9170 -56.9169 -56.9169  -4.6143  -0.5180  -0.4943  -0.3118
    -0.2842   0.1823   1.1926   3.7962   4.2484   8.9653  10.8656  11.3874
    12.7624  14.7315  16.6357  17.0939  17.9172  19.0015  20.0820  20.7219
    21.2194

          k = 0.3536 0.6488 0.0583 ( 10998 PWs)   bands (ev):

  -108.5857 -56.9170 -56.9169 -56.9169  -4.6137  -0.5176  -0.4939  -0.3119
    -0.2845   0.1841   1.1903   3.7985   4.2390   8.9709  10.8667  11.3877
    12.7473  14.7572  16.6453  17.0941  17.9033  19.0121  20.0853  20.7388
    21.2104

          k = 0.3536 0.6505 0.0566 ( 11006 PWs)   bands (ev):

  -108.5857 -56.9170 -56.9169 -56.9169  -4.6130  -0.5172  -0.4934  -0.3119
    -0.2848   0.1859   1.1881   3.8010   4.2297   8.9764  10.8676  11.3882
    12.7324  14.7825  16.6550  17.0943  17.8877  19.0237  20.0893  20.7554
    21.2014

          k = 0.3536 0.6523 0.0548 ( 11006 PWs)   bands (ev):

  -108.5857 -56.9170 -56.9169 -56.9169  -4.6124  -0.5168  -0.4930  -0.3119
    -0.2851   0.1876   1.1859   3.8037   4.2204   8.9817  10.8684  11.3890
    12.7178  14.8075  16.6648  17.0944  17.8707  19.0363  20.0940  20.7719
    21.1923

          k = 0.3536 0.6541 0.0530 ( 11006 PWs)   bands (ev):

  -108.5857 -56.9170 -56.9169 -56.9169  -4.6118  -0.5164  -0.4925  -0.3120
    -0.2854   0.1893   1.1837   3.8065   4.2112   8.9869  10.8691  11.3900
    12.7035  14.8321  16.6749  17.0945  17.8524  19.0496  20.0994  20.7881
    21.1831

          k = 0.3536 0.6558 0.0513 ( 11008 PWs)   bands (ev):

  -108.5857 -56.9170 -56.9169 -56.9169  -4.6112  -0.5160  -0.4921  -0.3120
    -0.2857   0.1910   1.1816   3.8095   4.2020   8.9919  10.8697  11.3912
    12.6895  14.8563  16.6852  17.0946  17.8329  19.0635  20.1057  20.8040
    21.1737

          k = 0.3536 0.6576 0.0495 ( 11008 PWs)   bands (ev):

  -108.5857 -56.9170 -56.9169 -56.9169  -4.6106  -0.5157  -0.4917  -0.3120
    -0.2860   0.1926   1.1795   3.8127   4.1929   8.9967  10.8702  11.3927
    12.6757  14.8801  16.6957  17.0947  17.8124  19.0777  20.1127  20.8196
    21.1642

          k = 0.3536 0.6594 0.0477 ( 11004 PWs)   bands (ev):

  -108.5857 -56.9170 -56.9169 -56.9169  -4.6101  -0.5153  -0.4913  -0.3120
    -0.2862   0.1942   1.1775   3.8160   4.1839   9.0014  10.8705  11.3943
    12.6623  14.9035  16.7064  17.0947  17.7909  19.0922  20.1206  20.8349
    21.1545

          k = 0.3536 0.6611 0.0460 ( 11004 PWs)   bands (ev):

  -108.5857 -56.9170 -56.9169 -56.9169  -4.6095  -0.5150  -0.4909  -0.3121
    -0.2865   0.1958   1.1755   3.8195   4.1748   9.0059  10.8708  11.3961
    12.6492  14.9264  16.7174  17.0947  17.7687  19.1068  20.1294  20.8499
    21.1445

          k = 0.3536 0.6629 0.0442 ( 11002 PWs)   bands (ev):

  -108.5857 -56.9170 -56.9169 -56.9169  -4.6090  -0.5147  -0.4905  -0.3121
    -0.2867   0.1973   1.1735   3.8231   4.1659   9.0103  10.8709  11.3980
    12.6365  14.9488  16.7286  17.0948  17.7457  19.1214  20.1391  20.8646
    21.1342

          k = 0.3536 0.6647 0.0424 ( 11002 PWs)   bands (ev):

  -108.5857 -56.9170 -56.9169 -56.9169  -4.6085  -0.5144  -0.4901  -0.3121
    -0.2870   0.1988   1.1716   3.8269   4.1570   9.0145  10.8710  11.4001
    12.6240  14.9706  16.7401  17.0947  17.7222  19.1359  20.1497  20.8789
    21.1237

          k = 0.3536 0.6664 0.0407 ( 11000 PWs)   bands (ev):

  -108.5857 -56.9170 -56.9169 -56.9169  -4.6080  -0.5141  -0.4898  -0.3121
    -0.2872   0.2002   1.1698   3.8308   4.1482   9.0185  10.8710  11.4023
    12.6120  14.9919  16.7519  17.0947  17.6982  19.1502  20.1612  20.8928
    21.1128

          k = 0.3536 0.6682 0.0389 ( 10992 PWs)   bands (ev):

  -108.5857 -56.9170 -56.9169 -56.9169  -4.6076  -0.5138  -0.4894  -0.3121
    -0.2874   0.2016   1.1680   3.8349   4.1394   9.0224  10.8709  11.4046
    12.6003  15.0126  16.7640  17.0947  17.6737  19.1642  20.1737  20.9063
    21.1015

          k = 0.3536 0.6700 0.0371 ( 10992 PWs)   bands (ev):

  -108.5857 -56.9170 -56.9169 -56.9169  -4.6071  -0.5136  -0.4891  -0.3121
    -0.2877   0.2029   1.1663   3.8391   4.1307   9.0261  10.8707  11.4070
    12.5890  15.0326  16.7764  17.0946  17.6489  19.1777  20.1872  20.9194
    21.0898

          k = 0.3536 0.6718 0.0354 ( 10994 PWs)   bands (ev):

  -108.5857 -56.9170 -56.9169 -56.9169  -4.6067  -0.5133  -0.4888  -0.3121
    -0.2879   0.2042   1.1646   3.8434   4.1221   9.0297  10.8705  11.4095
    12.5781  15.0520  16.7891  17.0946  17.6239  19.1908  20.2016  20.9321
    21.0776

          k = 0.3536 0.6735 0.0336 ( 10996 PWs)   bands (ev):

  -108.5857 -56.9170 -56.9169 -56.9169  -4.6063  -0.5131  -0.4885  -0.3122
    -0.2881   0.2054   1.1630   3.8479   4.1135   9.0331  10.8703  11.4120
    12.5676  15.0707  16.8021  17.0945  17.5986  19.2034  20.2169  20.9443
    21.0649

          k = 0.3536 0.6753 0.0318 ( 10994 PWs)   bands (ev):

  -108.5857 -56.9170 -56.9169 -56.9169  -4.6059  -0.5129  -0.4882  -0.3122
    -0.2883   0.2066   1.1615   3.8526   4.1051   9.0363  10.8700  11.4145
    12.5576  15.0887  16.8155  17.0945  17.5731  19.2154  20.2332  20.9560
    21.0516

          k = 0.3536 0.6771 0.0301 ( 10994 PWs)   bands (ev):

  -108.5857 -56.9170 -56.9169 -56.9169  -4.6056  -0.5127  -0.4879  -0.3122
    -0.2884   0.2077   1.1601   3.8573   4.0967   9.0393  10.8697  11.4171
    12.5480  15.1060  16.8293  17.0944  17.5476  19.2268  20.2504  20.9673
    21.0376

          k = 0.3536 0.6788 0.0283 ( 10992 PWs)   bands (ev):

  -108.5857 -56.9170 -56.9169 -56.9169  -4.6052  -0.5125  -0.4877  -0.3122
    -0.2886   0.2087   1.1587   3.8622   4.0884   9.0422  10.8693  11.4196
    12.5388  15.1224  16.8434  17.0943  17.5220  19.2375  20.2684  20.9780
    21.0231

          k = 0.3536 0.6806 0.0265 ( 10992 PWs)   bands (ev):

  -108.5857 -56.9170 -56.9169 -56.9169  -4.6049  -0.5123  -0.4874  -0.3122
    -0.2888   0.2098   1.1573   3.8672   4.0801   9.0449  10.8690  11.4221
    12.5301  15.1381  16.8579  17.0942  17.4965  19.2476  20.2873  20.9880
    21.0080

          k = 0.3536 0.6824 0.0247 ( 10990 PWs)   bands (ev):

  -108.5857 -56.9170 -56.9169 -56.9169  -4.6046  -0.5121  -0.4872  -0.3122
    -0.2889   0.2107   1.1561   3.8723   4.0720   9.0474  10.8686  11.4246
    12.5219  15.1529  16.8728  17.0941  17.4710  19.2570  20.3070  20.9907
    20.9990

          k = 0.3536 0.6841 0.0230 ( 10990 PWs)   bands (ev):

  -108.5857 -56.9170 -56.9169 -56.9169  -4.6043  -0.5120  -0.4870  -0.3122
    -0.2891   0.2116   1.1549   3.8775   4.0640   9.0498  10.8682  11.4269
    12.5141  15.1668  16.8881  17.0941  17.4456  19.2657  20.3273  20.9747
    21.0073

          k = 0.3536 0.6859 0.0212 ( 10986 PWs)   bands (ev):

  -108.5857 -56.9170 -56.9169 -56.9169  -4.6041  -0.5118  -0.4868  -0.3122
    -0.2892   0.2124   1.1539   3.8828   4.0561   9.0520  10.8678  11.4292
    12.5069  15.1798  16.9038  17.0940  17.4203  19.2738  20.3483  20.9574
    21.0158

          k = 0.3536 0.6877 0.0194 ( 10988 PWs)   bands (ev):

  -108.5857 -56.9170 -56.9169 -56.9169  -4.6038  -0.5117  -0.4866  -0.3122
    -0.2893   0.2132   1.1529   3.8882   4.0483   9.0540  10.8674  11.4314
    12.5002  15.1919  16.9199  17.0939  17.3952  19.2811  20.3698  20.9393
    21.0237

          k = 0.3536 0.6894 0.0177 ( 10988 PWs)   bands (ev):

  -108.5857 -56.9170 -56.9169 -56.9169  -4.6036  -0.5115  -0.4864  -0.3122
    -0.2895   0.2139   1.1519   3.8937   4.0406   9.0559  10.8671  11.4334
    12.4941  15.2030  16.9365  17.0939  17.3704  19.2878  20.3918  20.9206
    21.0309

          k = 0.3536 0.6912 0.0159 ( 10982 PWs)   bands (ev):

  -108.5857 -56.9170 -56.9169 -56.9169  -4.6034  -0.5114  -0.4862  -0.3122
    -0.2896   0.2145   1.1511   3.8992   4.0331   9.0575  10.8667  11.4353
    12.4885  15.2132  16.9534  17.0938  17.3458  19.2937  20.4140  20.9013
    21.0376

          k = 0.3536 0.6930 0.0141 ( 10976 PWs)   bands (ev):

  -108.5857 -56.9170 -56.9169 -56.9169  -4.6032  -0.5113  -0.4861  -0.3122
    -0.2896   0.2151   1.1504   3.9048   4.0258   9.0590  10.8664  11.4371
    12.4834  15.2224  16.9707  17.0938  17.3215  19.2990  20.4365  20.8816
    21.0436

          k = 0.3536 0.6947 0.0124 ( 10974 PWs)   bands (ev):

  -108.5857 -56.9170 -56.9169 -56.9169  -4.6031  -0.5112  -0.4860  -0.3122
    -0.2897   0.2156   1.1497   3.9104   4.0187   9.0604  10.8661  11.4386
    12.4789  15.2305  16.9883  17.0937  17.2977  19.3037  20.4588  20.8617
    21.0489

          k = 0.3536 0.6965 0.0106 ( 10976 PWs)   bands (ev):

  -108.5857 -56.9170 -56.9169 -56.9169  -4.6029  -0.5112  -0.4859  -0.3122
    -0.2898   0.2160   1.1491   3.9159   4.0118   9.0615  10.8659  11.4400
    12.4750  15.2376  17.0062  17.0938  17.2743  19.3077  20.4809  20.8418
    21.0535

          k = 0.3536 0.6983 0.0088 ( 10984 PWs)   bands (ev):

  -108.5857 -56.9170 -56.9169 -56.9169  -4.6028  -0.5111  -0.4858  -0.3122
    -0.2899   0.2164   1.1486   3.9213   4.0053   9.0625  10.8656  11.4412
    12.4717  15.2436  17.0243  17.0938  17.2514  19.3111  20.5022  20.8223
    21.0575

          k = 0.3536 0.7000 0.0071 ( 10984 PWs)   bands (ev):

  -108.5857 -56.9170 -56.9169 -56.9169  -4.6027  -0.5111  -0.4857  -0.3122
    -0.2899   0.2167   1.1482   3.9264   3.9992   9.0633  10.8655  11.4422
    12.4690  15.2486  17.0424  17.0940  17.2293  19.3138  20.5223  20.8036
    21.0607

          k = 0.3536 0.7018 0.0053 ( 10984 PWs)   bands (ev):

  -108.5857 -56.9170 -56.9169 -56.9169  -4.6026  -0.5110  -0.4857  -0.3122
    -0.2900   0.2169   1.1479   3.9311   3.9938   9.0639  10.8653  11.4430
    12.4668  15.2524  17.0600  17.0944  17.2083  19.3159  20.5404  20.7868
    21.0633

          k = 0.3536 0.7036 0.0035 ( 10984 PWs)   bands (ev):

  -108.5857 -56.9170 -56.9169 -56.9169  -4.6026  -0.5110  -0.4856  -0.3122
    -0.2900   0.2171   1.1477   3.9350   3.9894   9.0643  10.8652  11.4436
    12.4653  15.2552  17.0757  17.0957  17.1891  19.3175  20.5551  20.7728
    21.0651

          k = 0.3536 0.7053 0.0018 ( 10984 PWs)   bands (ev):

  -108.5857 -56.9170 -56.9169 -56.9169  -4.6026  -0.5110  -0.4856  -0.3122
    -0.2900   0.2172   1.1475   3.9377   3.9864   9.0646  10.8651  11.4439
    12.4644  15.2569  17.0856  17.0996  17.1739  19.3184  20.5651  20.7633
    21.0662

          k = 0.3536 0.7071 0.0000 ( 10984 PWs)   bands (ev):

  -108.5857 -56.9170 -56.9169 -56.9169  -4.6026  -0.5110  -0.4856  -0.3122
    -0.2900   0.2172   1.1475   3.9387   3.9853   9.0647  10.8651  11.4440
    12.4641  15.2574  17.0880  17.1033  17.1675  19.3187  20.5686  20.7600
    21.0665

          k = 0.3506 0.7071 0.0000 ( 10984 PWs)   bands (ev):

  -108.5857 -56.9170 -56.9169 -56.9169  -4.6026  -0.5110  -0.4856  -0.3123
    -0.2899   0.2172   1.1475   3.9387   3.9853   9.0645  10.8634  11.4458
    12.4644  15.2574  17.0875  17.1037  17.1676  19.3188  20.5687  20.7600
    21.0660

          k = 0.3477 0.7071 0.0000 ( 10984 PWs)   bands (ev):

  -108.5857 -56.9170 -56.9169 -56.9169  -4.6026  -0.5110  -0.4855  -0.3126
    -0.2897   0.2172   1.1475   3.9389   3.9855   9.0638  10.8584  11.4512
    12.4652  15.2572  17.0861  17.1048  17.1677  19.3193  20.5689  20.7601
    21.0645

          k = 0.3447 0.7071 0.0000 ( 10984 PWs)   bands (ev):

  -108.5857 -56.9170 -56.9169 -56.9169  -4.6026  -0.5110  -0.4855  -0.3130
    -0.2893   0.2171   1.1476   3.9391   3.9857   9.0628  10.8503  11.4600
    12.4665  15.2570  17.0841  17.1064  17.1680  19.3201  20.5693  20.7604
    21.0620

          k = 0.3418 0.7071 0.0000 ( 10984 PWs)   bands (ev):

  -108.5857 -56.9170 -56.9169 -56.9169  -4.6026  -0.5110  -0.4854  -0.3136
    -0.2887   0.2169   1.1476   3.9395   3.9859   9.0614  10.8393  11.4720
    12.4684  15.2566  17.0817  17.1082  17.1684  19.3212  20.5699  20.7607
    21.0585

          k = 0.3388 0.7071 0.0000 ( 10980 PWs)   bands (ev):

  -108.5857 -56.9170 -56.9169 -56.9169  -4.6025  -0.5110  -0.4854  -0.3144
    -0.2881   0.2167   1.1477   3.9399   3.9863   9.0595  10.8257  11.4867
    12.4708  15.2562  17.0790  17.1101  17.1690  19.3226  20.5705  20.7611
    21.0541

          k = 0.3359 0.7071 0.0000 ( 10972 PWs)   bands (ev):

  -108.5857 -56.9170 -56.9169 -56.9169  -4.6025  -0.5110  -0.4853  -0.3152
    -0.2873   0.2165   1.1478   3.9405   3.9868   9.0572  10.8099  11.5040
    12.4738  15.2556  17.0762  17.1120  17.1696  19.3244  20.5713  20.7617
    21.0487

          k = 0.3329 0.7071 0.0000 ( 10968 PWs)   bands (ev):

  -108.5857 -56.9170 -56.9169 -56.9169  -4.6025  -0.5110  -0.4852  -0.3162
    -0.2865   0.2163   1.1479   3.9411   3.9873   9.0546  10.7922  11.5234
    12.4772  15.2550  17.0731  17.1140  17.1703  19.3264  20.5722  20.7623
    21.0423

          k = 0.3300 0.7071 0.0000 ( 10976 PWs)   bands (ev):

  -108.5857 -56.9170 -56.9169 -56.9169  -4.6025  -0.5110  -0.4850  -0.3172
    -0.2856   0.2160   1.1480   3.9419   3.9879   9.0515  10.7729  11.5446
    12.4812  15.2542  17.0699  17.1159  17.1712  19.3288  20.5732  20.7630
    21.0351

          k = 0.3270 0.7071 0.0000 ( 10972 PWs)   bands (ev):

  -108.5857 -56.9170 -56.9169 -56.9169  -4.6025  -0.5111  -0.4849  -0.3183
    -0.2846   0.2156   1.1482   3.9427   3.9886   9.0480  10.7523  11.5675
    12.4857  15.2533  17.0666  17.1178  17.1722  19.3314  20.5743  20.7638
    21.0270

          k = 0.3241 0.7071 0.0000 ( 10972 PWs)   bands (ev):

  -108.5857 -56.9170 -56.9169 -56.9169  -4.6025  -0.5111  -0.4847  -0.3194
    -0.2836   0.2153   1.1484   3.9436   3.9893   9.0442  10.7305  11.5918
    12.4908  15.2524  17.0632  17.1196  17.1733  19.3344  20.5754  20.7647
    21.0181

          k = 0.3211 0.7071 0.0000 ( 10972 PWs)   bands (ev):

  -108.5857 -56.9170 -56.9169 -56.9169  -4.6025  -0.5111  -0.4846  -0.3206
    -0.2826   0.2149   1.1485   3.9447   3.9902   9.0399  10.7079  11.6172
    12.4963  15.2513  17.0597  17.1213  17.1745  19.3377  20.5766  20.7657
    21.0085

          k = 0.3182 0.7071 0.0000 ( 10984 PWs)   bands (ev):

  -108.5857 -56.9170 -56.9169 -56.9169  -4.6025  -0.5111  -0.4844  -0.3219
    -0.2816   0.2144   1.1487   3.9458   3.9911   9.0353  10.6844  11.6437
    12.5024  15.2502  17.0561  17.1230  17.1758  19.3412  20.5777  20.7668
    20.9981

          k = 0.3153 0.7071 0.0000 ( 10988 PWs)   bands (ev):

  -108.5857 -56.9170 -56.9169 -56.9169  -4.6025  -0.5112  -0.4841  -0.3232
    -0.2805   0.2139   1.1489   3.9470   3.9921   9.0303  10.6604  11.6710
    12.5089  15.2490  17.0524  17.1247  17.1772  19.3451  20.5788  20.7680
    20.9871

          k = 0.3123 0.7071 0.0000 ( 10988 PWs)   bands (ev):

  -108.5857 -56.9170 -56.9169 -56.9169  -4.6025  -0.5112  -0.4839  -0.3245
    -0.2794   0.2134   1.1492   3.9483   3.9932   9.0249  10.6358  11.6991
    12.5160  15.2476  17.0486  17.1263  17.1788  19.3493  20.5797  20.7693
    20.9756

          k = 0.3094 0.7071 0.0000 ( 10988 PWs)   bands (ev):

  -108.5857 -56.9170 -56.9169 -56.9169  -4.6025  -0.5112  -0.4837  -0.3258
    -0.2783   0.2128   1.1494   3.9497   3.9943   9.0192  10.6109  11.7279
    12.5235  15.2462  17.0447  17.1278  17.1804  19.3537  20.5805  20.7707
    20.9635

          k = 0.3064 0.7071 0.0000 ( 10988 PWs)   bands (ev):

  -108.5857 -56.9170 -56.9169 -56.9169  -4.6025  -0.5113  -0.4834  -0.3271
    -0.2772   0.2122   1.1497   3.9512   3.9956   9.0131  10.5856  11.7573
    12.5315  15.2446  17.0407  17.1292  17.1822  19.3585  20.5810  20.7722
    20.9511

          k = 0.3035 0.7071 0.0000 ( 10984 PWs)   bands (ev):

  -108.5857 -56.9170 -56.9169 -56.9169  -4.6025  -0.5113  -0.4831  -0.3285
    -0.2761   0.2116   1.1500   3.9528   3.9969   9.0067  10.5601  11.7871
    12.5399  15.2430  17.0366  17.1306  17.1840  19.3635  20.5811  20.7738
    20.9385

          k = 0.3005 0.7071 0.0000 ( 10984 PWs)   bands (ev):

  -108.5857 -56.9170 -56.9169 -56.9169  -4.6025  -0.5113  -0.4829  -0.3299
    -0.2750   0.2109   1.1502   3.9545   3.9983   8.9999  10.5343  11.8175
    12.5489  15.2412  17.0325  17.1319  17.1860  19.3688  20.5808  20.7755
    20.9258

          k = 0.2976 0.7071 0.0000 ( 10984 PWs)   bands (ev):

  -108.5857 -56.9170 -56.9169 -56.9169  -4.6025  -0.5114  -0.4825  -0.3313
    -0.2739   0.2102   1.1506   3.9563   3.9997   8.9928  10.5084  11.8483
    12.5583  15.2394  17.0282  17.1332  17.1881  19.3743  20.5798  20.7773
    20.9131

          k = 0.2946 0.7071 0.0000 ( 10996 PWs)   bands (ev):

  -108.5857 -56.9170 -56.9169 -56.9169  -4.6025  -0.5114  -0.4822  -0.3327
    -0.2728   0.2095   1.1509   3.9582   4.0013   8.9854  10.4824  11.8794
    12.5681  15.2375  17.0239  17.1344  17.1902  19.3801  20.5782  20.7792
    20.9007

          k = 0.2917 0.7071-0.0000 ( 10988 PWs)   bands (ev):

  -108.5857 -56.9170 -56.9169 -56.9169  -4.6025  -0.5115  -0.4819  -0.3341
    -0.2717   0.2087   1.1512   3.9601   4.0029   8.9776  10.4563  11.9109
    12.5783  15.2354  17.0195  17.1356  17.1925  19.3862  20.5755  20.7812
    20.8887

          k = 0.2887 0.7071 0.0000 ( 10988 PWs)   bands (ev):

  -108.5857 -56.9170 -56.9169 -56.9169  -4.6025  -0.5115  -0.4815  -0.3356
    -0.2706   0.2079   1.1516   3.9622   4.0046   8.9696  10.4302  11.9427
    12.5890  15.2333  17.0150  17.1367  17.1949  19.3925  20.5718  20.7833
    20.8774

          k = 0.2858 0.7071 0.0000 ( 10988 PWs)   bands (ev):

  -108.5857 -56.9170 -56.9169 -56.9169  -4.6025  -0.5116  -0.4812  -0.3370
    -0.2695   0.2070   1.1519   3.9643   4.0063   8.9613  10.4040  11.9748
    12.6001  15.2311  17.0105  17.1378  17.1973  19.3990  20.5667  20.7855
    20.8670

          k = 0.2828 0.7071 0.0000 ( 10988 PWs)   bands (ev):

  -108.5857 -56.9170 -56.9169 -56.9169  -4.6025  -0.5116  -0.4808  -0.3385
    -0.2684   0.2061   1.1523   3.9665   4.0081   8.9526  10.3778  12.0071
    12.6116  15.2288  17.0058  17.1388  17.1999  19.4058  20.5601  20.7878
    20.8577

          k = 0.2799 0.7071 0.0000 ( 10988 PWs)   bands (ev):

  -108.5857 -56.9170 -56.9169 -56.9169  -4.6025  -0.5117  -0.4804  -0.3399
    -0.2674   0.2052   1.1527   3.9688   4.0100   8.9437  10.3517  12.0397
    12.6235  15.2264  17.0011  17.1398  17.2026  19.4128  20.5519  20.7902
    20.8498

          k = 0.2770 0.7071-0.0000 ( 10988 PWs)   bands (ev):

  -108.5857 -56.9170 -56.9169 -56.9169  -4.6025  -0.5117  -0.4800  -0.3414
    -0.2663   0.2043   1.1531   3.9712   4.0120   8.9346  10.3256  12.0725
    12.6358  15.2239  16.9964  17.1407  17.2053  19.4200  20.5418  20.7927
    20.8432

          k = 0.2740 0.7071 0.0000 ( 10984 PWs)   bands (ev):

  -108.5857 -56.9170 -56.9169 -56.9169  -4.6025  -0.5118  -0.4795  -0.3428
    -0.2652   0.2033   1.1535   3.9737   4.0140   8.9251  10.2996  12.1055
    12.6485  15.2213  16.9915  17.1416  17.2081  19.4273  20.5300  20.7953
    20.8383

          k = 0.2711 0.7071 0.0000 ( 10984 PWs)   bands (ev):

  -108.5857 -56.9170 -56.9169 -56.9169  -4.6024  -0.5119  -0.4791  -0.3443
    -0.2642   0.2023   1.1540   3.9762   4.0161   8.9155  10.2736  12.1386
    12.6615  15.2186  16.9866  17.1424  17.2111  19.4349  20.5163  20.7980
    20.8348

          k = 0.2681 0.7071-0.0000 ( 10984 PWs)   bands (ev):

  -108.5857 -56.9170 -56.9169 -56.9169  -4.6024  -0.5119  -0.4786  -0.3458
    -0.2632   0.2012   1.1544   3.9788   4.0183   8.9056  10.2477  12.1720
    12.6749  15.2158  16.9816  17.1432  17.2141  19.4426  20.5009  20.8008
    20.8330

          k = 0.2652 0.7071 0.0000 ( 10984 PWs)   bands (ev):

  -108.5857 -56.9170 -56.9169 -56.9169  -4.6024  -0.5120  -0.4782  -0.3472
    -0.2621   0.2002   1.1549   3.9815   4.0205   8.8954  10.2219  12.2055
    12.6886  15.2129  16.9765  17.1440  17.2172  19.4504  20.4839  20.8037
    20.8326

          k = 0.2622 0.7071 0.0000 ( 10992 PWs)   bands (ev):

  -108.5857 -56.9170 -56.9169 -56.9169  -4.6024  -0.5121  -0.4777  -0.3487
    -0.2611   0.1991   1.1553   3.9843   4.0228   8.8851  10.1962  12.2392
    12.7027  15.2099  16.9714  17.1448  17.2203  19.4584  20.4654  20.8068
    20.8335

          k = 0.2593 0.7071 0.0000 ( 10992 PWs)   bands (ev):

  -108.5857 -56.9170 -56.9169 -56.9169  -4.6024  -0.5122  -0.4772  -0.3501
    -0.2601   0.1979   1.1558   3.9871   4.0252   8.8745  10.1707  12.2730
    12.7171  15.2069  16.9662  17.1455  17.2236  19.4665  20.4455  20.8099
    20.8357

          k = 0.2563 0.7071 0.0000 ( 10986 PWs)   bands (ev):

  -108.5857 -56.9170 -56.9169 -56.9169  -4.6024  -0.5122  -0.4767  -0.3516
    -0.2591   0.1968   1.1563   3.9901   4.0276   8.8638  10.1452  12.3070
    12.7318  15.2037  16.9610  17.1462  17.2269  19.4746  20.4245  20.8132
    20.8390

          k = 0.2534 0.7071 0.0000 ( 10990 PWs)   bands (ev):

  -108.5857 -56.9170 -56.9169 -56.9169  -4.6024  -0.5123  -0.4761  -0.3531
    -0.2581   0.1956   1.1568   3.9930   4.0301   8.8528  10.1199  12.3410
    12.7468  15.2005  16.9557  17.1468  17.2303  19.4827  20.4025  20.8165
    20.8433

          k = 0.2504 0.7071 0.0000 ( 10990 PWs)   bands (ev):

  -108.5857 -56.9170 -56.9169 -56.9169  -4.6024  -0.5124  -0.4756  -0.3545
    -0.2571   0.1944   1.1573   3.9961   4.0326   8.8417  10.0947  12.3752
    12.7621  15.1971  16.9503  17.1475  17.2338  19.4908  20.3796  20.8200
    20.8485

          k = 0.2475 0.7071 0.0000 ( 10990 PWs)   bands (ev):

  -108.5857 -56.9170 -56.9169 -56.9169  -4.6024  -0.5125  -0.4750  -0.3560
    -0.2562   0.1932   1.1578   3.9992   4.0352   8.8304  10.0697  12.4095
    12.7777  15.1937  16.9449  17.1481  17.2374  19.4989  20.3561  20.8236
    20.8545

          k = 0.2445 0.7071 0.0000 ( 10990 PWs)   bands (ev):

  -108.5857 -56.9170 -56.9169 -56.9169  -4.6024  -0.5126  -0.4745  -0.3575
    -0.2552   0.1919   1.1584   4.0024   4.0379   8.8189  10.0449  12.4439
    12.7936  15.1902  16.9394  17.1488  17.2410  19.5069  20.3321  20.8272
    20.8612

          k = 0.2416 0.7071 0.0000 ( 10994 PWs)   bands (ev):

  -108.5857 -56.9170 -56.9169 -56.9169  -4.6024  -0.5127  -0.4739  -0.3589
    -0.2543   0.1906   1.1589   4.0057   4.0406   8.8073  10.0201  12.4784
    12.8097  15.1866  16.9339  17.1494  17.2446  19.5147  20.3077  20.8310
    20.8686

          k = 0.2386 0.7071 0.0000 ( 10990 PWs)   bands (ev):

  -108.5857 -56.9170 -56.9169 -56.9169  -4.6024  -0.5128  -0.4733  -0.3604
    -0.2534   0.1893   1.1594   4.0090   4.0433   8.7956   9.9956  12.5129
    12.8261  15.1829  16.9283  17.1500  17.2484  19.5223  20.2830  20.8349
    20.8765

          k = 0.2357 0.7071 0.0000 ( 10978 PWs)   bands (ev):

  -108.5857 -56.9170 -56.9169 -56.9169  -4.6024  -0.5129  -0.4727  -0.3618
    -0.2524   0.1880   1.1600   4.0123   4.0461   8.7838   9.9712  12.5476
    12.8427  15.1791  16.9227  17.1506  17.2522  19.5295  20.2583  20.8389
    20.8850

          k = 0.2328 0.7071 0.0000 ( 10988 PWs)   bands (ev):

  -108.5857 -56.9170 -56.9169 -56.9169  -4.6023  -0.5130  -0.4721  -0.3632
    -0.2515   0.1866   1.1606   4.0158   4.0490   8.7718   9.9470  12.5823
    12.8595  15.1752  16.9170  17.1512  17.2561  19.5363  20.2336  20.8431
    20.8940

          k = 0.2298 0.7071 0.0000 ( 10988 PWs)   bands (ev):

  -108.5857 -56.9170 -56.9169 -56.9169  -4.6023  -0.5131  -0.4715  -0.3647
    -0.2506   0.1852   1.1611   4.0193   4.0519   8.7597   9.9230  12.6171
    12.8766  15.1712  16.9112  17.1518  17.2600  19.5426  20.2092  20.8473
    20.9035

          k = 0.2269 0.7071-0.0000 ( 10984 PWs)   bands (ev):

  -108.5857 -56.9170 -56.9169 -56.9169  -4.6023  -0.5132  -0.4709  -0.3661
    -0.2498   0.1839   1.1617   4.0228   4.0549   8.7475   9.8991  12.6520
    12.8938  15.1672  16.9054  17.1524  17.2639  19.5482  20.1852  20.8516
    20.9134

          k = 0.2239 0.7071 0.0000 ( 10980 PWs)   bands (ev):

  -108.5857 -56.9170 -56.9169 -56.9169  -4.6023  -0.5133  -0.4702  -0.3675
    -0.2489   0.1824   1.1623   4.0264   4.0579   8.7352   9.8755  12.6869
    12.9113  15.1630  16.8996  17.1530  17.2680  19.5529  20.1619  20.8561
    20.9236

          k = 0.2210 0.7071 0.0000 ( 10980 PWs)   bands (ev):

  -108.5857 -56.9170 -56.9169 -56.9169  -4.6023  -0.5134  -0.4696  -0.3689
    -0.2480   0.1810   1.1629   4.0300   4.0609   8.7229   9.8520  12.7219
    12.9290  15.1588  16.8937  17.1537  17.2720  19.5566  20.1394  20.8607
    20.9343

          k = 0.2180 0.7071 0.0000 ( 10980 PWs)   bands (ev):

  -108.5857 -56.9170 -56.9169 -56.9169  -4.6023  -0.5135  -0.4689  -0.3703
    -0.2472   0.1796   1.1635   4.0337   4.0640   8.7104   9.8288  12.7569
    12.9468  15.1545  16.8878  17.1543  17.2761  19.5591  20.1181  20.8653
    20.9453

          k = 0.2151 0.7071 0.0000 ( 10980 PWs)   bands (ev):

  -108.5857 -56.9170 -56.9169 -56.9169  -4.6023  -0.5136  -0.4682  -0.3717
    -0.2464   0.1781   1.1641   4.0374   4.0671   8.6980   9.8057  12.7919
    12.9648  15.1501  16.8818  17.1550  17.2803  19.5600  20.0981  20.8701
    20.9567

          k = 0.2121 0.7071 0.0000 ( 10988 PWs)   bands (ev):

  -108.5857 -56.9170 -56.9169 -56.9169  -4.6023  -0.5137  -0.4675  -0.3731
    -0.2455   0.1766   1.1647   4.0412   4.0703   8.6854   9.7829  12.8270
    12.9830  15.1456  16.8758  17.1557  17.2845  19.5592  20.0797  20.8750
    20.9683

          k = 0.2092 0.7071 0.0000 ( 10986 PWs)   bands (ev):

  -108.5857 -56.9170 -56.9169 -56.9169  -4.6023  -0.5138  -0.4669  -0.3744
    -0.2447   0.1751   1.1653   4.0450   4.0735   8.6728   9.7603  12.8621
    13.0013  15.1410  16.8698  17.1564  17.2887  19.5565  20.0634  20.8800
    20.9803

          k = 0.2062 0.7071 0.0000 ( 10990 PWs)   bands (ev):

  -108.5857 -56.9170 -56.9169 -56.9169  -4.6023  -0.5139  -0.4662  -0.3758
    -0.2439   0.1736   1.1659   4.0488   4.0767   8.6602   9.7378  12.8972
    13.0198  15.1363  16.8637  17.1571  17.2930  19.5514  20.0492  20.8851
    20.9926

          k = 0.2033 0.7071-0.0000 ( 10990 PWs)   bands (ev):

  -108.5857 -56.9170 -56.9169 -56.9169  -4.6022  -0.5141  -0.4655  -0.3772
    -0.2432   0.1721   1.1665   4.0527   4.0800   8.6475   9.7156  12.9324
    13.0384  15.1316  16.8575  17.1579  17.2972  19.5440  20.0374  20.8903
    21.0051

          k = 0.2003 0.7071 0.0000 ( 10990 PWs)   bands (ev):

  -108.5857 -56.9170 -56.9169 -56.9169  -4.6022  -0.5142  -0.4648  -0.3785
    -0.2424   0.1706   1.1671   4.0566   4.0832   8.6349   9.6936  12.9675
    13.0571  15.1267  16.8513  17.1587  17.3016  19.5340  20.0281  20.8956
    21.0179

          k = 0.1974 0.7071 0.0000 ( 10986 PWs)   bands (ev):

  -108.5857 -56.9170 -56.9169 -56.9169  -4.6022  -0.5143  -0.4640  -0.3798
    -0.2416   0.1690   1.1678   4.0606   4.0866   8.6222   9.6719  13.0027
    13.0759  15.1218  16.8451  17.1596  17.3059  19.5213  20.0215  20.9010
    21.0310

          k = 0.1945 0.7071 0.0000 ( 10986 PWs)   bands (ev):

  -108.5857 -56.9170 -56.9169 -56.9169  -4.6022  -0.5145  -0.4633  -0.3811
    -0.2409   0.1675   1.1684   4.0645   4.0899   8.6095   9.6503  13.0378
    13.0949  15.1168  16.8389  17.1605  17.3103  19.5061  20.0176  20.9065
    21.0443

          k = 0.1915 0.7071 0.0000 ( 10978 PWs)   bands (ev):

  -108.5857 -56.9170 -56.9169 -56.9169  -4.6022  -0.5146  -0.4626  -0.3824
    -0.2402   0.1659   1.1690   4.0685   4.0933   8.5968   9.6290  13.0730
    13.1139  15.1117  16.8326  17.1615  17.3146  19.4884  20.0161  20.9120
    21.0579

          k = 0.1886 0.7071 0.0000 ( 10982 PWs)   bands (ev):

  -108.5857 -56.9170 -56.9169 -56.9169  -4.6022  -0.5147  -0.4618  -0.3837
    -0.2394   0.1644   1.1696   4.0725   4.0967   8.5842   9.6080  13.1081
    13.1330  15.1065  16.8263  17.1625  17.3190  19.4685  20.0170  20.9176
    21.0717

          k = 0.1856 0.7071 0.0000 ( 10982 PWs)   bands (ev):

  -108.5857 -56.9170 -56.9169 -56.9169  -4.6022  -0.5149  -0.4611  -0.3850
    -0.2387   0.1628   1.1703   4.0766   4.1001   8.5715   9.5872  13.1432
    13.1522  15.1012  16.8199  17.1635  17.3234  19.4464  20.0201  20.9233
    21.0857

          k = 0.1827 0.7071 0.0000 ( 10982 PWs)   bands (ev):

  -108.5857 -56.9170 -56.9169 -56.9169  -4.6022  -0.5150  -0.4604  -0.3863
    -0.2380   0.1612   1.1709   4.0806   4.1035   8.5589   9.5666  13.1715
    13.1783  15.0959  16.8135  17.1647  17.3278  19.4226  20.0251  20.9290
    21.0999

          k = 0.1797 0.7071 0.0000 ( 10982 PWs)   bands (ev):

  -108.5857 -56.9170 -56.9169 -56.9169  -4.6022  -0.5151  -0.4596  -0.3875
    -0.2374   0.1596   1.1715   4.0847   4.1070   8.5464   9.5462  13.1908
    13.2133  15.0904  16.8071  17.1659  17.3323  19.3970  20.0319  20.9348
    21.1143

          k = 0.1768 0.7071 0.0000 ( 10982 PWs)   bands (ev):

  -108.5857 -56.9170 -56.9169 -56.9169  -4.6021  -0.5153  -0.4589  -0.3887
    -0.2367   0.1580   1.1721   4.0887   4.1104   8.5338   9.5262  13.2102
    13.2483  15.0849  16.8006  17.1671  17.3367  19.3701  20.0402  20.9404
    21.1290

          k = 0.1738 0.7071 0.0000 ( 10988 PWs)   bands (ev):

  -108.5857 -56.9170 -56.9169 -56.9169  -4.6021  -0.5154  -0.4581  -0.3900
    -0.2360   0.1565   1.1728   4.0928   4.1139   8.5214   9.5063  13.2296
    13.2833  15.0793  16.7941  17.1684  17.3411  19.3420  20.0498  20.9460
    21.1336

          k = 0.1709 0.7071 0.0000 ( 10988 PWs)   bands (ev):

  -108.5857 -56.9170 -56.9169 -56.9169  -4.6021  -0.5156  -0.4573  -0.3912
    -0.2354   0.1549   1.1734   4.0969   4.1174   8.5089   9.4867  13.2491
    13.3182  15.0736  16.7876  17.1698  17.3455  19.3128  20.0607  20.9514
    21.1166

          k = 0.1679 0.7071 0.0000 ( 10986 PWs)   bands (ev):

  -108.5857 -56.9170 -56.9169 -56.9169  -4.6021  -0.5157  -0.4566  -0.3924
    -0.2348   0.1533   1.1740   4.1010   4.1209   8.4966   9.4674  13.2685
    13.3530  15.0678  16.7811  17.1713  17.3500  19.2828  20.0725  20.9565
    21.1002

          k = 0.1650 0.7071 0.0000 ( 10990 PWs)   bands (ev):

  -108.5857 -56.9170 -56.9169 -56.9169  -4.6021  -0.5159  -0.4558  -0.3935
    -0.2341   0.1517   1.1746   4.1051   4.1244   8.4843   9.4483  13.2880
    13.3878  15.0620  16.7745  17.1729  17.3544  19.2520  20.0854  20.9610
    21.0846

          k = 0.1620 0.7071 0.0000 ( 10994 PWs)   bands (ev):

  -108.5857 -56.9170 -56.9169 -56.9169  -4.6021  -0.5160  -0.4550  -0.3947
    -0.2335   0.1501   1.1752   4.1092   4.1279   8.4721   9.4296  13.3075
    13.4224  15.0560  16.7679  17.1746  17.3588  19.2205  20.0990  20.9645
    21.0702

          k = 0.1591 0.7071 0.0000 ( 10990 PWs)   bands (ev):

  -108.5857 -56.9170 -56.9169 -56.9169  -4.6021  -0.5162  -0.4543  -0.3958
    -0.2329   0.1485   1.1758   4.1133   4.1314   8.4600   9.4110  13.3270
    13.4570  15.0500  16.7612  17.1763  17.3632  19.1886  20.1134  20.9665
    21.0577

          k = 0.1562 0.7071 0.0000 ( 10990 PWs)   bands (ev):

  -108.5857 -56.9170 -56.9169 -56.9169  -4.6021  -0.5163  -0.4535  -0.3969
    -0.2324   0.1469   1.1765   4.1174   4.1348   8.4480   9.3928  13.3465
    13.4915  15.0439  16.7545  17.1782  17.3675  19.1561  20.1285  20.9659
    21.0481

          k = 0.1532 0.7071 0.0000 ( 10990 PWs)   bands (ev):

  -108.5857 -56.9170 -56.9169 -56.9169  -4.6021  -0.5165  -0.4527  -0.3980
    -0.2318   0.1454   1.1771   4.1214   4.1383   8.4361   9.3748  13.3660
    13.5259  15.0377  16.7478  17.1801  17.3719  19.1233  20.1442  20.9619
    21.0421

          k = 0.1503 0.7071 0.0000 ( 10990 PWs)   bands (ev):

  -108.5857 -56.9170 -56.9169 -56.9169  -4.6021  -0.5166  -0.4520  -0.3991
    -0.2312   0.1438   1.1777   4.1255   4.1418   8.4243   9.3571  13.3854
    13.5602  15.0315  16.7411  17.1822  17.3762  19.0902  20.1604  20.9543
    21.0401

          k = 0.1473 0.7071 0.0000 ( 10990 PWs)   bands (ev):

  -108.5857 -56.9170 -56.9169 -56.9169  -4.6020  -0.5168  -0.4512  -0.4002
    -0.2307   0.1422   1.1783   4.1295   4.1453   8.4126   9.3397  13.4049
    13.5943  15.0252  16.7343  17.1844  17.3805  19.0569  20.1772  20.9439
    21.0413

          k = 0.1444 0.7071 0.0000 ( 10986 PWs)   bands (ev):

  -108.5857 -56.9170 -56.9169 -56.9169  -4.6020  -0.5170  -0.4504  -0.4012
    -0.2301   0.1407   1.1789   4.1335   4.1487   8.4011   9.3225  13.4242
    13.6283  15.0187  16.7275  17.1867  17.3848  19.0233  20.1944  20.9314
    21.0447

          k = 0.1414 0.7071 0.0000 ( 10978 PWs)   bands (ev):

  -108.5857 -56.9170 -56.9169 -56.9169  -4.6020  -0.5171  -0.4497  -0.4023
    -0.2296   0.1391   1.1794   4.1375   4.1521   8.3896   9.3057  13.4435
    13.6621  15.0122  16.7207  17.1891  17.3890  18.9896  20.2120  20.9178
    21.0497

          k = 0.1385 0.7071-0.0000 ( 10978 PWs)   bands (ev):

  -108.5857 -56.9170 -56.9169 -56.9169  -4.6020  -0.5173  -0.4489  -0.4033
    -0.2291   0.1376   1.1800   4.1415   4.1556   8.3783   9.2891  13.4628
    13.6958  15.0057  16.7139  17.1917  17.3932  18.9557  20.2301  20.9036
    21.0557

          k = 0.1355 0.7071-0.0000 ( 10982 PWs)   bands (ev):

  -108.5857 -56.9170 -56.9169 -56.9169  -4.6020  -0.5174  -0.4482  -0.4043
    -0.2286   0.1361   1.1806   4.1454   4.1590   8.3672   9.2728  13.4820
    13.7293  14.9990  16.7070  17.1943  17.3974  18.9218  20.2485  20.8891
    21.0623

          k = 0.1326 0.7071 0.0000 ( 10982 PWs)   bands (ev):

  -108.5857 -56.9170 -56.9169 -56.9169  -4.6020  -0.5176  -0.4474  -0.4052
    -0.2281   0.1345   1.1812   4.1494   4.1623   8.3561   9.2569  13.5011
    13.7626  14.9923  16.7001  17.1972  17.4015  18.8878  20.2673  20.8744
    21.0694

          k = 0.1296 0.7071 0.0000 ( 10982 PWs)   bands (ev):

  -108.5857 -56.9170 -56.9169 -56.9169  -4.6020  -0.5178  -0.4467  -0.4062
    -0.2276   0.1331   1.1817   4.1532   4.1657   8.3453   9.2412  13.5201
    13.7958  14.9855  16.6932  17.2001  17.4056  18.8538  20.2864  20.8597
    21.0769

          k = 0.1267 0.7071 0.0000 ( 10982 PWs)   bands (ev):

  -108.5857 -56.9170 -56.9169 -56.9169  -4.6020  -0.5179  -0.4459  -0.4071
    -0.2272   0.1316   1.1823   4.1571   4.1690   8.3346   9.2258  13.5391
    13.8287  14.9787  16.6862  17.2032  17.4096  18.8198  20.3059  20.8451
    21.0847

          k = 0.1237 0.7071-0.0000 ( 10980 PWs)   bands (ev):

  -108.5857 -56.9170 -56.9169 -56.9169  -4.6020  -0.5181  -0.4452  -0.4080
    -0.2267   0.1301   1.1828   4.1609   4.1723   8.3240   9.2107  13.5579
    13.8614  14.9718  16.6792  17.2065  17.4136  18.7859  20.3257  20.8306
    21.0927

          k = 0.1208 0.7071 0.0000 ( 10984 PWs)   bands (ev):

  -108.5857 -56.9170 -56.9169 -56.9169  -4.6020  -0.5183  -0.4445  -0.4089
    -0.2263   0.1287   1.1834   4.1646   4.1755   8.3136   9.1960  13.5766
    13.8938  14.9648  16.6723  17.2099  17.4175  18.7520  20.3458  20.8163
    21.1009

          k = 0.1179 0.7071 0.0000 ( 10984 PWs)   bands (ev):

  -108.5857 -56.9170 -56.9169 -56.9169  -4.6019  -0.5184  -0.4438  -0.4098
    -0.2259   0.1272   1.1839   4.1683   4.1787   8.3034   9.1815  13.5952
    13.9260  14.9577  16.6653  17.2135  17.4214  18.7182  20.3661  20.8022
    21.1093

          k = 0.1149 0.7071-0.0000 ( 10984 PWs)   bands (ev):

  -108.5857 -56.9170 -56.9169 -56.9169  -4.6019  -0.5186  -0.4430  -0.4107
    -0.2254   0.1258   1.1844   4.1720   4.1819   8.2934   9.1674  13.6137
    13.9579  14.9506  16.6582  17.2173  17.4253  18.6845  20.3868  20.7883
    21.1178

          k = 0.1120 0.7071-0.0000 ( 10984 PWs)   bands (ev):

  -108.5857 -56.9170 -56.9169 -56.9169  -4.6019  -0.5187  -0.4423  -0.4115
    -0.2250   0.1244   1.1849   4.1756   4.1851   8.2835   9.1536  13.6320
    13.9895  14.9435  16.6512  17.2213  17.4290  18.6510  20.4077  20.7747
    21.1265

          k = 0.1090 0.7071 0.0000 ( 10976 PWs)   bands (ev):

  -108.5857 -56.9170 -56.9169 -56.9169  -4.6019  -0.5189  -0.4416  -0.4123
    -0.2246   0.1230   1.1854   4.1792   4.1881   8.2739   9.1401  13.6502
    14.0209  14.9363  16.6442  17.2254  17.4327  18.6176  20.4289  20.7613
    21.1353

          k = 0.1061 0.7071 0.0000 ( 10984 PWs)   bands (ev):

  -108.5857 -56.9170 -56.9169 -56.9169  -4.6019  -0.5191  -0.4410  -0.4131
    -0.2242   0.1217   1.1859   4.1827   4.1912   8.2644   9.1269  13.6682
    14.0518  14.9290  16.6371  17.2297  17.4364  18.5844  20.4503  20.7481
    21.1442

          k = 0.1031 0.7071-0.0000 ( 10984 PWs)   bands (ev):

  -108.5857 -56.9170 -56.9169 -56.9169  -4.6019  -0.5192  -0.4403  -0.4139
    -0.2239   0.1204   1.1864   4.1861   4.1942   8.2552   9.1140  13.6860
    14.0825  14.9217  16.6300  17.2342  17.4399  18.5514  20.4719  20.7353
    21.1532

          k = 0.1002 0.7071 0.0000 ( 10976 PWs)   bands (ev):

  -108.5857 -56.9170 -56.9169 -56.9169  -4.6019  -0.5194  -0.4396  -0.4146
    -0.2235   0.1191   1.1869   4.1895   4.1971   8.2461   9.1015  13.7037
    14.1128  14.9143  16.6230  17.2390  17.4434  18.5186  20.4938  20.7227
    21.1623

          k = 0.0972 0.7071 0.0000 ( 10976 PWs)   bands (ev):

  -108.5857 -56.9170 -56.9169 -56.9169  -4.6019  -0.5195  -0.4390  -0.4153
    -0.2232   0.1178   1.1873   4.1928   4.2000   8.2372   9.0893  13.7211
    14.1427  14.9070  16.6159  17.2439  17.4469  18.4860  20.5160  20.7104
    21.1715

          k = 0.0943 0.7071-0.0000 ( 10976 PWs)   bands (ev):

  -108.5857 -56.9170 -56.9169 -56.9169  -4.6019  -0.5197  -0.4383  -0.4160
    -0.2228   0.1165   1.1878   4.1961   4.2029   8.2286   9.0774  13.7384
    14.1722  14.8995  16.6089  17.2491  17.4502  18.4537  20.5383  20.6985
    21.1807

          k = 0.0913 0.7071-0.0000 ( 10976 PWs)   bands (ev):

  -108.5857 -56.9170 -56.9169 -56.9169  -4.6019  -0.5198  -0.4377  -0.4167
    -0.2225   0.1153   1.1882   4.1993   4.2056   8.2202   9.0659  13.7554
    14.2012  14.8921  16.6019  17.2544  17.4535  18.4217  20.5609  20.6868
    21.1900

          k = 0.0884 0.7071 0.0000 ( 10980 PWs)   bands (ev):

  -108.5857 -56.9170 -56.9169 -56.9169  -4.6019  -0.5200  -0.4371  -0.4174
    -0.2222   0.1141   1.1887   4.2024   4.2083   8.2120   9.0547  13.7722
    14.2298  14.8847  16.5948  17.2600  17.4567  18.3899  20.5837  20.6755
    21.1994

          k = 0.0854 0.7071 0.0000 ( 10972 PWs)   bands (ev):

  -108.5857 -56.9170 -56.9169 -56.9169  -4.6019  -0.5201  -0.4365  -0.4180
    -0.2219   0.1130   1.1891   4.2054   4.2110   8.2040   9.0438  13.7888
    14.2580  14.8772  16.5879  17.2659  17.4598  18.3585  20.6067  20.6644
    21.2088

          k = 0.0825 0.7071 0.0000 ( 10972 PWs)   bands (ev):

  -108.5857 -56.9170 -56.9169 -56.9169  -4.6018  -0.5203  -0.4359  -0.4186
    -0.2216   0.1118   1.1895   4.2084   4.2136   8.1963   9.0333  13.8051
    14.2856  14.8697  16.5809  17.2720  17.4628  18.3274  20.6299  20.6537
    21.2182

          k = 0.0795 0.7071-0.0000 ( 10970 PWs)   bands (ev):

  -108.5857 -56.9170 -56.9169 -56.9169  -4.6018  -0.5204  -0.4353  -0.4192
    -0.2213   0.1107   1.1899   4.2112   4.2161   8.1888   9.0232  13.8212
    14.3127  14.8623  16.5740  17.2783  17.4658  18.2966  20.6434  20.6533
    21.2276

          k = 0.0766 0.7071 0.0000 ( 10970 PWs)   bands (ev):

  -108.5857 -56.9170 -56.9169 -56.9169  -4.6018  -0.5206  -0.4348  -0.4198
    -0.2210   0.1096   1.1903   4.2140   4.2185   8.1815   9.0134  13.8370
    14.3392  14.8548  16.5671  17.2849  17.4686  18.2662  20.6333  20.6770
    21.2371

          k = 0.0737 0.7071 0.0000 ( 10974 PWs)   bands (ev):

  -108.5857 -56.9170 -56.9169 -56.9169  -4.6018  -0.5207  -0.4342  -0.4204
    -0.2207   0.1086   1.1906   4.2167   4.2209   8.1744   9.0039  13.8524
    14.3652  14.8474  16.5603  17.2918  17.4714  18.2362  20.6237  20.7008
    21.2465

          k = 0.0707 0.7071-0.0000 ( 10974 PWs)   bands (ev):

  -108.5857 -56.9170 -56.9169 -56.9169  -4.6018  -0.5208  -0.4337  -0.4209
    -0.2205   0.1076   1.1910   4.2194   4.2232   8.1677   8.9948  13.8676
    14.3905  14.8400  16.5536  17.2989  17.4741  18.2066  20.6143  20.7248
    21.2559

          k = 0.0678 0.7071 0.0000 ( 10974 PWs)   bands (ev):

  -108.5857 -56.9170 -56.9169 -56.9169  -4.6018  -0.5210  -0.4332  -0.4214
    -0.2202   0.1066   1.1913   4.2219   4.2254   8.1611   8.9860  13.8824
    14.4152  14.8327  16.5470  17.3063  17.4767  18.1774  20.6053  20.7490
    21.2653

          k = 0.0648 0.7071 0.0000 ( 10982 PWs)   bands (ev):

  -108.5857 -56.9170 -56.9169 -56.9169  -4.6018  -0.5211  -0.4327  -0.4219
    -0.2200   0.1057   1.1917   4.2243   4.2276   8.1548   8.9776  13.8969
    14.4391  14.8255  16.5404  17.3140  17.4791  18.1486  20.5967  20.7734
    21.2746

          k = 0.0619 0.7071 0.0000 ( 10980 PWs)   bands (ev):

  -108.5857 -56.9170 -56.9169 -56.9169  -4.6018  -0.5212  -0.4322  -0.4224
    -0.2198   0.1048   1.1920   4.2267   4.2297   8.1488   8.9696  13.9110
    14.4624  14.8183  16.5340  17.3219  17.4815  18.1203  20.5884  20.7980
    21.2839

          k = 0.0589 0.7071 0.0000 ( 10984 PWs)   bands (ev):

  -108.5857 -56.9170 -56.9169 -56.9169  -4.6018  -0.5213  -0.4318  -0.4228
    -0.2196   0.1039   1.1923   4.2289   4.2316   8.1430   8.9619  13.9247
    14.4849  14.8112  16.5277  17.3302  17.4838  18.0925  20.5805  20.8227
    21.2930

          k = 0.0560 0.7071 0.0000 ( 10976 PWs)   bands (ev):

  -108.5857 -56.9170 -56.9169 -56.9169  -4.6018  -0.5214  -0.4313  -0.4232
    -0.2194   0.1031   1.1926   4.2311   4.2335   8.1375   8.9546  13.9379
    14.5067  14.8043  16.5215  17.3387  17.4860  18.0652  20.5729  20.8476
    21.3021

          k = 0.0530 0.7071 0.0000 ( 10972 PWs)   bands (ev):

  -108.5857 -56.9170 -56.9169 -56.9169  -4.6018  -0.5215  -0.4309  -0.4236
    -0.2192   0.1023   1.1929   4.2332   4.2353   8.1323   8.9476  13.9508
    14.5276  14.7975  16.5155  17.3475  17.4881  18.0384  20.5658  20.8727
    21.3110

          k = 0.0501 0.7071-0.0000 ( 10972 PWs)   bands (ev):

  -108.5857 -56.9170 -56.9169 -56.9169  -4.6018  -0.5216  -0.4305  -0.4240
    -0.2190   0.1015   1.1931   4.2351   4.2371   8.1273   8.9410  13.9632
    14.5477  14.7908  16.5096  17.3566  17.4901  18.0121  20.5590  20.8980
    21.3198

          k = 0.0471 0.7071-0.0000 ( 10972 PWs)   bands (ev):

  -108.5857 -56.9170 -56.9169 -56.9169  -4.6018  -0.5217  -0.4301  -0.4244
    -0.2188   0.1008   1.1934   4.2370   4.2387   8.1226   8.9348  13.9751
    14.5668  14.7843  16.5040  17.3660  17.4920  17.9864  20.5525  20.9234
    21.3284

          k = 0.0442 0.7071 0.0000 ( 10968 PWs)   bands (ev):

  -108.5857 -56.9170 -56.9169 -56.9169  -4.6018  -0.5218  -0.4298  -0.4247
    -0.2187   0.1002   1.1936   4.2387   4.2402   8.1182   8.9289  13.9865
    14.5851  14.7780  16.4985  17.3757  17.4937  17.9613  20.5465  20.9490
    21.3368

          k = 0.0412 0.7071 0.0000 ( 10968 PWs)   bands (ev):

  -108.5857 -56.9170 -56.9169 -56.9169  -4.6018  -0.5219  -0.4295  -0.4250
    -0.2185   0.0995   1.1938   4.2404   4.2417   8.1140   8.9234  13.9974
    14.6024  14.7720  16.4933  17.3856  17.4954  17.9369  20.5408  20.9747
    21.3450

          k = 0.0383 0.7071 0.0000 ( 10964 PWs)   bands (ev):

  -108.5857 -56.9170 -56.9169 -56.9169  -4.6018  -0.5220  -0.4291  -0.4253
    -0.2184   0.0989   1.1940   4.2419   4.2431   8.1101   8.9183  14.0077
    14.6187  14.7661  16.4884  17.3958  17.4969  17.9131  20.5355  21.0006
    21.3529

          k = 0.0354 0.7071 0.0000 ( 10966 PWs)   bands (ev):

  -108.5857 -56.9170 -56.9169 -56.9169  -4.6018  -0.5221  -0.4288  -0.4256
    -0.2183   0.0984   1.1942   4.2433   4.2443   8.1065   8.9136  14.0174
    14.6339  14.7606  16.4836  17.4061  17.4984  17.8900  20.5305  21.0266
    21.3604

          k = 0.0324 0.7071 0.0000 ( 10966 PWs)   bands (ev):

  -108.5857 -56.9170 -56.9169 -56.9169  -4.6018  -0.5221  -0.4286  -0.4258
    -0.2182   0.0979   1.1944   4.2447   4.2455   8.1032   8.9092  14.0264
    14.6481  14.7554  16.4792  17.4167  17.4997  17.8678  20.5260  21.0527
    21.3677

          k = 0.0295 0.7071 0.0000 ( 10966 PWs)   bands (ev):

  -108.5857 -56.9170 -56.9169 -56.9169  -4.6018  -0.5222  -0.4283  -0.4261
    -0.2180   0.0974   1.1945   4.2459   4.2465   8.1002   8.9052  14.0348
    14.6612  14.7505  16.4751  17.4274  17.5009  17.8463  20.5219  21.0789
    21.3745

          k = 0.0265 0.7071-0.0000 ( 10962 PWs)   bands (ev):

  -108.5857 -56.9170 -56.9169 -56.9169  -4.6018  -0.5223  -0.4281  -0.4263
    -0.2180   0.0970   1.1947   4.2470   4.2475   8.0974   8.9016  14.0426
    14.6731  14.7459  16.4713  17.4382  17.5020  17.8257  20.5181  21.1052
    21.3809

          k = 0.0236 0.7071 0.0000 ( 10962 PWs)   bands (ev):

  -108.5857 -56.9170 -56.9169 -56.9169  -4.6018  -0.5223  -0.4279  -0.4265
    -0.2179   0.0966   1.1948   4.2480   4.2484   8.0950   8.8984  14.0496
    14.6839  14.7418  16.4679  17.4489  17.5030  17.8062  20.5148  21.1315
    21.3868

          k = 0.0206 0.7071 0.0000 ( 10956 PWs)   bands (ev):

  -108.5857 -56.9170 -56.9169 -56.9169  -4.6017  -0.5224  -0.4277  -0.4266
    -0.2178   0.0963   1.1949   4.2488   4.2492   8.0928   8.8955  14.0558
    14.6935  14.7380  16.4648  17.4595  17.5039  17.7878  20.5118  21.1579
    21.3922

          k = 0.0177 0.7071 0.0000 ( 10952 PWs)   bands (ev):

  -108.5857 -56.9170 -56.9169 -56.9169  -4.6017  -0.5224  -0.4276  -0.4268
    -0.2177   0.0960   1.1950   4.2496   4.2498   8.0909   8.8931  14.0613
    14.7018  14.7347  16.4621  17.4697  17.5047  17.7708  20.5092  21.1841
    21.3970

          k = 0.0147 0.7071 0.0000 ( 10950 PWs)   bands (ev):

  -108.5857 -56.9170 -56.9169 -56.9169  -4.6017  -0.5224  -0.4274  -0.4269
    -0.2177   0.0957   1.1951   4.2502   4.2504   8.0893   8.8910  14.0660
    14.7089  14.7319  16.4598  17.4794  17.5053  17.7554  20.5070  21.2100
    21.4012

          k = 0.0118 0.7071 0.0000 ( 10950 PWs)   bands (ev):

  -108.5857 -56.9170 -56.9169 -56.9169  -4.6017  -0.5225  -0.4273  -0.4270
    -0.2176   0.0955   1.1952   4.2507   4.2509   8.0880   8.8892  14.0699
    14.7148  14.7295  16.4579  17.4882  17.5058  17.7418  20.5052  21.2355
    21.4046

          k = 0.0088 0.7071 0.0000 ( 10950 PWs)   bands (ev):

  -108.5857 -56.9170 -56.9169 -56.9169  -4.6017  -0.5225  -0.4273  -0.4270
    -0.2176   0.0954   1.1952   4.2512   4.2512   8.0870   8.8879  14.0729
    14.7193  14.7277  16.4564  17.4958  17.5062  17.7306  20.5038  21.2599
    21.4074

          k = 0.0059 0.7071-0.0000 ( 10950 PWs)   bands (ev):

  -108.5857 -56.9170 -56.9169 -56.9169  -4.6017  -0.5225  -0.4272  -0.4271
    -0.2176   0.0953   1.1953   4.2514   4.2515   8.0862   8.8870  14.0751
    14.7226  14.7263  16.4553  17.5017  17.5065  17.7220  20.5028  21.2821
    21.4094

          k = 0.0029 0.7071 0.0000 ( 10950 PWs)   bands (ev):

  -108.5857 -56.9170 -56.9169 -56.9169  -4.6017  -0.5225  -0.4272  -0.4271
    -0.2175   0.0952   1.1953   4.2516   4.2516   8.0858   8.8864  14.0764
    14.7246  14.7255  16.4546  17.5055  17.5067  17.7167  20.5023  21.2994
    21.4106

          k = 0.0000 0.7071 0.0000 ( 10950 PWs)   bands (ev):

  -108.5857 -56.9170 -56.9169 -56.9169  -4.6017  -0.5225  -0.4271  -0.4271
    -0.2175   0.0952   1.1953   4.2517   4.2517   8.0856   8.8862  14.0769
    14.7252  14.7252  16.4544  17.5068  17.5068  17.7148  20.5021  21.3065
    21.4110

     Writing all to output data dir /home/User/opencode_workspace/DFT/calculations/hgte/production_bands_nosoc/out/pwscf.save/ :
     XML data file, pseudopotentials, collected wavefunctions

     init_run     :      0.86s CPU      1.02s WALL (       1 calls)
     electrons    :   1023.42s CPU   1136.55s WALL (       1 calls)

     Called by init_run:
     wfcinit      :      0.00s CPU      0.00s WALL (       1 calls)
     wfcinit:atom :      0.44s CPU      0.47s WALL (    1401 calls)
     wfcinit:wfcr :     26.78s CPU     30.36s WALL (    1401 calls)
     potinit      :      0.17s CPU      0.18s WALL (       1 calls)
     hinit0       :      0.30s CPU      0.32s WALL (       1 calls)

     Called by electrons:
     c_bands      :   1023.40s CPU   1136.47s WALL (       1 calls)
     v_of_rho     :      0.03s CPU      0.04s WALL (       1 calls)
     v_h          :      0.00s CPU      0.00s WALL (       1 calls)
     v_xc         :      0.03s CPU      0.03s WALL (       1 calls)
     newd         :      0.14s CPU      0.24s WALL (       1 calls)

     Called by c_bands:
     init_us_2    :      0.64s CPU      0.77s WALL (    1401 calls)
     cegterg      :    992.06s CPU   1100.11s WALL (    4689 calls)

     Called by sum_band:

     Called by *egterg:
     cdiaghg      :     48.87s CPU     50.08s WALL (   82816 calls)
     cegterg:over :     63.86s CPU     67.69s WALL (   81415 calls)
     cegterg:upda :     26.75s CPU     27.19s WALL (   81415 calls)
     cegterg:last :     64.29s CPU     64.67s WALL (   44626 calls)
     h_psi        :    762.96s CPU    867.52s WALL (   87505 calls)
     s_psi        :     15.16s CPU     15.79s WALL (   87505 calls)
     g_psi        :      9.37s CPU      9.52s WALL (   81415 calls)

     Called by h_psi:
     h_psi:calbec :     33.32s CPU     36.98s WALL (   87505 calls)
     vloc_psi     :    708.79s CPU    808.42s WALL (   87505 calls)
                                        0.00s GPU  (   87505 calls)
     add_vuspsi   :     17.23s CPU     18.47s WALL (   87505 calls)

     General routines
     calbec       :     32.98s CPU     36.64s WALL (   87505 calls)
     fft          :      0.09s CPU      0.10s WALL (      13 calls)
     ffts         :      0.13s CPU      0.13s WALL (       1 calls)
     fftw         :    652.91s CPU    745.11s WALL ( 2164634 calls)
     interpolate  :      0.13s CPU      0.13s WALL (       1 calls)
     davcio       :      0.38s CPU      1.59s WALL (    2802 calls)

     Parallel routines

     PWSCF        :  17m 9.72s CPU  19m22.08s WALL


   This run was terminated on:   0:35:41  23Sep2026            

=------------------------------------------------------------------------------=
   JOB DONE.
=------------------------------------------------------------------------------=
