
     Program PWSCF v.7.5 starts on 22Sep2026 at 19:14:33 

     This program is part of the open-source Quantum ESPRESSO suite
     for quantum simulation of materials; please cite
         "P. Giannozzi et al., J. Phys.:Condens. Matter 21 395502 (2009);
         "P. Giannozzi et al., J. Phys.:Condens. Matter 29 465901 (2017);
         "P. Giannozzi et al., J. Chem. Phys. 152 154105 (2020);
          URL http://www.quantum-espresso.org", 
     in publications or presentations arising from this work. More details at
     http://www.quantum-espresso.org/quote

     Parallel version (MPI & OpenMP), running on       6 processor cores
     Number of MPI processes:                 6
     Threads/MPI process:                     1

     MPI processes distributed on     1 nodes
     2123 MiB available memory on the printing compute node when the environment starts

     Reading input from pw.in

     Current dimensions of program PWSCF are:
     Max number of different atomic species (ntypx) = 10
     Max number of k-points (npk) =  40000
     Max angular momentum in pseudopotentials (lmaxx) =  4
     file Hg.pbe-spn-rrkjus_psl.1.0.0.UPF: wavefunction(s)  5P renormalized
     file Te.pbe-n-rrkjus_psl.1.0.0.UPF: wavefunction(s)  5S renormalized

     Atomic positions and unit cell read from directory:
     /home/User/opencode_workspace/DFT/calculations/hgte/conv_nscf_e40/out/pwscf.save/

     Message from routine setup:
     using ibrav=0 with symmetry is DISCOURAGED, use correct ibrav instead

     R & G space division:  proc/nbgrp/npool/nimage =       6
     Subspace diagonalization in iterative solution of the eigenvalue problem:
     a serial algorithm will be used


     Parallelization info
     --------------------
     sticks:   dense  smooth     PW     G-vecs:    dense   smooth      PW
     Min         206     137     42                 4761     2578     439
     Max         207     138     43                 4763     2580     440
     Sum        1237     823    253                28571    15473    2637

     Using Slab Decomposition



     bravais-lattice index     =            0
     lattice parameter (alat)  =       8.6227  a.u.
     unit-cell volume          =     453.3375 (a.u.)^3
     number of atoms/cell      =            2
     number of atomic types    =            2
     number of electrons       =        26.00
     number of Kohn-Sham states=           17
     kinetic-energy cutoff     =      40.0000  Ry
     charge density cutoff     =     240.0000  Ry
     Exchange-correlation= PBE
                           (   1   4   3   4   0   0   0)

     celldm(1)=   8.622745  celldm(2)=   0.000000  celldm(3)=   0.000000
     celldm(4)=   0.000000  celldm(5)=   0.000000  celldm(6)=   0.000000

     crystal axes: (cart. coord. in units of alat)
               a(1) = (   0.000000   0.707107   0.707107 )  
               a(2) = (   0.707107   0.000000   0.707107 )  
               a(3) = (   0.707107   0.707107   0.000000 )  

     reciprocal axes: (cart. coord. in units 2 pi/alat)
               b(1) = ( -0.707107  0.707107  0.707107 )  
               b(2) = (  0.707107 -0.707107  0.707107 )  
               b(3) = (  0.707107  0.707107 -0.707107 )  


     PseudoPot. # 1 for Hg read from file:
     /home/User/opencode_workspace/DFT/pseudopotentials/Hg.pbe-spn-rrkjus_psl.1.0.0.UPF
     MD5 check sum: f568566075d917e14d67c96ef6763253
     Pseudo is Ultrasoft + core correction, Zval = 20.0
     Generated using &quot;atomic&quot; code by A. Dal Corso  v.6.3
     Using radial grid of 1279 points,  6 beta functions with: 
                l(1) =   0
                l(2) =   0
                l(3) =   1
                l(4) =   1
                l(5) =   2
                l(6) =   2
     Q(r) pseudized with 0 coefficients 


     PseudoPot. # 2 for Te read from file:
     /home/User/opencode_workspace/DFT/pseudopotentials/Te.pbe-n-rrkjus_psl.1.0.0.UPF
     MD5 check sum: 203a1e86ef55f0cd9de2762a27c58f54
     Pseudo is Ultrasoft + core correction, Zval =  6.0
     Generated using &quot;atomic&quot; code by A. Dal Corso  v.6.3
     Using radial grid of 1245 points,  6 beta functions with: 
                l(1) =   0
                l(2) =   0
                l(3) =   1
                l(4) =   1
                l(5) =   2
                l(6) =   2
     Q(r) pseudized with 0 coefficients 


     atomic species   valence    mass     pseudopotential
     Hg               20.00   200.59200     Hg( 1.00)
     Te                6.00   127.60000     Te( 1.00)

     24 Sym. Ops. (no inversion) found


                                    s                        frac. trans.

      isym =  1     identity                                     

 cryst.   s( 1) = (     1          0          0      )
                  (     0          1          0      )
                  (     0          0          1      )

 cart.    s( 1) = (  1.0000000  0.0000000  0.0000000 )
                  (  0.0000000  1.0000000  0.0000000 )
                  (  0.0000000  0.0000000  1.0000000 )


      isym =  2     180 deg rotation - cart. axis [0,0,1]        

 cryst.   s( 2) = (     0          1         -1      )
                  (     1          0         -1      )
                  (     0          0         -1      )

 cart.    s( 2) = ( -1.0000000  0.0000000  0.0000000 )
                  (  0.0000000 -1.0000000  0.0000000 )
                  (  0.0000000  0.0000000  1.0000000 )


      isym =  3     180 deg rotation - cart. axis [0,1,0]        

 cryst.   s( 3) = (     0         -1          1      )
                  (     0         -1          0      )
                  (     1         -1          0      )

 cart.    s( 3) = ( -1.0000000  0.0000000  0.0000000 )
                  (  0.0000000  1.0000000  0.0000000 )
                  (  0.0000000  0.0000000 -1.0000000 )


      isym =  4     180 deg rotation - cart. axis [1,0,0]        

 cryst.   s( 4) = (    -1          0          0      )
                  (    -1          0          1      )
                  (    -1          1          0      )

 cart.    s( 4) = (  1.0000000  0.0000000  0.0000000 )
                  (  0.0000000 -1.0000000  0.0000000 )
                  (  0.0000000  0.0000000 -1.0000000 )


      isym =  5     120 deg rotation - cart. axis [-1,-1,-1]     

 cryst.   s( 5) = (     0          0          1      )
                  (     1          0          0      )
                  (     0          1          0      )

 cart.    s( 5) = (  0.0000000  1.0000000  0.0000000 )
                  (  0.0000000  0.0000000  1.0000000 )
                  (  1.0000000  0.0000000  0.0000000 )


      isym =  6     120 deg rotation - cart. axis [-1,1,1]       

 cryst.   s( 6) = (     1         -1          0      )
                  (     0         -1          1      )
                  (     0         -1          0      )

 cart.    s( 6) = (  0.0000000 -1.0000000  0.0000000 )
                  (  0.0000000  0.0000000  1.0000000 )
                  ( -1.0000000  0.0000000  0.0000000 )


      isym =  7     120 deg rotation - cart. axis [1,1,-1]       

 cryst.   s( 7) = (    -1          1          0      )
                  (    -1          0          0      )
                  (    -1          0          1      )

 cart.    s( 7) = (  0.0000000  1.0000000  0.0000000 )
                  (  0.0000000  0.0000000 -1.0000000 )
                  ( -1.0000000  0.0000000  0.0000000 )


      isym =  8     120 deg rotation - cart. axis [1,-1,1]       

 cryst.   s( 8) = (     0          0         -1      )
                  (     0          1         -1      )
                  (     1          0         -1      )

 cart.    s( 8) = (  0.0000000 -1.0000000  0.0000000 )
                  (  0.0000000  0.0000000 -1.0000000 )
                  (  1.0000000  0.0000000  0.0000000 )


      isym =  9     120 deg rotation - cart. axis [1,1,1]        

 cryst.   s( 9) = (     0          1          0      )
                  (     0          0          1      )
                  (     1          0          0      )

 cart.    s( 9) = (  0.0000000  0.0000000  1.0000000 )
                  (  1.0000000  0.0000000  0.0000000 )
                  (  0.0000000  1.0000000  0.0000000 )


      isym = 10     120 deg rotation - cart. axis [-1,1,-1]      

 cryst.   s(10) = (    -1          0          1      )
                  (    -1          1          0      )
                  (    -1          0          0      )

 cart.    s(10) = (  0.0000000  0.0000000  1.0000000 )
                  ( -1.0000000  0.0000000  0.0000000 )
                  (  0.0000000 -1.0000000  0.0000000 )


      isym = 11     120 deg rotation - cart. axis [1,-1,-1]      

 cryst.   s(11) = (     1          0         -1      )
                  (     0          0         -1      )
                  (     0          1         -1      )

 cart.    s(11) = (  0.0000000  0.0000000 -1.0000000 )
                  ( -1.0000000  0.0000000  0.0000000 )
                  (  0.0000000  1.0000000  0.0000000 )


      isym = 12     120 deg rotation - cart. axis [-1,-1,1]      

 cryst.   s(12) = (     0         -1          0      )
                  (     1         -1          0      )
                  (     0         -1          1      )

 cart.    s(12) = (  0.0000000  0.0000000 -1.0000000 )
                  (  1.0000000  0.0000000  0.0000000 )
                  (  0.0000000 -1.0000000  0.0000000 )


      isym = 13     inv. 180 deg rotation - cart. axis [1,1,0]   

 cryst.   s(13) = (     1          0         -1      )
                  (     0          1         -1      )
                  (     0          0         -1      )

 cart.    s(13) = (  0.0000000 -1.0000000  0.0000000 )
                  ( -1.0000000  0.0000000  0.0000000 )
                  (  0.0000000  0.0000000  1.0000000 )


      isym = 14     inv. 180 deg rotation - cart. axis [1,-1,0]  

 cryst.   s(14) = (     0          1          0      )
                  (     1          0          0      )
                  (     0          0          1      )

 cart.    s(14) = (  0.0000000  1.0000000  0.0000000 )
                  (  1.0000000  0.0000000  0.0000000 )
                  (  0.0000000  0.0000000  1.0000000 )


      isym = 15     inv.  90 deg rotation - cart. axis [0,0,-1]  

 cryst.   s(15) = (     0         -1          0      )
                  (     0         -1          1      )
                  (     1         -1          0      )

 cart.    s(15) = (  0.0000000 -1.0000000  0.0000000 )
                  (  1.0000000  0.0000000  0.0000000 )
                  (  0.0000000  0.0000000 -1.0000000 )


      isym = 16     inv.  90 deg rotation - cart. axis [0,0,1]   

 cryst.   s(16) = (    -1          0          1      )
                  (    -1          0          0      )
                  (    -1          1          0      )

 cart.    s(16) = (  0.0000000  1.0000000  0.0000000 )
                  ( -1.0000000  0.0000000  0.0000000 )
                  (  0.0000000  0.0000000 -1.0000000 )


      isym = 17     inv. 180 deg rotation - cart. axis [1,0,1]   

 cryst.   s(17) = (     1         -1          0      )
                  (     0         -1          0      )
                  (     0         -1          1      )

 cart.    s(17) = (  0.0000000  0.0000000 -1.0000000 )
                  (  0.0000000  1.0000000  0.0000000 )
                  ( -1.0000000  0.0000000  0.0000000 )


      isym = 18     inv. 180 deg rotation - cart. axis [-1,0,1]  

 cryst.   s(18) = (     0          0          1      )
                  (     0          1          0      )
                  (     1          0          0      )

 cart.    s(18) = (  0.0000000  0.0000000  1.0000000 )
                  (  0.0000000  1.0000000  0.0000000 )
                  (  1.0000000  0.0000000  0.0000000 )


      isym = 19     inv.  90 deg rotation - cart. axis [0,1,0]   

 cryst.   s(19) = (     0          0         -1      )
                  (     1          0         -1      )
                  (     0          1         -1      )

 cart.    s(19) = (  0.0000000  0.0000000 -1.0000000 )
                  (  0.0000000 -1.0000000  0.0000000 )
                  (  1.0000000  0.0000000  0.0000000 )


      isym = 20     inv.  90 deg rotation - cart. axis [0,-1,0]  

 cryst.   s(20) = (    -1          1          0      )
                  (    -1          0          1      )
                  (    -1          0          0      )

 cart.    s(20) = (  0.0000000  0.0000000  1.0000000 )
                  (  0.0000000 -1.0000000  0.0000000 )
                  ( -1.0000000  0.0000000  0.0000000 )


      isym = 21     inv. 180 deg rotation - cart. axis [0,1,1]   

 cryst.   s(21) = (    -1          0          0      )
                  (    -1          1          0      )
                  (    -1          0          1      )

 cart.    s(21) = (  1.0000000  0.0000000  0.0000000 )
                  (  0.0000000  0.0000000 -1.0000000 )
                  (  0.0000000 -1.0000000  0.0000000 )


      isym = 22     inv. 180 deg rotation - cart. axis [0,1,-1]  

 cryst.   s(22) = (     1          0          0      )
                  (     0          0          1      )
                  (     0          1          0      )

 cart.    s(22) = (  1.0000000  0.0000000  0.0000000 )
                  (  0.0000000  0.0000000  1.0000000 )
                  (  0.0000000  1.0000000  0.0000000 )


      isym = 23     inv.  90 deg rotation - cart. axis [-1,0,0]  

 cryst.   s(23) = (     0          1         -1      )
                  (     0          0         -1      )
                  (     1          0         -1      )

 cart.    s(23) = ( -1.0000000  0.0000000  0.0000000 )
                  (  0.0000000  0.0000000 -1.0000000 )
                  (  0.0000000  1.0000000  0.0000000 )


      isym = 24     inv.  90 deg rotation - cart. axis [1,0,0]   

 cryst.   s(24) = (     0         -1          1      )
                  (     1         -1          0      )
                  (     0         -1          0      )

 cart.    s(24) = ( -1.0000000  0.0000000  0.0000000 )
                  (  0.0000000  0.0000000  1.0000000 )
                  (  0.0000000 -1.0000000  0.0000000 )


   Cartesian axes

     site n.     atom                  positions (alat units)
         1        Hg     tau(   1) = (   0.0000000   0.0000000   0.0000000  )
         2        Te     tau(   2) = (   0.3535534   0.3535534   0.3535534  )

   Crystallographic axes

     site n.     atom                  positions (cryst. coord.)
         1        Hg     tau(   1) = (  0.0000000  0.0000000  0.0000000  )
         2        Te     tau(   2) = (  0.2500000  0.2500000  0.2500000  )

     number of k points=    29 (tetrahedron method)
                       cart. coord. in units 2pi/alat
        k(    1) = (   0.0000000   0.0000000   0.0000000), wk =   0.0039062
        k(    2) = (   0.0883883   0.0883883  -0.0883883), wk =   0.0312500
        k(    3) = (   0.1767767   0.1767767  -0.1767767), wk =   0.0312500
        k(    4) = (   0.2651650   0.2651650  -0.2651650), wk =   0.0312500
        k(    5) = (  -0.3535534  -0.3535534   0.3535534), wk =   0.0156250
        k(    6) = (   0.1767767   0.0000000   0.0000000), wk =   0.0234375
        k(    7) = (   0.2651650   0.0883883  -0.0883883), wk =   0.0937500
        k(    8) = (   0.3535534   0.1767767  -0.1767767), wk =   0.0937500
        k(    9) = (  -0.2651650  -0.4419417   0.4419417), wk =   0.0937500
        k(   10) = (  -0.1767767  -0.3535534   0.3535534), wk =   0.0937500
        k(   11) = (  -0.0883883  -0.2651650   0.2651650), wk =   0.0937500
        k(   12) = (   0.0000000  -0.1767767   0.1767767), wk =   0.0468750
        k(   13) = (   0.3535534   0.0000000   0.0000000), wk =   0.0234375
        k(   14) = (   0.4419417   0.0883883  -0.0883883), wk =   0.0937500
        k(   15) = (  -0.1767767  -0.5303301   0.5303301), wk =   0.0937500
        k(   16) = (  -0.0883883  -0.4419417   0.4419417), wk =   0.0937500
        k(   17) = (   0.0000000  -0.3535534   0.3535534), wk =   0.0468750
        k(   18) = (   0.5303301   0.0000000   0.0000000), wk =   0.0234375
        k(   19) = (  -0.0883883  -0.6187184   0.6187184), wk =   0.0937500
        k(   20) = (   0.0000000  -0.5303301   0.5303301), wk =   0.0468750
        k(   21) = (  -0.7071068   0.0000000   0.0000000), wk =   0.0117188
        k(   22) = (   0.3535534   0.1767767   0.0000000), wk =   0.0937500
        k(   23) = (  -0.2651650  -0.4419417   0.6187184), wk =   0.1875000
        k(   24) = (  -0.1767767  -0.3535534   0.5303301), wk =   0.0937500
        k(   25) = (  -0.1767767  -0.5303301   0.7071068), wk =   0.0937500
        k(   26) = (  -0.0883883  -0.4419417   0.6187184), wk =   0.1875000
        k(   27) = (   0.0000000  -0.3535534   0.5303301), wk =   0.0937500
        k(   28) = (  -0.7071068   0.1767767   0.0000000), wk =   0.0468750
        k(   29) = (  -0.7071068   0.3535534   0.0000000), wk =   0.0234375

                       cryst. coord.
        k(    1) = (   0.0000000   0.0000000   0.0000000), wk =   0.0039062
        k(    2) = (   0.0000000   0.0000000   0.1250000), wk =   0.0312500
        k(    3) = (   0.0000000   0.0000000   0.2500000), wk =   0.0312500
        k(    4) = (   0.0000000   0.0000000   0.3750000), wk =   0.0312500
        k(    5) = (   0.0000000   0.0000000  -0.5000000), wk =   0.0156250
        k(    6) = (   0.0000000   0.1250000   0.1250000), wk =   0.0234375
        k(    7) = (   0.0000000   0.1250000   0.2500000), wk =   0.0937500
        k(    8) = (   0.0000000   0.1250000   0.3750000), wk =   0.0937500
        k(    9) = (   0.0000000   0.1250000  -0.5000000), wk =   0.0937500
        k(   10) = (   0.0000000   0.1250000  -0.3750000), wk =   0.0937500
        k(   11) = (   0.0000000   0.1250000  -0.2500000), wk =   0.0937500
        k(   12) = (   0.0000000   0.1250000  -0.1250000), wk =   0.0468750
        k(   13) = (   0.0000000   0.2500000   0.2500000), wk =   0.0234375
        k(   14) = (   0.0000000   0.2500000   0.3750000), wk =   0.0937500
        k(   15) = (   0.0000000   0.2500000  -0.5000000), wk =   0.0937500
        k(   16) = (   0.0000000   0.2500000  -0.3750000), wk =   0.0937500
        k(   17) = (   0.0000000   0.2500000  -0.2500000), wk =   0.0468750
        k(   18) = (   0.0000000   0.3750000   0.3750000), wk =   0.0234375
        k(   19) = (   0.0000000   0.3750000  -0.5000000), wk =   0.0937500
        k(   20) = (   0.0000000   0.3750000  -0.3750000), wk =   0.0468750
        k(   21) = (   0.0000000  -0.5000000  -0.5000000), wk =   0.0117188
        k(   22) = (   0.1250000   0.2500000   0.3750000), wk =   0.0937500
        k(   23) = (   0.1250000   0.2500000  -0.5000000), wk =   0.1875000
        k(   24) = (   0.1250000   0.2500000  -0.3750000), wk =   0.0937500
        k(   25) = (   0.1250000   0.3750000  -0.5000000), wk =   0.0937500
        k(   26) = (   0.1250000   0.3750000  -0.3750000), wk =   0.1875000
        k(   27) = (   0.1250000   0.3750000  -0.2500000), wk =   0.0937500
        k(   28) = (   0.1250000  -0.5000000  -0.3750000), wk =   0.0468750
        k(   29) = (   0.2500000  -0.5000000  -0.2500000), wk =   0.0234375

     Dense  grid:    28571 G-vectors     FFT dimensions: (  45,  45,  45)

     Smooth grid:    15473 G-vectors     FFT dimensions: (  36,  36,  36)

     Dynamical RAM for                 wfc:       0.08 MB

     Dynamical RAM for     wfc (w. buffer):       0.08 MB

     Dynamical RAM for           str. fact:       0.15 MB

     Dynamical RAM for           local pot:       0.00 MB

     Dynamical RAM for          nlocal pot:       0.18 MB

     Dynamical RAM for                qrad:       2.49 MB

     Dynamical RAM for          rho,v,vnew:       0.59 MB

     Dynamical RAM for           G-vectors:       0.29 MB

     Dynamical RAM for          h,s,v(r/c):       0.05 MB

     Dynamical RAM for          <psi|beta>:       0.01 MB

     Dynamical RAM for                 psi:       0.17 MB

     Dynamical RAM for                hpsi:       0.17 MB

     Dynamical RAM for                spsi:       0.17 MB

     Dynamical RAM for      wfcinit/wfcrot:       0.17 MB

     Dynamical RAM for           addusdens:      13.59 MB

     Estimated static dynamical RAM per process >       4.61 MB

     Estimated max dynamical RAM per process >      18.20 MB

     Estimated total dynamical RAM >     109.17 MB

     Check: negative core charge=   -0.000001

     The potential is recalculated from file :
     /home/User/opencode_workspace/DFT/calculations/hgte/conv_nscf_e40/out/pwscf.save/charge-density

     Starting wfcs are   14 randomized atomic wfcs +    3 random wfcs

     Band Structure Calculation
     Davidson diagonalization with overlap

     Computing kpt #:     1  of    29
     total cpu time spent up to now is        0.7 secs

     Computing kpt #:     2  of    29
     total cpu time spent up to now is        0.8 secs

     Computing kpt #:     3  of    29
     total cpu time spent up to now is        0.9 secs

     Computing kpt #:     4  of    29
     total cpu time spent up to now is        1.0 secs

     Computing kpt #:     5  of    29
     total cpu time spent up to now is        1.2 secs

     Computing kpt #:     6  of    29
     total cpu time spent up to now is        1.3 secs

     Computing kpt #:     7  of    29
     total cpu time spent up to now is        1.4 secs

     Computing kpt #:     8  of    29
     total cpu time spent up to now is        1.5 secs

     Computing kpt #:     9  of    29
     total cpu time spent up to now is        1.6 secs

     Computing kpt #:    10  of    29
     total cpu time spent up to now is        1.7 secs

     Computing kpt #:    11  of    29
     total cpu time spent up to now is        1.8 secs

     Computing kpt #:    12  of    29
     total cpu time spent up to now is        1.9 secs

     Computing kpt #:    13  of    29
     total cpu time spent up to now is        2.0 secs

     Computing kpt #:    14  of    29
     total cpu time spent up to now is        2.2 secs

     Computing kpt #:    15  of    29
     total cpu time spent up to now is        2.3 secs

     Computing kpt #:    16  of    29
     total cpu time spent up to now is        2.4 secs

     Computing kpt #:    17  of    29
     total cpu time spent up to now is        2.5 secs

     Computing kpt #:    18  of    29
     total cpu time spent up to now is        2.6 secs

     Computing kpt #:    19  of    29
     total cpu time spent up to now is        2.8 secs

     Computing kpt #:    20  of    29
     total cpu time spent up to now is        2.9 secs

     Computing kpt #:    21  of    29
     total cpu time spent up to now is        3.0 secs

     Computing kpt #:    22  of    29
     total cpu time spent up to now is        3.1 secs

     Computing kpt #:    23  of    29
     total cpu time spent up to now is        3.2 secs

     Computing kpt #:    24  of    29
     total cpu time spent up to now is        3.4 secs

     Computing kpt #:    25  of    29
     total cpu time spent up to now is        3.5 secs

     Computing kpt #:    26  of    29
     total cpu time spent up to now is        3.6 secs

     Computing kpt #:    27  of    29
     total cpu time spent up to now is        3.8 secs

     Computing kpt #:    28  of    29
     total cpu time spent up to now is        3.9 secs

     Computing kpt #:    29  of    29
     total cpu time spent up to now is        4.0 secs

     ethr =  3.85E-13,  avg # of iterations = 37.6

     total cpu time spent up to now is        4.0 secs

     End of band structure calculation

          k = 0.0000 0.0000 0.0000 (  1917 PWs)   bands (ev):

  -107.7831 -55.8816 -55.8816 -55.8816  -4.5559   0.0908   0.0908   0.0908
     0.6253   0.6253   6.7441   7.4690   7.4690   7.4690  11.7138  11.7138
    11.7138

     occupation numbers 
     1.0000   1.0000   1.0000   1.0000   1.0000   1.0000   1.0000   1.0000
     1.0000   1.0000   1.0000   1.0000   1.0000   0.0000   0.0000   0.0000
     0.0000

          k = 0.0884 0.0884-0.0884 (  1940 PWs)   bands (ev):

  -107.7840 -55.8976 -55.8899 -55.8899  -4.4777   0.1115   0.1115   0.1169
     0.6223   0.6223   5.6150   7.2925   7.2925   8.1322  11.6372  11.9482
    11.9482

     occupation numbers 
     1.0000   1.0000   1.0000   1.0000   1.0000   1.0000   1.0000   1.0000
     1.0000   1.0000   1.0000   1.0000   1.0000   0.0000   0.0000   0.0000
     0.0000

          k = 0.1768 0.1768-0.1768 (  1934 PWs)   bands (ev):

  -107.7838 -55.8948 -55.8871 -55.8871  -4.2796   0.1599   0.1599   0.2475
     0.6245   0.6245   4.0831   6.9214   6.9214   8.3389  12.3559  12.3559
    12.3871

     occupation numbers 
     1.0000   1.0000   1.0000   1.0000   1.0000   1.0000   1.0000   1.0000
     1.0000   1.0000   1.0000   1.0000   1.0000   0.0000   0.0000   0.0000
     0.0000

          k = 0.2652 0.2652-0.2652 (  1922 PWs)   bands (ev):

  -107.7832 -55.8868 -55.8868 -55.8756  -4.0673   0.2004   0.2004   0.5738
     0.6395   0.6395   2.7029   6.5990   6.5990   8.2307  12.5195  12.5195
    13.7749

     occupation numbers 
     1.0000   1.0000   1.0000   1.0000   1.0000   1.0000   1.0000   1.0000
     1.0000   1.0000   1.0000   1.0000   1.0000   0.0000   0.0000   0.0000
     0.0000

          k =-0.3536-0.3536 0.3536 (  1916 PWs)   bands (ev):

  -107.7829 -55.8846 -55.8846 -55.8700  -3.9749   0.2143   0.2143   0.6500
     0.6500   0.9390   1.9458   6.4751   6.4751   8.1703  12.5264  12.5264
    14.3357

     occupation numbers 
     1.0000   1.0000   1.0000   1.0000   1.0000   1.0000   1.0000   1.0000
     1.0000   1.0000   1.0000   1.0000   1.0000   0.0000   0.0000   0.0000
     0.0000

          k = 0.1768 0.0000 0.0000 (  1949 PWs)   bands (ev):

  -107.7844 -55.8987 -55.8959 -55.8959  -4.4514   0.0994   0.1308   0.1308
     0.6087   0.6342   5.5294   7.0063   7.0063   8.6214  11.0234  12.3282
    12.3282

     occupation numbers 
     1.0000   1.0000   1.0000   1.0000   1.0000   1.0000   1.0000   1.0000
     1.0000   1.0000   1.0000   1.0000   1.0000  -0.0000   0.0000   0.0000
     0.0000

          k = 0.2652 0.0884-0.0884 (  1942 PWs)   bands (ev):

  -107.7842 -55.8971 -55.8940 -55.8898  -4.2924   0.1410   0.1831   0.2107
     0.6025   0.6430   4.4170   6.5894   6.5970   9.0515  11.0803  12.7805
    12.8725

     occupation numbers 
     1.0000   1.0000   1.0000   1.0000   1.0000   1.0000   1.0000   1.0000
     1.0000   1.0000   1.0000   1.0000   1.0000  -0.0000   0.0000   0.0000
     0.0000

          k = 0.3536 0.1768-0.1768 (  1952 PWs)   bands (ev):

  -107.7845 -55.9012 -55.8984 -55.8935  -4.0824   0.1939   0.2284   0.4286
     0.6392   0.6519   3.1021   6.1092   6.3027   9.0569  11.7806  13.0766
    13.1513

     occupation numbers 
     1.0000   1.0000   1.0000   1.0000   1.0000   1.0000   1.0000   1.0000
     1.0000   1.0000   1.0000   1.0000   1.0000   0.0000   0.0000   0.0000
     0.0000

          k =-0.2652-0.4419 0.4419 (  1941 PWs)   bands (ev):

  -107.7840 -55.8974 -55.8923 -55.8857  -3.9472   0.2222   0.2455   0.6044
     0.6512   0.9067   2.1109   5.7578   6.2518   8.9700  12.0730  12.9526
    14.1734

     occupation numbers 
     1.0000   1.0000   1.0000   1.0000   1.0000   1.0000   1.0000   1.0000
     1.0000   1.0000   1.0000   1.0000   1.0000   0.0000   0.0000   0.0000
     0.0000

          k =-0.1768-0.3536 0.3536 (  1940 PWs)   bands (ev):

  -107.7839 -55.8963 -55.8934 -55.8848  -3.9781   0.2257   0.2303   0.6138
     0.6286   0.7810   2.3710   5.6630   6.4648   8.9624  12.2376  12.7599
    13.9458

     occupation numbers 
     1.0000   1.0000   1.0000   1.0000   1.0000   1.0000   1.0000   1.0000
     1.0000   1.0000   1.0000   1.0000   1.0000   0.0000   0.0000   0.0000
     0.0000

          k =-0.0884-0.2652 0.2652 (  1938 PWs)   bands (ev):

  -107.7839 -55.8933 -55.8922 -55.8880  -4.1536   0.1876   0.2026   0.3518
     0.6080   0.6544   3.5230   5.8962   6.8539   8.9853  12.2083  12.4785
    12.8127

     occupation numbers 
     1.0000   1.0000   1.0000   1.0000   1.0000   1.0000   1.0000   1.0000
     1.0000   1.0000   1.0000   1.0000   1.0000   0.0000   0.0000   0.0000
     0.0000

          k = 0.0000-0.1768 0.1768 (  1943 PWs)   bands (ev):

  -107.7842 -55.8981 -55.8959 -55.8890  -4.3590   0.1365   0.1502   0.1747
     0.6091   0.6345   4.7672   6.5130   7.2187   8.7166  11.5644  12.0732
    12.5972

     occupation numbers 
     1.0000   1.0000   1.0000   1.0000   1.0000   1.0000   1.0000   1.0000
     1.0000   1.0000   1.0000   1.0000   1.0000  -0.0000   0.0000   0.0000
     0.0000

          k = 0.3536 0.0000 0.0000 (  1964 PWs)   bands (ev):

  -107.7850 -55.9062 -55.9062 -55.8989  -4.1851   0.1574   0.2440   0.2440
     0.5952   0.6563   4.0729   6.1436   6.1436   9.4356  10.4499  13.6877
    13.6877

     occupation numbers 
     1.0000   1.0000   1.0000   1.0000   1.0000   1.0000   1.0000   1.0000
     1.0000   1.0000   1.0000   1.0000   1.0000   0.0000   0.0000   0.0000
     0.0000

          k = 0.4419 0.0884-0.0884 (  1939 PWs)   bands (ev):

  -107.7838 -55.8974 -55.8895 -55.8850  -4.0132   0.2184   0.3033   0.3534
     0.6627   0.6691   3.2004   5.6029   5.8222   9.5878  10.6923  13.4944
    14.1776

     occupation numbers 
     1.0000   1.0000   1.0000   1.0000   1.0000   1.0000   1.0000   1.0000
     1.0000   1.0000   1.0000   1.0000   1.0000   0.0000   0.0000   0.0000
     0.0000

          k =-0.1768-0.5303 0.5303 (  1923 PWs)   bands (ev):

  -107.7831 -55.8891 -55.8847 -55.8731  -3.8770   0.2540   0.3261   0.4998
     0.6636   0.9170   2.3311   5.0191   5.7732   9.6540  11.5136  13.5440
    14.0432

     occupation numbers 
     1.0000   1.0000   1.0000   1.0000   1.0000   1.0000   1.0000   1.0000
     1.0000   1.0000   1.0000   1.0000   1.0000   0.0000   0.0000   0.0000
     0.0000

          k =-0.0884-0.4419 0.4419 (  1939 PWs)   bands (ev):

  -107.7838 -55.8938 -55.8936 -55.8832  -3.8638   0.2586   0.3054   0.5854
     0.6323   0.9935   2.1635   4.7216   6.0185   9.6861  12.0274  13.6360
    14.0682

     occupation numbers 
     1.0000   1.0000   1.0000   1.0000   1.0000   1.0000   1.0000   1.0000
     1.0000   1.0000   1.0000   1.0000   1.0000   0.0000   0.0000   0.0000
     0.0000

          k = 0.0000-0.3536 0.3536 (  1947 PWs)   bands (ev):

  -107.7842 -55.8965 -55.8953 -55.8928  -3.9813   0.2442   0.2498   0.5341
     0.6070   0.7189   2.8434   4.9644   6.4551   9.5915  12.2608  13.0110
    13.0663

     occupation numbers 
     1.0000   1.0000   1.0000   1.0000   1.0000   1.0000   1.0000   1.0000
     1.0000   1.0000   1.0000   1.0000   1.0000   0.0000   0.0000   0.0000
     0.0000

          k = 0.5303 0.0000 0.0000 (  1956 PWs)   bands (ev):

  -107.7845 -55.9025 -55.9025 -55.8895  -3.8970   0.2460   0.3755   0.3755
     0.6809   0.7554   2.7559   5.4458   5.4458   9.3910  10.1793  14.9072
    15.3008

     occupation numbers 
     1.0000   1.0000   1.0000   1.0000   1.0000   1.0000   1.0000   1.0000
     1.0000   1.0000   1.0000   1.0000   1.0000   0.0000   0.0000   0.0000
     0.0000

          k =-0.0884-0.6187 0.6187 (  1945 PWs)   bands (ev):

  -107.7839 -55.8945 -55.8932 -55.8883  -3.8030   0.2749   0.4053   0.4347
     0.6805   1.0035   2.1917   4.9919   5.3476   9.5613  10.4413  14.6877
    15.4443

     occupation numbers 
     1.0000   1.0000   1.0000   1.0000   1.0000   1.0000   1.0000   1.0000
     1.0000   1.0000   1.0000   1.0000   1.0000   0.0000   0.0000   0.0000
     0.0000

          k = 0.0000-0.5303 0.5303 (  1926 PWs)   bands (ev):

  -107.7832 -55.8929 -55.8788 -55.8786  -3.7899   0.2819   0.3786   0.5142
     0.6557   1.1747   1.9680   4.5376   5.5705   9.7153  11.4873  14.5419
    14.6901

     occupation numbers 
     1.0000   1.0000   1.0000   1.0000   1.0000   1.0000   1.0000   1.0000
     1.0000   1.0000   1.0000   1.0000   1.0000   0.0000   0.0000   0.0000
     0.0000

          k =-0.7071 0.0000 0.0000 (  1964 PWs)   bands (ev):

  -107.7847 -55.9067 -55.9067 -55.8900  -3.7712   0.2656   0.4360   0.4360
     0.6903   1.0847   1.9985   5.1811   5.1811   9.3670   9.9561  15.6912
    16.4125

     occupation numbers 
     1.0000   1.0000   1.0000   1.0000   1.0000   1.0000   1.0000   1.0000
     1.0000   1.0000   1.0000   1.0000   1.0000   0.0000   0.0000   0.0000
     0.0000

          k = 0.3536 0.1768 0.0000 (  1936 PWs)   bands (ev):

  -107.7838 -55.8919 -55.8914 -55.8866  -4.1259   0.1916   0.2384   0.3204
     0.6119   0.6606   3.6212   5.6800   6.4411   9.5265  11.1619  12.7659
    13.5347

     occupation numbers 
     1.0000   1.0000   1.0000   1.0000   1.0000   1.0000   1.0000   1.0000
     1.0000   1.0000   1.0000   1.0000   1.0000   0.0000   0.0000   0.0000
     0.0000

          k =-0.2652-0.4419 0.6187 (  1939 PWs)   bands (ev):

  -107.7839 -55.8950 -55.8916 -55.8854  -3.9508   0.2429   0.2733   0.5097
     0.6457   0.7655   2.6570   5.1565   6.0910   9.7118  11.7973  12.6697
    14.0868

     occupation numbers 
     1.0000   1.0000   1.0000   1.0000   1.0000   1.0000   1.0000   1.0000
     1.0000   1.0000   1.0000   1.0000   1.0000   0.0000   0.0000   0.0000
     0.0000

          k =-0.1768-0.3536 0.5303 (  1918 PWs)   bands (ev):

  -107.7829 -55.8832 -55.8824 -55.8737  -3.8757   0.2569   0.2907   0.5911
     0.6346   1.0185   2.0785   5.0148   5.9198   9.7226  11.9064  13.0909
    14.5709

     occupation numbers 
     1.0000   1.0000   1.0000   1.0000   1.0000   1.0000   1.0000   1.0000
     1.0000   1.0000   1.0000   1.0000   1.0000   0.0000   0.0000   0.0000
     0.0000

          k =-0.1768-0.5303 0.7071 (  1944 PWs)   bands (ev):

  -107.7840 -55.8966 -55.8915 -55.8891  -3.8784   0.2715   0.3362   0.4398
     0.6668   0.8375   2.5723   5.0939   5.5079   9.8869  10.8290  13.3349
    15.3006

     occupation numbers 
     1.0000   1.0000   1.0000   1.0000   1.0000   1.0000   1.0000   1.0000
     1.0000   1.0000   1.0000   1.0000   1.0000   0.0000   0.0000   0.0000
     0.0000

          k =-0.0884-0.4419 0.6187 (  1928 PWs)   bands (ev):

  -107.7833 -55.8912 -55.8842 -55.8781  -3.8030   0.2937   0.3521   0.5302
     0.6389   1.1214   2.0553   4.6862   5.3773  10.1389  11.6336  13.1992
    14.6073

     occupation numbers 
     1.0000   1.0000   1.0000   1.0000   1.0000   1.0000   1.0000   1.0000
     1.0000   1.0000   1.0000   1.0000   1.0000   0.0000   0.0000   0.0000
     0.0000

          k = 0.0000-0.3536 0.5303 (  1926 PWs)   bands (ev):

  -107.7832 -55.8898 -55.8827 -55.8787  -3.8340   0.2890   0.3194   0.5717
     0.6193   1.0222   2.1995   4.6022   5.6573  10.1582  12.1595  12.6259
    14.8474

     occupation numbers 
     1.0000   1.0000   1.0000   1.0000   1.0000   1.0000   1.0000   1.0000
     1.0000   1.0000   1.0000   1.0000   1.0000   0.0000   0.0000   0.0000
     0.0000

          k =-0.7071 0.1768 0.0000 (  1940 PWs)   bands (ev):

  -107.7837 -55.8991 -55.8872 -55.8829  -3.7718   0.2952   0.3967   0.4735
     0.6672   1.1735   1.9535   4.9754   5.0349   9.9048  10.6626  14.6241
    14.7245

     occupation numbers 
     1.0000   1.0000   1.0000   1.0000   1.0000   1.0000   1.0000   1.0000
     1.0000   1.0000   1.0000   1.0000   1.0000   0.0000   0.0000   0.0000
     0.0000

          k =-0.7071 0.3536 0.0000 (  1912 PWs)   bands (ev):

  -107.7827 -55.8796 -55.8755 -55.8754  -3.7721   0.3179   0.3652   0.5756
     0.5880   1.2599   1.9048   4.7865   4.9070  10.5861  12.0970  12.7912
    13.6738

     occupation numbers 
     1.0000   1.0000   1.0000   1.0000   1.0000   1.0000   1.0000   1.0000
     1.0000   1.0000   1.0000   1.0000   1.0000   0.0000   0.0000   0.0000
     0.0000

     the Fermi energy is     7.4706 ev
     (compare with:     7.4690 eV, computed in scf)

     Writing all to output data dir /home/User/opencode_workspace/DFT/calculations/hgte/conv_nscf_e40/out/pwscf.save/ :
     XML data file, pseudopotentials, collected wavefunctions

     init_run     :      0.38s CPU      0.39s WALL (       1 calls)
     electrons    :      2.77s CPU      3.36s WALL (       1 calls)

     Called by init_run:
     wfcinit      :      0.00s CPU      0.00s WALL (       1 calls)
     wfcinit:atom :      0.00s CPU      0.00s WALL (      29 calls)
     wfcinit:wfcr :      0.10s CPU      0.12s WALL (      29 calls)
     potinit      :      0.13s CPU      0.14s WALL (       1 calls)
     hinit0       :      0.19s CPU      0.20s WALL (       1 calls)

     Called by electrons:
     c_bands      :      2.76s CPU      3.35s WALL (       1 calls)
     v_of_rho     :      0.01s CPU      0.01s WALL (       1 calls)
     v_h          :      0.00s CPU      0.00s WALL (       1 calls)
     v_xc         :      0.01s CPU      0.01s WALL (       1 calls)
     newd         :      0.03s CPU      0.04s WALL (       1 calls)

     Called by c_bands:
     init_us_2    :      0.00s CPU      0.00s WALL (      29 calls)
     cegterg      :      2.64s CPU      3.21s WALL (      66 calls)

     Called by sum_band:

     Called by *egterg:
     cdiaghg      :      0.27s CPU      0.32s WALL (    1119 calls)
     cegterg:over :      0.13s CPU      0.15s WALL (    1090 calls)
     cegterg:upda :      0.04s CPU      0.04s WALL (    1090 calls)
     cegterg:last :      0.08s CPU      0.09s WALL (     703 calls)
     h_psi        :      2.10s CPU      2.60s WALL (    1185 calls)
     s_psi        :      0.03s CPU      0.04s WALL (    1185 calls)
     g_psi        :      0.02s CPU      0.02s WALL (    1090 calls)

     Called by h_psi:
     h_psi:calbec :      0.10s CPU      0.12s WALL (    1185 calls)
     vloc_psi     :      1.96s CPU      2.42s WALL (    1185 calls)
                                        0.00s GPU  (    1185 calls)
     add_vuspsi   :      0.03s CPU      0.04s WALL (    1185 calls)

     General routines
     calbec       :      0.09s CPU      0.12s WALL (    1185 calls)
     fft          :      0.06s CPU      0.06s WALL (      13 calls)
     ffts         :      0.13s CPU      0.13s WALL (       1 calls)
     fftw         :      1.84s CPU      2.27s WALL (   24448 calls)
     interpolate  :      0.13s CPU      0.13s WALL (       1 calls)
     davcio       :      0.00s CPU      0.00s WALL (      58 calls)

     Parallel routines

     PWSCF        :      3.41s CPU      4.06s WALL


   This run was terminated on:  19:14:37  22Sep2026            

=------------------------------------------------------------------------------=
   JOB DONE.
=------------------------------------------------------------------------------=
