
     Program PWSCF v.7.5 starts on 23Sep2026 at  0:11:46 

     This program is part of the open-source Quantum ESPRESSO suite
     for quantum simulation of materials; please cite
         "P. Giannozzi et al., J. Phys.:Condens. Matter 21 395502 (2009);
         "P. Giannozzi et al., J. Phys.:Condens. Matter 29 465901 (2017);
         "P. Giannozzi et al., J. Chem. Phys. 152 154105 (2020);
          URL http://www.quantum-espresso.org", 
     in publications or presentations arising from this work. More details at
     http://www.quantum-espresso.org/quote

     Parallel version (MPI & OpenMP), running on       6 processor cores
     Number of MPI processes:                 6
     Threads/MPI process:                     1

     MPI processes distributed on     1 nodes
     9892 MiB available memory on the printing compute node when the environment starts

     Reading input from pw.in

     Current dimensions of program PWSCF are:
     Max number of different atomic species (ntypx) = 10
     Max number of k-points (npk) =  40000
     Max angular momentum in pseudopotentials (lmaxx) =  4
     file Hg.pbe-spn-rrkjus_psl.1.0.0.UPF: wavefunction(s)  5P renormalized
     file Te.pbe-n-rrkjus_psl.1.0.0.UPF: wavefunction(s)  5S renormalized
     Message from routine setup:
     using ibrav=0 with symmetry is DISCOURAGED, use correct ibrav instead

     R & G space division:  proc/nbgrp/npool/nimage =       6
     Subspace diagonalization in iterative solution of the eigenvalue problem:
     a serial algorithm will be used


     Parallelization info
     --------------------
     sticks:   dense  smooth     PW     G-vecs:    dense   smooth      PW
     Min         612     409    114                24684    13390    2005
     Max         614     410    115                24689    13393    2008
     Sum        3679    2455    685               148117    80347   12039

     Using Slab Decomposition



     bravais-lattice index     =            0
     lattice parameter (alat)  =       8.6227  a.u.
     unit-cell volume          =     453.3375 (a.u.)^3
     number of atoms/cell      =            2
     number of atomic types    =            2
     number of electrons       =        26.00
     number of Kohn-Sham states=           13
     kinetic-energy cutoff     =     120.0000  Ry
     charge density cutoff     =     720.0000  Ry
     scf convergence threshold =      1.0E-10
     mixing beta               =       0.3000
     number of iterations used =            8  plain     mixing
     energy convergence thresh.=      1.0E-04
     force convergence thresh. =      1.0E-03
     press convergence thresh. =      5.0E-01
     Exchange-correlation= PBE
                           (   1   4   3   4   0   0   0)
     nstep                     =           50


     celldm(1)=   8.622745  celldm(2)=   0.000000  celldm(3)=   0.000000
     celldm(4)=   0.000000  celldm(5)=   0.000000  celldm(6)=   0.000000

     crystal axes: (cart. coord. in units of alat)
               a(1) = (   0.000000   0.707107   0.707107 )  
               a(2) = (   0.707107   0.000000   0.707107 )  
               a(3) = (   0.707107   0.707107   0.000000 )  

     reciprocal axes: (cart. coord. in units 2 pi/alat)
               b(1) = ( -0.707107  0.707107  0.707107 )  
               b(2) = (  0.707107 -0.707107  0.707107 )  
               b(3) = (  0.707107  0.707107 -0.707107 )  


     PseudoPot. # 1 for Hg read from file:
     /home/User/opencode_workspace/DFT/pseudopotentials/Hg.pbe-spn-rrkjus_psl.1.0.0.UPF
     MD5 check sum: f568566075d917e14d67c96ef6763253
     Pseudo is Ultrasoft + core correction, Zval = 20.0
     Generated using &quot;atomic&quot; code by A. Dal Corso  v.6.3
     Using radial grid of 1279 points,  6 beta functions with: 
                l(1) =   0
                l(2) =   0
                l(3) =   1
                l(4) =   1
                l(5) =   2
                l(6) =   2
     Q(r) pseudized with 0 coefficients 


     PseudoPot. # 2 for Te read from file:
     /home/User/opencode_workspace/DFT/pseudopotentials/Te.pbe-n-rrkjus_psl.1.0.0.UPF
     MD5 check sum: 203a1e86ef55f0cd9de2762a27c58f54
     Pseudo is Ultrasoft + core correction, Zval =  6.0
     Generated using &quot;atomic&quot; code by A. Dal Corso  v.6.3
     Using radial grid of 1245 points,  6 beta functions with: 
                l(1) =   0
                l(2) =   0
                l(3) =   1
                l(4) =   1
                l(5) =   2
                l(6) =   2
     Q(r) pseudized with 0 coefficients 


     atomic species   valence    mass     pseudopotential
     Hg               20.00   200.59200     Hg( 1.00)
     Te                6.00   127.60000     Te( 1.00)

     24 Sym. Ops. (no inversion) found


                                    s                        frac. trans.

      isym =  1     identity                                     

 cryst.   s( 1) = (     1          0          0      )
                  (     0          1          0      )
                  (     0          0          1      )

 cart.    s( 1) = (  1.0000000  0.0000000  0.0000000 )
                  (  0.0000000  1.0000000  0.0000000 )
                  (  0.0000000  0.0000000  1.0000000 )


      isym =  2     180 deg rotation - cart. axis [0,0,1]        

 cryst.   s( 2) = (     0          1         -1      )
                  (     1          0         -1      )
                  (     0          0         -1      )

 cart.    s( 2) = ( -1.0000000  0.0000000  0.0000000 )
                  (  0.0000000 -1.0000000  0.0000000 )
                  (  0.0000000  0.0000000  1.0000000 )


      isym =  3     180 deg rotation - cart. axis [0,1,0]        

 cryst.   s( 3) = (     0         -1          1      )
                  (     0         -1          0      )
                  (     1         -1          0      )

 cart.    s( 3) = ( -1.0000000  0.0000000  0.0000000 )
                  (  0.0000000  1.0000000  0.0000000 )
                  (  0.0000000  0.0000000 -1.0000000 )


      isym =  4     180 deg rotation - cart. axis [1,0,0]        

 cryst.   s( 4) = (    -1          0          0      )
                  (    -1          0          1      )
                  (    -1          1          0      )

 cart.    s( 4) = (  1.0000000  0.0000000  0.0000000 )
                  (  0.0000000 -1.0000000  0.0000000 )
                  (  0.0000000  0.0000000 -1.0000000 )


      isym =  5     120 deg rotation - cart. axis [-1,-1,-1]     

 cryst.   s( 5) = (     0          0          1      )
                  (     1          0          0      )
                  (     0          1          0      )

 cart.    s( 5) = (  0.0000000  1.0000000  0.0000000 )
                  (  0.0000000  0.0000000  1.0000000 )
                  (  1.0000000  0.0000000  0.0000000 )


      isym =  6     120 deg rotation - cart. axis [-1,1,1]       

 cryst.   s( 6) = (     1         -1          0      )
                  (     0         -1          1      )
                  (     0         -1          0      )

 cart.    s( 6) = (  0.0000000 -1.0000000  0.0000000 )
                  (  0.0000000  0.0000000  1.0000000 )
                  ( -1.0000000  0.0000000  0.0000000 )


      isym =  7     120 deg rotation - cart. axis [1,1,-1]       

 cryst.   s( 7) = (    -1          1          0      )
                  (    -1          0          0      )
                  (    -1          0          1      )

 cart.    s( 7) = (  0.0000000  1.0000000  0.0000000 )
                  (  0.0000000  0.0000000 -1.0000000 )
                  ( -1.0000000  0.0000000  0.0000000 )


      isym =  8     120 deg rotation - cart. axis [1,-1,1]       

 cryst.   s( 8) = (     0          0         -1      )
                  (     0          1         -1      )
                  (     1          0         -1      )

 cart.    s( 8) = (  0.0000000 -1.0000000  0.0000000 )
                  (  0.0000000  0.0000000 -1.0000000 )
                  (  1.0000000  0.0000000  0.0000000 )


      isym =  9     120 deg rotation - cart. axis [1,1,1]        

 cryst.   s( 9) = (     0          1          0      )
                  (     0          0          1      )
                  (     1          0          0      )

 cart.    s( 9) = (  0.0000000  0.0000000  1.0000000 )
                  (  1.0000000  0.0000000  0.0000000 )
                  (  0.0000000  1.0000000  0.0000000 )


      isym = 10     120 deg rotation - cart. axis [-1,1,-1]      

 cryst.   s(10) = (    -1          0          1      )
                  (    -1          1          0      )
                  (    -1          0          0      )

 cart.    s(10) = (  0.0000000  0.0000000  1.0000000 )
                  ( -1.0000000  0.0000000  0.0000000 )
                  (  0.0000000 -1.0000000  0.0000000 )


      isym = 11     120 deg rotation - cart. axis [1,-1,-1]      

 cryst.   s(11) = (     1          0         -1      )
                  (     0          0         -1      )
                  (     0          1         -1      )

 cart.    s(11) = (  0.0000000  0.0000000 -1.0000000 )
                  ( -1.0000000  0.0000000  0.0000000 )
                  (  0.0000000  1.0000000  0.0000000 )


      isym = 12     120 deg rotation - cart. axis [-1,-1,1]      

 cryst.   s(12) = (     0         -1          0      )
                  (     1         -1          0      )
                  (     0         -1          1      )

 cart.    s(12) = (  0.0000000  0.0000000 -1.0000000 )
                  (  1.0000000  0.0000000  0.0000000 )
                  (  0.0000000 -1.0000000  0.0000000 )


      isym = 13     inv. 180 deg rotation - cart. axis [1,1,0]   

 cryst.   s(13) = (     1          0         -1      )
                  (     0          1         -1      )
                  (     0          0         -1      )

 cart.    s(13) = (  0.0000000 -1.0000000  0.0000000 )
                  ( -1.0000000  0.0000000  0.0000000 )
                  (  0.0000000  0.0000000  1.0000000 )


      isym = 14     inv. 180 deg rotation - cart. axis [1,-1,0]  

 cryst.   s(14) = (     0          1          0      )
                  (     1          0          0      )
                  (     0          0          1      )

 cart.    s(14) = (  0.0000000  1.0000000  0.0000000 )
                  (  1.0000000  0.0000000  0.0000000 )
                  (  0.0000000  0.0000000  1.0000000 )


      isym = 15     inv.  90 deg rotation - cart. axis [0,0,-1]  

 cryst.   s(15) = (     0         -1          0      )
                  (     0         -1          1      )
                  (     1         -1          0      )

 cart.    s(15) = (  0.0000000 -1.0000000  0.0000000 )
                  (  1.0000000  0.0000000  0.0000000 )
                  (  0.0000000  0.0000000 -1.0000000 )


      isym = 16     inv.  90 deg rotation - cart. axis [0,0,1]   

 cryst.   s(16) = (    -1          0          1      )
                  (    -1          0          0      )
                  (    -1          1          0      )

 cart.    s(16) = (  0.0000000  1.0000000  0.0000000 )
                  ( -1.0000000  0.0000000  0.0000000 )
                  (  0.0000000  0.0000000 -1.0000000 )


      isym = 17     inv. 180 deg rotation - cart. axis [1,0,1]   

 cryst.   s(17) = (     1         -1          0      )
                  (     0         -1          0      )
                  (     0         -1          1      )

 cart.    s(17) = (  0.0000000  0.0000000 -1.0000000 )
                  (  0.0000000  1.0000000  0.0000000 )
                  ( -1.0000000  0.0000000  0.0000000 )


      isym = 18     inv. 180 deg rotation - cart. axis [-1,0,1]  

 cryst.   s(18) = (     0          0          1      )
                  (     0          1          0      )
                  (     1          0          0      )

 cart.    s(18) = (  0.0000000  0.0000000  1.0000000 )
                  (  0.0000000  1.0000000  0.0000000 )
                  (  1.0000000  0.0000000  0.0000000 )


      isym = 19     inv.  90 deg rotation - cart. axis [0,1,0]   

 cryst.   s(19) = (     0          0         -1      )
                  (     1          0         -1      )
                  (     0          1         -1      )

 cart.    s(19) = (  0.0000000  0.0000000 -1.0000000 )
                  (  0.0000000 -1.0000000  0.0000000 )
                  (  1.0000000  0.0000000  0.0000000 )


      isym = 20     inv.  90 deg rotation - cart. axis [0,-1,0]  

 cryst.   s(20) = (    -1          1          0      )
                  (    -1          0          1      )
                  (    -1          0          0      )

 cart.    s(20) = (  0.0000000  0.0000000  1.0000000 )
                  (  0.0000000 -1.0000000  0.0000000 )
                  ( -1.0000000  0.0000000  0.0000000 )


      isym = 21     inv. 180 deg rotation - cart. axis [0,1,1]   

 cryst.   s(21) = (    -1          0          0      )
                  (    -1          1          0      )
                  (    -1          0          1      )

 cart.    s(21) = (  1.0000000  0.0000000  0.0000000 )
                  (  0.0000000  0.0000000 -1.0000000 )
                  (  0.0000000 -1.0000000  0.0000000 )


      isym = 22     inv. 180 deg rotation - cart. axis [0,1,-1]  

 cryst.   s(22) = (     1          0          0      )
                  (     0          0          1      )
                  (     0          1          0      )

 cart.    s(22) = (  1.0000000  0.0000000  0.0000000 )
                  (  0.0000000  0.0000000  1.0000000 )
                  (  0.0000000  1.0000000  0.0000000 )


      isym = 23     inv.  90 deg rotation - cart. axis [-1,0,0]  

 cryst.   s(23) = (     0          1         -1      )
                  (     0          0         -1      )
                  (     1          0         -1      )

 cart.    s(23) = ( -1.0000000  0.0000000  0.0000000 )
                  (  0.0000000  0.0000000 -1.0000000 )
                  (  0.0000000  1.0000000  0.0000000 )


      isym = 24     inv.  90 deg rotation - cart. axis [1,0,0]   

 cryst.   s(24) = (     0         -1          1      )
                  (     1         -1          0      )
                  (     0         -1          0      )

 cart.    s(24) = ( -1.0000000  0.0000000  0.0000000 )
                  (  0.0000000  0.0000000  1.0000000 )
                  (  0.0000000 -1.0000000  0.0000000 )


   Cartesian axes

     site n.     atom                  positions (alat units)
         1        Hg     tau(   1) = (   0.0000000   0.0000000   0.0000000  )
         2        Te     tau(   2) = (   0.3535534   0.3535534   0.3535534  )

   Crystallographic axes

     site n.     atom                  positions (cryst. coord.)
         1        Hg     tau(   1) = (  0.0000000  0.0000000  0.0000000  )
         2        Te     tau(   2) = (  0.2500000  0.2500000  0.2500000  )

     number of k points=    47
                       cart. coord. in units 2pi/alat
        k(    1) = (   0.0000000   0.0000000   0.0000000), wk =   0.0020000
        k(    2) = (   0.0707107   0.0707107  -0.0707107), wk =   0.0160000
        k(    3) = (   0.1414214   0.1414214  -0.1414214), wk =   0.0160000
        k(    4) = (   0.2121320   0.2121320  -0.2121320), wk =   0.0160000
        k(    5) = (   0.2828427   0.2828427  -0.2828427), wk =   0.0160000
        k(    6) = (  -0.3535534  -0.3535534   0.3535534), wk =   0.0080000
        k(    7) = (   0.1414214   0.0000000   0.0000000), wk =   0.0120000
        k(    8) = (   0.2121320   0.0707107  -0.0707107), wk =   0.0480000
        k(    9) = (   0.2828427   0.1414214  -0.1414214), wk =   0.0480000
        k(   10) = (   0.3535534   0.2121320  -0.2121320), wk =   0.0480000
        k(   11) = (  -0.2828427  -0.4242641   0.4242641), wk =   0.0480000
        k(   12) = (  -0.2121320  -0.3535534   0.3535534), wk =   0.0480000
        k(   13) = (  -0.1414214  -0.2828427   0.2828427), wk =   0.0480000
        k(   14) = (  -0.0707107  -0.2121320   0.2121320), wk =   0.0480000
        k(   15) = (   0.0000000  -0.1414214   0.1414214), wk =   0.0240000
        k(   16) = (   0.2828427   0.0000000   0.0000000), wk =   0.0120000
        k(   17) = (   0.3535534   0.0707107  -0.0707107), wk =   0.0480000
        k(   18) = (   0.4242641   0.1414214  -0.1414214), wk =   0.0480000
        k(   19) = (  -0.2121320  -0.4949747   0.4949747), wk =   0.0480000
        k(   20) = (  -0.1414214  -0.4242641   0.4242641), wk =   0.0480000
        k(   21) = (  -0.0707107  -0.3535534   0.3535534), wk =   0.0480000
        k(   22) = (   0.0000000  -0.2828427   0.2828427), wk =   0.0240000
        k(   23) = (   0.4242641   0.0000000   0.0000000), wk =   0.0120000
        k(   24) = (   0.4949747   0.0707107  -0.0707107), wk =   0.0480000
        k(   25) = (  -0.1414214  -0.5656854   0.5656854), wk =   0.0480000
        k(   26) = (  -0.0707107  -0.4949747   0.4949747), wk =   0.0480000
        k(   27) = (  -0.0000000  -0.4242641   0.4242641), wk =   0.0240000
        k(   28) = (   0.5656854   0.0000000   0.0000000), wk =   0.0120000
        k(   29) = (  -0.0707107  -0.6363961   0.6363961), wk =   0.0480000
        k(   30) = (   0.0000000  -0.5656854   0.5656854), wk =   0.0240000
        k(   31) = (  -0.7071068   0.0000000   0.0000000), wk =   0.0060000
        k(   32) = (   0.2828427   0.1414214   0.0000000), wk =   0.0480000
        k(   33) = (   0.3535534   0.2121320  -0.0707107), wk =   0.0960000
        k(   34) = (  -0.2828427  -0.4242641   0.5656854), wk =   0.0960000
        k(   35) = (  -0.2121320  -0.3535534   0.4949747), wk =   0.0480000
        k(   36) = (   0.4242641   0.1414214  -0.0000000), wk =   0.0480000
        k(   37) = (  -0.2121320  -0.4949747   0.6363961), wk =   0.0960000
        k(   38) = (  -0.1414214  -0.4242641   0.5656854), wk =   0.0960000
        k(   39) = (  -0.0707107  -0.3535534   0.4949747), wk =   0.0960000
        k(   40) = (   0.0000000  -0.2828427   0.4242641), wk =   0.0480000
        k(   41) = (  -0.1414214  -0.5656854   0.7071068), wk =   0.0480000
        k(   42) = (  -0.0707107  -0.4949747   0.6363961), wk =   0.0960000
        k(   43) = (  -0.0000000  -0.4242641   0.5656854), wk =   0.0480000
        k(   44) = (  -0.7071068   0.1414214   0.0000000), wk =   0.0240000
        k(   45) = (  -0.1414214  -0.4242641   0.7071068), wk =   0.0480000
        k(   46) = (  -0.0707107  -0.3535534   0.6363961), wk =   0.0480000
        k(   47) = (  -0.7071068   0.2828427   0.0000000), wk =   0.0240000

                       cryst. coord.
        k(    1) = (   0.0000000   0.0000000   0.0000000), wk =   0.0020000
        k(    2) = (   0.0000000   0.0000000   0.1000000), wk =   0.0160000
        k(    3) = (   0.0000000   0.0000000   0.2000000), wk =   0.0160000
        k(    4) = (   0.0000000   0.0000000   0.3000000), wk =   0.0160000
        k(    5) = (   0.0000000   0.0000000   0.4000000), wk =   0.0160000
        k(    6) = (   0.0000000   0.0000000  -0.5000000), wk =   0.0080000
        k(    7) = (   0.0000000   0.1000000   0.1000000), wk =   0.0120000
        k(    8) = (   0.0000000   0.1000000   0.2000000), wk =   0.0480000
        k(    9) = (   0.0000000   0.1000000   0.3000000), wk =   0.0480000
        k(   10) = (   0.0000000   0.1000000   0.4000000), wk =   0.0480000
        k(   11) = (   0.0000000   0.1000000  -0.5000000), wk =   0.0480000
        k(   12) = (   0.0000000   0.1000000  -0.4000000), wk =   0.0480000
        k(   13) = (   0.0000000   0.1000000  -0.3000000), wk =   0.0480000
        k(   14) = (   0.0000000   0.1000000  -0.2000000), wk =   0.0480000
        k(   15) = (   0.0000000   0.1000000  -0.1000000), wk =   0.0240000
        k(   16) = (   0.0000000   0.2000000   0.2000000), wk =   0.0120000
        k(   17) = (   0.0000000   0.2000000   0.3000000), wk =   0.0480000
        k(   18) = (   0.0000000   0.2000000   0.4000000), wk =   0.0480000
        k(   19) = (   0.0000000   0.2000000  -0.5000000), wk =   0.0480000
        k(   20) = (   0.0000000   0.2000000  -0.4000000), wk =   0.0480000
        k(   21) = (   0.0000000   0.2000000  -0.3000000), wk =   0.0480000
        k(   22) = (   0.0000000   0.2000000  -0.2000000), wk =   0.0240000
        k(   23) = (   0.0000000   0.3000000   0.3000000), wk =   0.0120000
        k(   24) = (   0.0000000   0.3000000   0.4000000), wk =   0.0480000
        k(   25) = (   0.0000000   0.3000000  -0.5000000), wk =   0.0480000
        k(   26) = (   0.0000000   0.3000000  -0.4000000), wk =   0.0480000
        k(   27) = (   0.0000000   0.3000000  -0.3000000), wk =   0.0240000
        k(   28) = (   0.0000000   0.4000000   0.4000000), wk =   0.0120000
        k(   29) = (   0.0000000   0.4000000  -0.5000000), wk =   0.0480000
        k(   30) = (   0.0000000   0.4000000  -0.4000000), wk =   0.0240000
        k(   31) = (   0.0000000  -0.5000000  -0.5000000), wk =   0.0060000
        k(   32) = (   0.1000000   0.2000000   0.3000000), wk =   0.0480000
        k(   33) = (   0.1000000   0.2000000   0.4000000), wk =   0.0960000
        k(   34) = (   0.1000000   0.2000000  -0.5000000), wk =   0.0960000
        k(   35) = (   0.1000000   0.2000000  -0.4000000), wk =   0.0480000
        k(   36) = (   0.1000000   0.3000000   0.4000000), wk =   0.0480000
        k(   37) = (   0.1000000   0.3000000  -0.5000000), wk =   0.0960000
        k(   38) = (   0.1000000   0.3000000  -0.4000000), wk =   0.0960000
        k(   39) = (   0.1000000   0.3000000  -0.3000000), wk =   0.0960000
        k(   40) = (   0.1000000   0.3000000  -0.2000000), wk =   0.0480000
        k(   41) = (   0.1000000   0.4000000  -0.5000000), wk =   0.0480000
        k(   42) = (   0.1000000   0.4000000  -0.4000000), wk =   0.0960000
        k(   43) = (   0.1000000   0.4000000  -0.3000000), wk =   0.0480000
        k(   44) = (   0.1000000  -0.5000000  -0.4000000), wk =   0.0240000
        k(   45) = (   0.2000000   0.4000000  -0.4000000), wk =   0.0480000
        k(   46) = (   0.2000000   0.4000000  -0.3000000), wk =   0.0480000
        k(   47) = (   0.2000000  -0.5000000  -0.3000000), wk =   0.0240000

     Dense  grid:   148117 G-vectors     FFT dimensions: (  75,  75,  75)

     Smooth grid:    80347 G-vectors     FFT dimensions: (  64,  64,  64)

     Dynamical RAM for                 wfc:       0.33 MB

     Dynamical RAM for     wfc (w. buffer):      15.97 MB

     Dynamical RAM for           str. fact:       0.75 MB

     Dynamical RAM for           local pot:       0.00 MB

     Dynamical RAM for          nlocal pot:       0.92 MB

     Dynamical RAM for                qrad:      12.92 MB

     Dynamical RAM for          rho,v,vnew:       2.80 MB

     Dynamical RAM for               rhoin:       0.93 MB

     Dynamical RAM for            rho*nmix:       6.03 MB

     Dynamical RAM for           G-vectors:       1.51 MB

     Dynamical RAM for          h,s,v(r/c):       0.03 MB

     Dynamical RAM for          <psi|beta>:       0.01 MB

     Dynamical RAM for                 psi:       0.67 MB

     Dynamical RAM for                hpsi:       0.67 MB

     Dynamical RAM for                spsi:       0.67 MB

     Dynamical RAM for      wfcinit/wfcrot:       0.67 MB

     Dynamical RAM for           addusdens:      70.45 MB

     Dynamical RAM for          addusforce:      70.64 MB

     Dynamical RAM for         addusstress:      75.72 MB

     Estimated static dynamical RAM per process >      39.73 MB

     Estimated max dynamical RAM per process >     121.48 MB

     Estimated total dynamical RAM >     728.88 MB

     Initial potential from superposition of free atoms

     starting charge      25.9997, renormalised to      26.0000
     Starting wfcs are   14 randomized atomic wfcs

     total cpu time spent up to now is        1.9 secs

     per-process dynamical memory:    53.6 Mb

     Self-consistent Calculation

     iteration #  1     ecut=   120.00 Ry     beta= 0.30
     Davidson diagonalization with overlap

---- Real-time Memory Report at c_bands before calling an iterative solver
           146 MiB given to the printing process from OS
            52 MiB allocation reported by mallinfo(arena+hblkhd)
          9224 MiB available memory on the node where the printing process lives
------------------
     ethr =  1.00E-02,  avg # of iterations =  2.0

     Threshold (ethr) on eigenvalues was too large:
     Diagonalizing with lowered threshold

     Davidson diagonalization with overlap

---- Real-time Memory Report at c_bands before calling an iterative solver
           164 MiB given to the printing process from OS
            57 MiB allocation reported by mallinfo(arena+hblkhd)
          9132 MiB available memory on the node where the printing process lives
------------------
     ethr =  2.04E-04,  avg # of iterations =  4.1

     total cpu time spent up to now is        6.0 secs

     total energy              =    -346.19978813 Ry
     estimated scf accuracy    <       0.05258878 Ry

     iteration #  2     ecut=   120.00 Ry     beta= 0.30
     Davidson diagonalization with overlap

---- Real-time Memory Report at c_bands before calling an iterative solver
           169 MiB given to the printing process from OS
            63 MiB allocation reported by mallinfo(arena+hblkhd)
          9136 MiB available memory on the node where the printing process lives
------------------
     ethr =  2.02E-04,  avg # of iterations =  2.1

     total cpu time spent up to now is        8.2 secs

     total energy              =    -346.20500395 Ry
     estimated scf accuracy    <       0.00620635 Ry

     iteration #  3     ecut=   120.00 Ry     beta= 0.30
     Davidson diagonalization with overlap

---- Real-time Memory Report at c_bands before calling an iterative solver
           170 MiB given to the printing process from OS
            64 MiB allocation reported by mallinfo(arena+hblkhd)
          9129 MiB available memory on the node where the printing process lives
------------------
     ethr =  2.39E-05,  avg # of iterations =  2.9

     total cpu time spent up to now is       10.4 secs

     total energy              =    -346.20607279 Ry
     estimated scf accuracy    <       0.00136934 Ry

     iteration #  4     ecut=   120.00 Ry     beta= 0.30
     Davidson diagonalization with overlap

---- Real-time Memory Report at c_bands before calling an iterative solver
           170 MiB given to the printing process from OS
            64 MiB allocation reported by mallinfo(arena+hblkhd)
          9046 MiB available memory on the node where the printing process lives
------------------
     ethr =  5.27E-06,  avg # of iterations =  2.0

     total cpu time spent up to now is       12.3 secs

     total energy              =    -346.20617999 Ry
     estimated scf accuracy    <       0.00010561 Ry

     iteration #  5     ecut=   120.00 Ry     beta= 0.30
     Davidson diagonalization with overlap

---- Real-time Memory Report at c_bands before calling an iterative solver
           170 MiB given to the printing process from OS
            64 MiB allocation reported by mallinfo(arena+hblkhd)
          9073 MiB available memory on the node where the printing process lives
------------------
     ethr =  4.06E-07,  avg # of iterations =  3.2

     total cpu time spent up to now is       15.4 secs

     total energy              =    -346.20619900 Ry
     estimated scf accuracy    <       0.00000983 Ry

     iteration #  6     ecut=   120.00 Ry     beta= 0.30
     Davidson diagonalization with overlap

---- Real-time Memory Report at c_bands before calling an iterative solver
           171 MiB given to the printing process from OS
            65 MiB allocation reported by mallinfo(arena+hblkhd)
          9069 MiB available memory on the node where the printing process lives
------------------
     ethr =  3.78E-08,  avg # of iterations =  3.7

     total cpu time spent up to now is       17.9 secs

     total energy              =    -346.20620149 Ry
     estimated scf accuracy    <       0.00000146 Ry

     iteration #  7     ecut=   120.00 Ry     beta= 0.30
     Davidson diagonalization with overlap

---- Real-time Memory Report at c_bands before calling an iterative solver
           171 MiB given to the printing process from OS
            65 MiB allocation reported by mallinfo(arena+hblkhd)
          9079 MiB available memory on the node where the printing process lives
------------------
     ethr =  5.60E-09,  avg # of iterations =  3.7

     total cpu time spent up to now is       20.4 secs

     total energy              =    -346.20620157 Ry
     estimated scf accuracy    <       0.00000233 Ry

     iteration #  8     ecut=   120.00 Ry     beta= 0.30
     Davidson diagonalization with overlap

---- Real-time Memory Report at c_bands before calling an iterative solver
           172 MiB given to the printing process from OS
            66 MiB allocation reported by mallinfo(arena+hblkhd)
          9065 MiB available memory on the node where the printing process lives
------------------
     ethr =  5.60E-09,  avg # of iterations =  2.0

     total cpu time spent up to now is       22.6 secs

     total energy              =    -346.20620195 Ry
     estimated scf accuracy    <       0.00000004 Ry

     iteration #  9     ecut=   120.00 Ry     beta= 0.30
     Davidson diagonalization with overlap

---- Real-time Memory Report at c_bands before calling an iterative solver
           172 MiB given to the printing process from OS
            66 MiB allocation reported by mallinfo(arena+hblkhd)
          9102 MiB available memory on the node where the printing process lives
------------------
     ethr =  1.39E-10,  avg # of iterations =  5.3

     total cpu time spent up to now is       25.6 secs

     total energy              =    -346.20620199 Ry
     estimated scf accuracy    <       0.00000006 Ry

     iteration # 10     ecut=   120.00 Ry     beta= 0.30
     Davidson diagonalization with overlap

---- Real-time Memory Report at c_bands before calling an iterative solver
           172 MiB given to the printing process from OS
            66 MiB allocation reported by mallinfo(arena+hblkhd)
          9106 MiB available memory on the node where the printing process lives
------------------
     ethr =  1.39E-10,  avg # of iterations =  3.5

     total cpu time spent up to now is       27.9 secs

     total energy              =    -346.20620200 Ry
     estimated scf accuracy    <          7.8E-10 Ry

     iteration # 11     ecut=   120.00 Ry     beta= 0.30
     Davidson diagonalization with overlap

---- Real-time Memory Report at c_bands before calling an iterative solver
           172 MiB given to the printing process from OS
            66 MiB allocation reported by mallinfo(arena+hblkhd)
          9097 MiB available memory on the node where the printing process lives
------------------
     ethr =  2.99E-12,  avg # of iterations =  4.8

     total cpu time spent up to now is       30.4 secs

     total energy              =    -346.20620200 Ry
     estimated scf accuracy    <          5.9E-09 Ry

     iteration # 12     ecut=   120.00 Ry     beta= 0.30
     Davidson diagonalization with overlap

---- Real-time Memory Report at c_bands before calling an iterative solver
           172 MiB given to the printing process from OS
            66 MiB allocation reported by mallinfo(arena+hblkhd)
          9088 MiB available memory on the node where the printing process lives
------------------
     ethr =  2.99E-12,  avg # of iterations =  4.3

     total cpu time spent up to now is       33.1 secs

     total energy              =    -346.20620200 Ry
     estimated scf accuracy    <          3.8E-10 Ry

     iteration # 13     ecut=   120.00 Ry     beta= 0.30
     Davidson diagonalization with overlap

---- Real-time Memory Report at c_bands before calling an iterative solver
           172 MiB given to the printing process from OS
            66 MiB allocation reported by mallinfo(arena+hblkhd)
          9097 MiB available memory on the node where the printing process lives
------------------
     ethr =  1.45E-12,  avg # of iterations =  2.2

     total cpu time spent up to now is       35.2 secs

     End of self-consistent calculation

          k = 0.0000 0.0000 0.0000 ( 10081 PWs)   bands (ev):

  -107.6616 -55.9936 -55.9936 -55.9936  -4.5646   0.0889   0.0889   0.0889
     0.6254   0.6254   6.7440   7.4595   7.4595

     occupation numbers 
     1.0000   1.0000   1.0000   1.0000   1.0000   1.0000   1.0000   1.0000
     1.0000   1.0000   1.0000   1.0000   1.0000

          k = 0.0707 0.0707-0.0707 (  9991 PWs)   bands (ev):

  -107.6616 -55.9936 -55.9936 -55.9936  -4.5139   0.1032   0.1032   0.1065
     0.6240   0.6240   5.9073   7.3424   7.3424

     occupation numbers 
     1.0000   1.0000   1.0000   1.0000   1.0000   1.0000   1.0000   1.0000
     1.0000   1.0000   1.0000   1.0000   1.0000

          k = 0.1414 0.1414-0.1414 ( 10033 PWs)   bands (ev):

  -107.6616 -55.9937 -55.9936 -55.9936  -4.3767   0.1389   0.1389   0.1775
     0.6232   0.6232   4.6907   7.0659   7.0659

     occupation numbers 
     1.0000   1.0000   1.0000   1.0000   1.0000   1.0000   1.0000   1.0000
     1.0000   1.0000   1.0000   1.0000   1.0000

          k = 0.2121 0.2121-0.2121 ( 10056 PWs)   bands (ev):

  -107.6616 -55.9938 -55.9937 -55.9937  -4.1977   0.1783   0.1783   0.3494
     0.6294   0.6294   3.4910   6.7652   6.7652

     occupation numbers 
     1.0000   1.0000   1.0000   1.0000   1.0000   1.0000   1.0000   1.0000
     1.0000   1.0000   1.0000   1.0000   1.0000

          k = 0.2828 0.2828-0.2828 ( 10047 PWs)   bands (ev):

  -107.6616 -55.9939 -55.9937 -55.9937  -4.0448   0.2050   0.2050   0.6420
     0.6420   0.6620   2.4679   6.5443   6.5443

     occupation numbers 
     1.0000   1.0000   1.0000   1.0000   1.0000   1.0000   1.0000   1.0000
     1.0000   1.0000   1.0000   1.0000   1.0000

          k =-0.3536-0.3536 0.3536 ( 10002 PWs)   bands (ev):

  -107.6616 -55.9939 -55.9937 -55.9937  -3.9844   0.2137   0.2137   0.6489
     0.6489   0.9366   1.9392   6.4639   6.4639

     occupation numbers 
     1.0000   1.0000   1.0000   1.0000   1.0000   1.0000   1.0000   1.0000
     1.0000   1.0000   1.0000   1.0000   1.0000

          k = 0.1414 0.0000 0.0000 ( 10005 PWs)   bands (ev):

  -107.6616 -55.9936 -55.9936 -55.9936  -4.4969   0.0951   0.1166   0.1166
     0.6150   0.6318   5.8209   7.1467   7.1467

     occupation numbers 
     1.0000   1.0000   1.0000   1.0000   1.0000   1.0000   1.0000   1.0000
     1.0000   1.0000   1.0000   1.0000   1.0000

          k = 0.2121 0.0707-0.0707 ( 10030 PWs)   bands (ev):

  -107.6616 -55.9937 -55.9936 -55.9936  -4.3882   0.1202   0.1532   0.1644
     0.6075   0.6373   4.9368   6.8303   6.8655

     occupation numbers 
     1.0000   1.0000   1.0000   1.0000   1.0000   1.0000   1.0000   1.0000
     1.0000   1.0000   1.0000   1.0000   1.0000

          k = 0.2828 0.1414-0.1414 ( 10040 PWs)   bands (ev):

  -107.6616 -55.9938 -55.9937 -55.9937  -4.2221   0.1647   0.1953   0.2872
     0.6125   0.6441   3.8260   6.5101   6.5313

     occupation numbers 
     1.0000   1.0000   1.0000   1.0000   1.0000   1.0000   1.0000   1.0000
     1.0000   1.0000   1.0000   1.0000   1.0000

          k = 0.3536 0.2121-0.2121 ( 10057 PWs)   bands (ev):

  -107.6616 -55.9938 -55.9937 -55.9937  -4.0588   0.2006   0.2249   0.5159
     0.6517   0.6608   2.7818   6.1709   6.3434

     occupation numbers 
     1.0000   1.0000   1.0000   1.0000   1.0000   1.0000   1.0000   1.0000
     1.0000   1.0000   1.0000   1.0000   1.0000

          k =-0.2828-0.4243 0.4243 ( 10068 PWs)   bands (ev):

  -107.6616 -55.9939 -55.9937 -55.9937  -3.9662   0.2193   0.2346   0.6209
     0.6507   0.9136   2.0523   5.9406   6.3161

     occupation numbers 
     1.0000   1.0000   1.0000   1.0000   1.0000   1.0000   1.0000   1.0000
     1.0000   1.0000   1.0000   1.0000   1.0000

          k =-0.2121-0.3536 0.3536 ( 10065 PWs)   bands (ev):

  -107.6616 -55.9939 -55.9937 -55.9937  -3.9864   0.2217   0.2252   0.6287
     0.6357   0.8166   2.2356   5.8723   6.4569

     occupation numbers 
     1.0000   1.0000   1.0000   1.0000   1.0000   1.0000   1.0000   1.0000
     1.0000   1.0000   1.0000   1.0000   1.0000

          k =-0.1414-0.2828 0.2828 ( 10056 PWs)   bands (ev):

  -107.6616 -55.9938 -55.9937 -55.9937  -4.1101   0.1976   0.2073   0.4443
     0.6170   0.6583   3.1113   5.9921   6.7294

     occupation numbers 
     1.0000   1.0000   1.0000   1.0000   1.0000   1.0000   1.0000   1.0000
     1.0000   1.0000   1.0000   1.0000   1.0000

          k =-0.0707-0.2121 0.2121 ( 10042 PWs)   bands (ev):

  -107.6616 -55.9937 -55.9937 -55.9936  -4.2821   0.1568   0.1739   0.2368
     0.6092   0.6405   4.1860   6.3072   7.0527

     occupation numbers 
     1.0000   1.0000   1.0000   1.0000   1.0000   1.0000   1.0000   1.0000
     1.0000   1.0000   1.0000   1.0000   1.0000

          k = 0.0000-0.1414 0.1414 ( 10043 PWs)   bands (ev):

  -107.6616 -55.9937 -55.9936 -55.9936  -4.4341   0.1193   0.1286   0.1430
     0.6143   0.6312   5.2192   6.8132   7.3018

     occupation numbers 
     1.0000   1.0000   1.0000   1.0000   1.0000   1.0000   1.0000   1.0000
     1.0000   1.0000   1.0000   1.0000   1.0000

          k = 0.2828 0.0000 0.0000 ( 10057 PWs)   bands (ev):

  -107.6616 -55.9937 -55.9937 -55.9937  -4.3129   0.1268   0.1936   0.1936
     0.5963   0.6486   4.6462   6.4804   6.4804

     occupation numbers 
     1.0000   1.0000   1.0000   1.0000   1.0000   1.0000   1.0000   1.0000
     1.0000   1.0000   1.0000   1.0000   1.0000

          k = 0.3536 0.0707-0.0707 ( 10061 PWs)   bands (ev):

  -107.6616 -55.9938 -55.9937 -55.9937  -4.1748   0.1698   0.2421   0.2683
     0.6056   0.6578   3.8920   6.0769   6.1619

     occupation numbers 
     1.0000   1.0000   1.0000   1.0000   1.0000   1.0000   1.0000   1.0000
     1.0000   1.0000   1.0000   1.0000   1.0000

          k = 0.4243 0.1414-0.1414 ( 10068 PWs)   bands (ev):

  -107.6616 -55.9938 -55.9937 -55.9937  -4.0227   0.2152   0.2780   0.4129
     0.6632   0.6805   3.0099   5.6125   5.9722

     occupation numbers 
     1.0000   1.0000   1.0000   1.0000   1.0000   1.0000   1.0000   1.0000
     1.0000   1.0000   1.0000   1.0000   1.0000

          k =-0.2121-0.4950 0.4950 ( 10061 PWs)   bands (ev):

  -107.6616 -55.9939 -55.9937 -55.9937  -3.9175   0.2386   0.2903   0.5427
     0.6570   0.9025   2.2660   5.2303   5.9619

     occupation numbers 
     1.0000   1.0000   1.0000   1.0000   1.0000   1.0000   1.0000   1.0000
     1.0000   1.0000   1.0000   1.0000   1.0000

          k =-0.1414-0.4243 0.4243 ( 10066 PWs)   bands (ev):

  -107.6616 -55.9939 -55.9937 -55.9937  -3.9047   0.2459   0.2788   0.5991
     0.6359   0.9647   2.1278   5.0298   6.1349

     occupation numbers 
     1.0000   1.0000   1.0000   1.0000   1.0000   1.0000   1.0000   1.0000
     1.0000   1.0000   1.0000   1.0000   1.0000

          k =-0.0707-0.3536 0.3536 ( 10066 PWs)   bands (ev):

  -107.6616 -55.9938 -55.9937 -55.9937  -3.9898   0.2407   0.2457   0.5528
     0.6126   0.7264   2.7388   5.0906   6.4458

     occupation numbers 
     1.0000   1.0000   1.0000   1.0000   1.0000   1.0000   1.0000   1.0000
     1.0000   1.0000   1.0000   1.0000   1.0000

          k = 0.0000-0.2828 0.2828 ( 10071 PWs)   bands (ev):

  -107.6616 -55.9938 -55.9937 -55.9937  -4.1354   0.1987   0.2168   0.3598
     0.6031   0.6636   3.5176   5.5087   6.7994

     occupation numbers 
     1.0000   1.0000   1.0000   1.0000   1.0000   1.0000   1.0000   1.0000
     1.0000   1.0000   1.0000   1.0000   1.0000

          k = 0.4243 0.0000 0.0000 ( 10077 PWs)   bands (ev):

  -107.6616 -55.9938 -55.9937 -55.9937  -4.0710   0.1981   0.2996   0.2996
     0.6253   0.6695   3.5179   5.8137   5.8137

     occupation numbers 
     1.0000   1.0000   1.0000   1.0000   1.0000   1.0000   1.0000   1.0000
     1.0000   1.0000   1.0000   1.0000   1.0000

          k = 0.4950 0.0707-0.0707 ( 10075 PWs)   bands (ev):

  -107.6616 -55.9938 -55.9937 -55.9937  -3.9482   0.2405   0.3440   0.3715
     0.6759   0.7226   2.9115   5.4082   5.5963

     occupation numbers 
     1.0000   1.0000   1.0000   1.0000   1.0000   1.0000   1.0000   1.0000
     1.0000   1.0000   1.0000   1.0000   1.0000

          k =-0.1414-0.5657 0.5657 ( 10067 PWs)   bands (ev):

  -107.6616 -55.9939 -55.9937 -55.9937  -3.8546   0.2666   0.3603   0.4617
     0.6689   0.9430   2.3212   4.9103   5.5694

     occupation numbers 
     1.0000   1.0000   1.0000   1.0000   1.0000   1.0000   1.0000   1.0000
     1.0000   1.0000   1.0000   1.0000   1.0000

          k =-0.0707-0.4950 0.4950 ( 10068 PWs)   bands (ev):

  -107.6616 -55.9939 -55.9938 -55.9937  -3.8291   0.2709   0.3456   0.5449
     0.6463   1.1032   2.0451   4.5668   5.7417

     occupation numbers 
     1.0000   1.0000   1.0000   1.0000   1.0000   1.0000   1.0000   1.0000
     1.0000   1.0000   1.0000   1.0000   1.0000

          k =-0.0000-0.4243 0.4243 ( 10073 PWs)   bands (ev):

  -107.6616 -55.9939 -55.9937 -55.9937  -3.8817   0.2626   0.3029   0.5890
     0.6226   0.9184   2.3306   4.5800   6.0668

     occupation numbers 
     1.0000   1.0000   1.0000   1.0000   1.0000   1.0000   1.0000   1.0000
     1.0000   1.0000   1.0000   1.0000   1.0000

          k = 0.5657 0.0000 0.0000 ( 10082 PWs)   bands (ev):

  -107.6616 -55.9939 -55.9937 -55.9937  -3.8629   0.2544   0.3963   0.3963
     0.6864   0.8301   2.5308   5.3398   5.3398

     occupation numbers 
     1.0000   1.0000   1.0000   1.0000   1.0000   1.0000   1.0000   1.0000
     1.0000   1.0000   1.0000   1.0000   1.0000

          k =-0.0707-0.6364 0.6364 ( 10066 PWs)   bands (ev):

  -107.6616 -55.9939 -55.9937 -55.9937  -3.8014   0.2726   0.4161   0.4330
     0.6846   1.0278   2.1347   5.0303   5.2762

     occupation numbers 
     1.0000   1.0000   1.0000   1.0000   1.0000   1.0000   1.0000   1.0000
     1.0000   1.0000   1.0000   1.0000   1.0000

          k = 0.0000-0.5657 0.5657 ( 10057 PWs)   bands (ev):

  -107.6616 -55.9939 -55.9937 -55.9937  -3.7888   0.2834   0.3978   0.4802
     0.6666   1.1758   1.9539   4.6425   5.4237

     occupation numbers 
     1.0000   1.0000   1.0000   1.0000   1.0000   1.0000   1.0000   1.0000
     1.0000   1.0000   1.0000   1.0000   1.0000

          k =-0.7071 0.0000 0.0000 ( 10086 PWs)   bands (ev):

  -107.6616 -55.9939 -55.9937 -55.9937  -3.7804   0.2650   0.4364   0.4364
     0.6929   1.0874   1.9987   5.1683   5.1683

     occupation numbers 
     1.0000   1.0000   1.0000   1.0000   1.0000   1.0000   1.0000   1.0000
     1.0000   1.0000   1.0000   1.0000   1.0000

          k = 0.2828 0.1414 0.0000 ( 10051 PWs)   bands (ev):

  -107.6616 -55.9937 -55.9937 -55.9936  -4.2645   0.1522   0.1969   0.2300
     0.6025   0.6477   4.2481   6.1436   6.7454

     occupation numbers 
     1.0000   1.0000   1.0000   1.0000   1.0000   1.0000   1.0000   1.0000
     1.0000   1.0000   1.0000   1.0000   1.0000

          k = 0.3536 0.2121-0.0707 ( 10065 PWs)   bands (ev):

  -107.6616 -55.9938 -55.9937 -55.9937  -4.1045   0.1991   0.2354   0.3766
     0.6188   0.6642   3.3566   5.6368   6.4721

     occupation numbers 
     1.0000   1.0000   1.0000   1.0000   1.0000   1.0000   1.0000   1.0000
     1.0000   1.0000   1.0000   1.0000   1.0000

          k =-0.2828-0.4243 0.5657 ( 10076 PWs)   bands (ev):

  -107.6616 -55.9939 -55.9937 -55.9937  -3.9693   0.2311   0.2583   0.5520
     0.6456   0.7805   2.4966   5.3751   6.2068

     occupation numbers 
     1.0000   1.0000   1.0000   1.0000   1.0000   1.0000   1.0000   1.0000
     1.0000   1.0000   1.0000   1.0000   1.0000

          k =-0.2121-0.3536 0.4950 ( 10064 PWs)   bands (ev):

  -107.6616 -55.9939 -55.9937 -55.9937  -3.9162   0.2403   0.2665   0.6032
     0.6404   0.9856   2.0475   5.2994   6.0983

     occupation numbers 
     1.0000   1.0000   1.0000   1.0000   1.0000   1.0000   1.0000   1.0000
     1.0000   1.0000   1.0000   1.0000   1.0000

          k = 0.4243 0.1414-0.0000 ( 10079 PWs)   bands (ev):

  -107.6616 -55.9938 -55.9937 -55.9937  -4.0434   0.2160   0.2848   0.3523
     0.6446   0.6720   3.2888   5.5181   5.9639

     occupation numbers 
     1.0000   1.0000   1.0000   1.0000   1.0000   1.0000   1.0000   1.0000
     1.0000   1.0000   1.0000   1.0000   1.0000

          k =-0.2121-0.4950 0.6364 ( 10082 PWs)   bands (ev):

  -107.6616 -55.9938 -55.9937 -55.9937  -3.9196   0.2573   0.3100   0.4659
     0.6599   0.8086   2.6154   5.0770   5.7356

     occupation numbers 
     1.0000   1.0000   1.0000   1.0000   1.0000   1.0000   1.0000   1.0000
     1.0000   1.0000   1.0000   1.0000   1.0000

          k =-0.1414-0.4243 0.5657 ( 10061 PWs)   bands (ev):

  -107.6616 -55.9939 -55.9937 -55.9937  -3.8538   0.2705   0.3197   0.5530
     0.6401   1.0406   2.1154   4.7928   5.6841

     occupation numbers 
     1.0000   1.0000   1.0000   1.0000   1.0000   1.0000   1.0000   1.0000
     1.0000   1.0000   1.0000   1.0000   1.0000

          k =-0.0707-0.3536 0.4950 ( 10072 PWs)   bands (ev):

  -107.6616 -55.9939 -55.9937 -55.9937  -3.8740   0.2710   0.3005   0.5756
     0.6271   0.9598   2.2504   4.7183   5.8629

     occupation numbers 
     1.0000   1.0000   1.0000   1.0000   1.0000   1.0000   1.0000   1.0000
     1.0000   1.0000   1.0000   1.0000   1.0000

          k = 0.0000-0.2828 0.4243 ( 10056 PWs)   bands (ev):

  -107.6616 -55.9938 -55.9937 -55.9937  -3.9711   0.2522   0.2639   0.5008
     0.6336   0.7379   2.8053   4.9762   6.1811

     occupation numbers 
     1.0000   1.0000   1.0000   1.0000   1.0000   1.0000   1.0000   1.0000
     1.0000   1.0000   1.0000   1.0000   1.0000

          k =-0.1414-0.5657 0.7071 ( 10086 PWs)   bands (ev):

  -107.6616 -55.9939 -55.9937 -55.9937  -3.8551   0.2730   0.3669   0.4314
     0.6754   0.8892   2.4380   5.1161   5.3436

     occupation numbers 
     1.0000   1.0000   1.0000   1.0000   1.0000   1.0000   1.0000   1.0000
     1.0000   1.0000   1.0000   1.0000   1.0000

          k =-0.0707-0.4950 0.6364 ( 10068 PWs)   bands (ev):

  -107.6616 -55.9939 -55.9937 -55.9937  -3.8017   0.2920   0.3738   0.4925
     0.6563   1.1197   2.0503   4.7432   5.2857

     occupation numbers 
     1.0000   1.0000   1.0000   1.0000   1.0000   1.0000   1.0000   1.0000
     1.0000   1.0000   1.0000   1.0000   1.0000

          k =-0.0000-0.4243 0.5657 ( 10068 PWs)   bands (ev):

  -107.6616 -55.9939 -55.9938 -55.9937  -3.8094   0.2888   0.3513   0.5564
     0.6266   1.1510   2.0126   4.5152   5.5011

     occupation numbers 
     1.0000   1.0000   1.0000   1.0000   1.0000   1.0000   1.0000   1.0000
     1.0000   1.0000   1.0000   1.0000   1.0000

          k =-0.7071 0.1414 0.0000 ( 10052 PWs)   bands (ev):

  -107.6616 -55.9939 -55.9937 -55.9937  -3.7809   0.2856   0.4080   0.4592
     0.6768   1.1479   1.9676   5.0236   5.0642

     occupation numbers 
     1.0000   1.0000   1.0000   1.0000   1.0000   1.0000   1.0000   1.0000
     1.0000   1.0000   1.0000   1.0000   1.0000

          k =-0.1414-0.4243 0.7071 ( 10070 PWs)   bands (ev):

  -107.6616 -55.9939 -55.9937 -55.9937  -3.8346   0.3006   0.3256   0.5271
     0.6372   1.0208   2.2173   4.7229   5.4030

     occupation numbers 
     1.0000   1.0000   1.0000   1.0000   1.0000   1.0000   1.0000   1.0000
     1.0000   1.0000   1.0000   1.0000   1.0000

          k =-0.0707-0.3536 0.6364 ( 10072 PWs)   bands (ev):

  -107.6616 -55.9939 -55.9938 -55.9937  -3.8019   0.3052   0.3456   0.5734
     0.6010   1.1777   1.9908   4.6294   5.2348

     occupation numbers 
     1.0000   1.0000   1.0000   1.0000   1.0000   1.0000   1.0000   1.0000
     1.0000   1.0000   1.0000   1.0000   1.0000

          k =-0.7071 0.2828 0.0000 ( 10082 PWs)   bands (ev):

  -107.6616 -55.9939 -55.9937 -55.9937  -3.7817   0.3117   0.3692   0.5335
     0.6231   1.2416   1.9139   4.8071   4.9154

     occupation numbers 
     1.0000   1.0000   1.0000   1.0000   1.0000   1.0000   1.0000   1.0000
     1.0000   1.0000   1.0000   1.0000   1.0000

     highest occupied level (ev):     7.4595

!    total energy              =    -346.20620200 Ry
     estimated scf accuracy    <          9.6E-12 Ry

     The total energy is the sum of the following terms:
     one-electron contribution =    -226.97925643 Ry
     hartree contribution      =     116.20441630 Ry
     xc contribution           =     -55.72067376 Ry
     ewald contribution        =    -179.71068811 Ry

     convergence has been achieved in  13 iterations

     Forces acting on atoms (cartesian axes, Ry/au):

     atom    1 type  1   force =     0.00000000    0.00000000    0.00000000
     atom    2 type  2   force =     0.00000000    0.00000000    0.00000000
     The non-local contrib.  to forces
     atom    1 type  1   force =    -0.00000000    0.00000000   -0.00000000
     atom    2 type  2   force =    -0.00000000   -0.00000000    0.00000000
     The ionic contribution  to forces
     atom    1 type  1   force =     0.00000000    0.00000000   -0.00000000
     atom    2 type  2   force =    -0.00000000   -0.00000000   -0.00000000
     The local contribution  to forces
     atom    1 type  1   force =    -0.00000000    0.00000000    0.00000000
     atom    2 type  2   force =    -0.00000000    0.00000000   -0.00000000
     The core correction contribution to forces
     atom    1 type  1   force =    -0.00000000   -0.00000000   -0.00000000
     atom    2 type  2   force =    -0.00000000    0.00000000   -0.00000000
     The Hubbard contrib.    to forces
     atom    1 type  1   force =     0.00000000    0.00000000    0.00000000
     atom    2 type  2   force =     0.00000000    0.00000000    0.00000000
     The SCF correction term to forces
     atom    1 type  1   force =     0.00000000    0.00000000   -0.00000000
     atom    2 type  2   force =    -0.00000000   -0.00000000   -0.00000000

     Total force =     0.000000     Total SCF correction =     0.000000


     Computing stress (Cartesian axis) and pressure

          total   stress  (Ry/bohr**3)                   (kbar)     P=       39.28
   0.00026700   0.00000000   0.00000000           39.28        0.00        0.00
   0.00000000   0.00026700   0.00000000            0.00       39.28        0.00
   0.00000000   0.00000000   0.00026700            0.00        0.00       39.28

     kinetic stress (kbar)  27114.60     -0.00     -0.00
                               -0.00  27114.60     -0.00
                               -0.00     -0.00  27114.60

     local   stress (kbar) -26167.42      0.00     -0.00
                                0.00 -26167.42     -0.00
                               -0.00     -0.00 -26167.42

     nonloc. stress (kbar)  10259.77      0.00      0.00
                                0.00  10259.77      0.00
                                0.00      0.00  10259.77

     hartree stress (kbar)  12569.19     -0.00     -0.00
                               -0.00  12569.19      0.00
                               -0.00      0.00  12569.19

     exc-cor stress (kbar)   3601.14      0.00     -0.00
                                0.00   3601.14     -0.00
                               -0.00     -0.00   3601.14

     corecor stress (kbar)  -7899.68     -0.00      0.00
                               -0.00  -7899.68      0.00
                                0.00      0.00  -7899.68

     ewald   stress (kbar) -19438.32     -0.00      0.00
                               -0.00 -19438.32     -0.00
                                0.00     -0.00 -19438.32

     hubbard stress (kbar)      0.00      0.00      0.00
                                0.00      0.00      0.00
                                0.00      0.00      0.00

     DFT-D   stress (kbar)      0.00      0.00      0.00
                                0.00      0.00      0.00
                                0.00      0.00      0.00

     XDM     stress (kbar)      0.00      0.00      0.00
                                0.00      0.00      0.00
                                0.00      0.00      0.00

     dft-nl  stress (kbar)      0.00      0.00      0.00
                                0.00      0.00      0.00
                                0.00      0.00      0.00

     TS-vdW  stress (kbar)      0.00      0.00      0.00
                                0.00      0.00      0.00
                                0.00      0.00      0.00

     MDB     stress (kbar)      0.00      0.00      0.00
                                0.00      0.00      0.00
                                0.00      0.00      0.00

     3D-RISM stress (kbar)      0.00      0.00      0.00
                                0.00      0.00      0.00
                                0.00      0.00      0.00


     BFGS Geometry Optimization
     Energy error            =      2.4E-03 Ry
     Gradient error          =      0.0E+00 Ry/Bohr
     Cell gradient error     =      3.9E+01 kbar

     number of scf cycles    =   1
     number of bfgs steps    =   0

     enthalpy           new  =    -346.2062020017 Ry

     new trust radius        =       0.0284239469 bohr
     new conv_thr            =            1.0E-10 Ry

     new unit-cell volume =    462.47611 a.u.^3 (    68.53189 Ang^3 )
     density =      7.95215 g/cm^3

CELL_PARAMETERS (angstrom)
   0.000000000   3.248036506   3.248036506
   3.248036506   0.000000000   3.248036506
   3.248036506   3.248036506   0.000000000

ATOMIC_POSITIONS (crystal)
Hg               0.0000000000        0.0000000000        0.0000000000
Te               0.2500000000        0.2500000000        0.2500000000



     Writing config-only to output data dir /home/User/opencode_workspace/DFT/calculations/hgte/relax_nosoc/out/pwscf.save/ :
     XML data file
     NEW-OLD atomic charge density approx. for the potential
     New effective cutoffs (rho, wfc):  710.48  118.41

     total cpu time spent up to now is       37.8 secs

     per-process dynamical memory:    59.5 Mb

     Self-consistent Calculation

     iteration #  1     ecut=   120.00 Ry     beta= 0.30
     Davidson diagonalization with overlap

---- Real-time Memory Report at c_bands before calling an iterative solver
           175 MiB given to the printing process from OS
            58 MiB allocation reported by mallinfo(arena+hblkhd)
          9134 MiB available memory on the node where the printing process lives
------------------
     ethr =  1.00E-06,  avg # of iterations =  6.1

     Threshold (ethr) on eigenvalues was too large:
     Diagonalizing with lowered threshold

     Davidson diagonalization with overlap

---- Real-time Memory Report at c_bands before calling an iterative solver
           175 MiB given to the printing process from OS
            58 MiB allocation reported by mallinfo(arena+hblkhd)
          9127 MiB available memory on the node where the printing process lives
------------------
     ethr =  9.07E-09,  avg # of iterations =  4.5

     total cpu time spent up to now is       43.8 secs

     total energy              =    -346.20831870 Ry
     estimated scf accuracy    <       0.00000233 Ry

     iteration #  2     ecut=   120.00 Ry     beta= 0.30
     Davidson diagonalization with overlap

---- Real-time Memory Report at c_bands before calling an iterative solver
           175 MiB given to the printing process from OS
            63 MiB allocation reported by mallinfo(arena+hblkhd)
          9113 MiB available memory on the node where the printing process lives
------------------
     ethr =  8.95E-09,  avg # of iterations =  1.0

     total cpu time spent up to now is       45.7 secs

     total energy              =    -346.20831872 Ry
     estimated scf accuracy    <       0.00000095 Ry

     iteration #  3     ecut=   120.00 Ry     beta= 0.30
     Davidson diagonalization with overlap

---- Real-time Memory Report at c_bands before calling an iterative solver
           175 MiB given to the printing process from OS
            64 MiB allocation reported by mallinfo(arena+hblkhd)
          9114 MiB available memory on the node where the printing process lives
------------------
     ethr =  3.66E-09,  avg # of iterations =  2.0

     total cpu time spent up to now is       48.1 secs

     total energy              =    -346.20831883 Ry
     estimated scf accuracy    <       0.00000010 Ry

     iteration #  4     ecut=   120.00 Ry     beta= 0.30
     Davidson diagonalization with overlap

---- Real-time Memory Report at c_bands before calling an iterative solver
           175 MiB given to the printing process from OS
            64 MiB allocation reported by mallinfo(arena+hblkhd)
          9096 MiB available memory on the node where the printing process lives
------------------
     ethr =  4.00E-10,  avg # of iterations =  2.9

     total cpu time spent up to now is       50.4 secs

     total energy              =    -346.20831886 Ry
     estimated scf accuracy    <       0.00000001 Ry

     iteration #  5     ecut=   120.00 Ry     beta= 0.30
     Davidson diagonalization with overlap

---- Real-time Memory Report at c_bands before calling an iterative solver
           175 MiB given to the printing process from OS
            64 MiB allocation reported by mallinfo(arena+hblkhd)
          9102 MiB available memory on the node where the printing process lives
------------------
     ethr =  4.26E-11,  avg # of iterations =  3.0

     total cpu time spent up to now is       52.8 secs

     total energy              =    -346.20831887 Ry
     estimated scf accuracy    <          3.9E-09 Ry

     iteration #  6     ecut=   120.00 Ry     beta= 0.30
     Davidson diagonalization with overlap

---- Real-time Memory Report at c_bands before calling an iterative solver
           175 MiB given to the printing process from OS
            65 MiB allocation reported by mallinfo(arena+hblkhd)
          9087 MiB available memory on the node where the printing process lives
------------------
     ethr =  1.51E-11,  avg # of iterations =  3.9

     total cpu time spent up to now is       55.3 secs

     total energy              =    -346.20831887 Ry
     estimated scf accuracy    <          2.3E-09 Ry

     iteration #  7     ecut=   120.00 Ry     beta= 0.30
     Davidson diagonalization with overlap

---- Real-time Memory Report at c_bands before calling an iterative solver
           175 MiB given to the printing process from OS
            65 MiB allocation reported by mallinfo(arena+hblkhd)
          9056 MiB available memory on the node where the printing process lives
------------------
     ethr =  8.69E-12,  avg # of iterations =  2.0

     total cpu time spent up to now is       57.4 secs

     total energy              =    -346.20831887 Ry
     estimated scf accuracy    <          3.4E-10 Ry

     iteration #  8     ecut=   120.00 Ry     beta= 0.30
     Davidson diagonalization with overlap

---- Real-time Memory Report at c_bands before calling an iterative solver
           175 MiB given to the printing process from OS
            66 MiB allocation reported by mallinfo(arena+hblkhd)
          9081 MiB available memory on the node where the printing process lives
------------------
     ethr =  1.29E-12,  avg # of iterations =  4.5

     total cpu time spent up to now is       59.9 secs

     total energy              =    -346.20831887 Ry
     estimated scf accuracy    <          1.3E-10 Ry

     iteration #  9     ecut=   120.00 Ry     beta= 0.30
     Davidson diagonalization with overlap

---- Real-time Memory Report at c_bands before calling an iterative solver
           175 MiB given to the printing process from OS
            66 MiB allocation reported by mallinfo(arena+hblkhd)
          9063 MiB available memory on the node where the printing process lives
------------------
     ethr =  4.88E-13,  avg # of iterations =  2.0

     total cpu time spent up to now is       62.0 secs

     End of self-consistent calculation

          k = 0.0000 0.0000 0.0000 ( 10081 PWs)   bands (ev):

  -107.8718 -56.2036 -56.2036 -56.2036  -4.7170  -0.0905  -0.0905  -0.0905
     0.4219   0.4219   6.4008   7.1639   7.1639

     occupation numbers 
     1.0000   1.0000   1.0000   1.0000   1.0000   1.0000   1.0000   1.0000
     1.0000   1.0000   1.0000   1.0000   1.0000

          k = 0.0702 0.0702-0.0702 (  9991 PWs)   bands (ev):

  -107.8718 -56.2036 -56.2035 -56.2035  -4.6684  -0.0768  -0.0768  -0.0726
     0.4206   0.4206   5.6036   7.0521   7.0521

     occupation numbers 
     1.0000   1.0000   1.0000   1.0000   1.0000   1.0000   1.0000   1.0000
     1.0000   1.0000   1.0000   1.0000   1.0000

          k = 0.1405 0.1405-0.1405 ( 10033 PWs)   bands (ev):

  -107.8718 -56.2036 -56.2036 -56.2036  -4.5368  -0.0427  -0.0427  -0.0016
     0.4199   0.4199   4.4247   6.7871   6.7871

     occupation numbers 
     1.0000   1.0000   1.0000   1.0000   1.0000   1.0000   1.0000   1.0000
     1.0000   1.0000   1.0000   1.0000   1.0000

          k = 0.2107 0.2107-0.2107 ( 10056 PWs)   bands (ev):

  -107.8718 -56.2037 -56.2036 -56.2036  -4.3655  -0.0050  -0.0050   0.1669
     0.4258   0.4258   3.2617   6.4980   6.4980

     occupation numbers 
     1.0000   1.0000   1.0000   1.0000   1.0000   1.0000   1.0000   1.0000
     1.0000   1.0000   1.0000   1.0000   1.0000

          k = 0.2810 0.2810-0.2810 ( 10047 PWs)   bands (ev):

  -107.8718 -56.2038 -56.2036 -56.2036  -4.2193   0.0206   0.0206   0.4377
     0.4377   0.4667   2.2745   6.2853   6.2853

     occupation numbers 
     1.0000   1.0000   1.0000   1.0000   1.0000   1.0000   1.0000   1.0000
     1.0000   1.0000   1.0000   1.0000   1.0000

          k =-0.3512-0.3512 0.3512 ( 10002 PWs)   bands (ev):

  -107.8718 -56.2038 -56.2036 -56.2036  -4.1616   0.0290   0.0290   0.4441
     0.4441   0.7199   1.7755   6.2078   6.2078

     occupation numbers 
     1.0000   1.0000   1.0000   1.0000   1.0000   1.0000   1.0000   1.0000
     1.0000   1.0000   1.0000   1.0000   1.0000

          k = 0.1405 0.0000 0.0000 ( 10005 PWs)   bands (ev):

  -107.8718 -56.2036 -56.2036 -56.2036  -4.6521  -0.0833  -0.0640  -0.0640
     0.4121   0.4280   5.5149   6.8655   6.8655

     occupation numbers 
     1.0000   1.0000   1.0000   1.0000   1.0000   1.0000   1.0000   1.0000
     1.0000   1.0000   1.0000   1.0000   1.0000

          k = 0.2107 0.0702-0.0702 ( 10030 PWs)   bands (ev):

  -107.8718 -56.2036 -56.2036 -56.2036  -4.5478  -0.0586  -0.0291  -0.0166
     0.4051   0.4332   4.6578   6.5618   6.5945

     occupation numbers 
     1.0000   1.0000   1.0000   1.0000   1.0000   1.0000   1.0000   1.0000
     1.0000   1.0000   1.0000   1.0000   1.0000

          k = 0.2810 0.1405-0.1405 ( 10040 PWs)   bands (ev):

  -107.8718 -56.2037 -56.2036 -56.2036  -4.3888  -0.0170   0.0113   0.1056
     0.4100   0.4397   3.5826   6.2503   6.2737

     occupation numbers 
     1.0000   1.0000   1.0000   1.0000   1.0000   1.0000   1.0000   1.0000
     1.0000   1.0000   1.0000   1.0000   1.0000

          k = 0.3512 0.2107-0.2107 ( 10057 PWs)   bands (ev):

  -107.8718 -56.2037 -56.2036 -56.2036  -4.2327   0.0169   0.0396   0.3253
     0.4468   0.4583   2.5740   5.9211   6.0923

     occupation numbers 
     1.0000   1.0000   1.0000   1.0000   1.0000   1.0000   1.0000   1.0000
     1.0000   1.0000   1.0000   1.0000   1.0000

          k =-0.2810-0.4215 0.4215 ( 10068 PWs)   bands (ev):

  -107.8718 -56.2038 -56.2036 -56.2036  -4.1442   0.0347   0.0489   0.4183
     0.4459   0.7006   1.8793   5.6980   6.0656

     occupation numbers 
     1.0000   1.0000   1.0000   1.0000   1.0000   1.0000   1.0000   1.0000
     1.0000   1.0000   1.0000   1.0000   1.0000

          k =-0.2107-0.3512 0.3512 ( 10065 PWs)   bands (ev):

  -107.8718 -56.2038 -56.2036 -56.2036  -4.1635   0.0370   0.0399   0.4262
     0.4318   0.6113   2.0515   5.6328   6.2010

     occupation numbers 
     1.0000   1.0000   1.0000   1.0000   1.0000   1.0000   1.0000   1.0000
     1.0000   1.0000   1.0000   1.0000   1.0000

          k =-0.1405-0.2810 0.2810 ( 10056 PWs)   bands (ev):

  -107.8718 -56.2037 -56.2036 -56.2036  -4.2817   0.0134   0.0232   0.2586
     0.4141   0.4536   2.8916   5.7508   6.4630

     occupation numbers 
     1.0000   1.0000   1.0000   1.0000   1.0000   1.0000   1.0000   1.0000
     1.0000   1.0000   1.0000   1.0000   1.0000

          k =-0.0702-0.2107 0.2107 ( 10042 PWs)   bands (ev):

  -107.8718 -56.2037 -56.2036 -56.2036  -4.4462  -0.0257  -0.0085   0.0566
     0.4068   0.4363   3.9310   6.0583   6.7735

     occupation numbers 
     1.0000   1.0000   1.0000   1.0000   1.0000   1.0000   1.0000   1.0000
     1.0000   1.0000   1.0000   1.0000   1.0000

          k = 0.0000-0.1405 0.1405 ( 10043 PWs)   bands (ev):

  -107.8718 -56.2036 -56.2036 -56.2036  -4.5919  -0.0615  -0.0508  -0.0377
     0.4114   0.4275   4.9336   6.5469   7.0125

     occupation numbers 
     1.0000   1.0000   1.0000   1.0000   1.0000   1.0000   1.0000   1.0000
     1.0000   1.0000   1.0000   1.0000   1.0000

          k = 0.2810 0.0000 0.0000 ( 10057 PWs)   bands (ev):

  -107.8718 -56.2036 -56.2036 -56.2036  -4.4757  -0.0490   0.0096   0.0096
     0.3947   0.4440   4.3684   6.2253   6.2253

     occupation numbers 
     1.0000   1.0000   1.0000   1.0000   1.0000   1.0000   1.0000   1.0000
     1.0000   1.0000   1.0000   1.0000   1.0000

          k = 0.3512 0.0702-0.0702 ( 10061 PWs)   bands (ev):

  -107.8718 -56.2037 -56.2036 -56.2036  -4.3435  -0.0077   0.0559   0.0839
     0.4038   0.4527   3.6374   5.8347   5.9179

     occupation numbers 
     1.0000   1.0000   1.0000   1.0000   1.0000   1.0000   1.0000   1.0000
     1.0000   1.0000   1.0000   1.0000   1.0000

          k = 0.4215 0.1405-0.1405 ( 10068 PWs)   bands (ev):

  -107.8718 -56.2037 -56.2036 -56.2036  -4.1982   0.0330   0.0901   0.2259
     0.4578   0.4773   2.7865   5.3828   5.7345

     occupation numbers 
     1.0000   1.0000   1.0000   1.0000   1.0000   1.0000   1.0000   1.0000
     1.0000   1.0000   1.0000   1.0000   1.0000

          k =-0.2107-0.4917 0.4917 ( 10061 PWs)   bands (ev):

  -107.8718 -56.2038 -56.2036 -56.2036  -4.0977   0.0543   0.1019   0.3460
     0.4519   0.6920   2.0753   5.0106   5.7241

     occupation numbers 
     1.0000   1.0000   1.0000   1.0000   1.0000   1.0000   1.0000   1.0000
     1.0000   1.0000   1.0000   1.0000   1.0000

          k =-0.1405-0.4215 0.4215 ( 10066 PWs)   bands (ev):

  -107.8718 -56.2038 -56.2036 -56.2036  -4.0854   0.0609   0.0909   0.3979
     0.4320   0.7513   1.9449   4.8168   5.8906

     occupation numbers 
     1.0000   1.0000   1.0000   1.0000   1.0000   1.0000   1.0000   1.0000
     1.0000   1.0000   1.0000   1.0000   1.0000

          k =-0.0702-0.3512 0.3512 ( 10066 PWs)   bands (ev):

  -107.8718 -56.2037 -56.2036 -56.2036  -4.1667   0.0556   0.0592   0.3592
     0.4101   0.5233   2.5257   4.8791   6.1900

     occupation numbers 
     1.0000   1.0000   1.0000   1.0000   1.0000   1.0000   1.0000   1.0000
     1.0000   1.0000   1.0000   1.0000   1.0000

          k = 0.0000-0.2810 0.2810 ( 10071 PWs)   bands (ev):

  -107.8718 -56.2037 -56.2036 -56.2036  -4.3058   0.0143   0.0326   0.1773
     0.4011   0.4585   3.2778   5.2875   6.5301

     occupation numbers 
     1.0000   1.0000   1.0000   1.0000   1.0000   1.0000   1.0000   1.0000
     1.0000   1.0000   1.0000   1.0000   1.0000

          k = 0.4215 0.0000 0.0000 ( 10077 PWs)   bands (ev):

  -107.8718 -56.2037 -56.2036 -56.2036  -4.2443   0.0240   0.1106   0.1106
     0.4235   0.4638   3.2704   5.5816   5.5816

     occupation numbers 
     1.0000   1.0000   1.0000   1.0000   1.0000   1.0000   1.0000   1.0000
     1.0000   1.0000   1.0000   1.0000   1.0000

          k = 0.4917 0.0702-0.0702 ( 10075 PWs)   bands (ev):

  -107.8718 -56.2037 -56.2036 -56.2036  -4.1269   0.0626   0.1529   0.1817
     0.4700   0.5185   2.6843   5.1892   5.3714

     occupation numbers 
     1.0000   1.0000   1.0000   1.0000   1.0000   1.0000   1.0000   1.0000
     1.0000   1.0000   1.0000   1.0000   1.0000

          k =-0.1405-0.5619 0.5619 ( 10067 PWs)   bands (ev):

  -107.8718 -56.2038 -56.2036 -56.2036  -4.0376   0.0838   0.1684   0.2688
     0.4633   0.7301   2.1195   4.7061   5.3453

     occupation numbers 
     1.0000   1.0000   1.0000   1.0000   1.0000   1.0000   1.0000   1.0000
     1.0000   1.0000   1.0000   1.0000   1.0000

          k =-0.0702-0.4917 0.4917 ( 10068 PWs)   bands (ev):

  -107.8718 -56.2038 -56.2037 -56.2036  -4.0132   0.0862   0.1544   0.3465
     0.4420   0.8807   1.8609   4.3729   5.5112

     occupation numbers 
     1.0000   1.0000   1.0000   1.0000   1.0000   1.0000   1.0000   1.0000
     1.0000   1.0000   1.0000   1.0000   1.0000

          k =-0.0000-0.4215 0.4215 ( 10073 PWs)   bands (ev):

  -107.8718 -56.2038 -56.2037 -56.2036  -4.0635   0.0773   0.1137   0.3883
     0.4196   0.7113   2.1294   4.3863   5.8248

     occupation numbers 
     1.0000   1.0000   1.0000   1.0000   1.0000   1.0000   1.0000   1.0000
     1.0000   1.0000   1.0000   1.0000   1.0000

          k = 0.5619 0.0000 0.0000 ( 10082 PWs)   bands (ev):

  -107.8718 -56.2038 -56.2036 -56.2036  -4.0456   0.0787   0.2025   0.2025
     0.4799   0.6220   2.3164   5.1237   5.1237

     occupation numbers 
     1.0000   1.0000   1.0000   1.0000   1.0000   1.0000   1.0000   1.0000
     1.0000   1.0000   1.0000   1.0000   1.0000

          k =-0.0702-0.6322 0.6322 ( 10066 PWs)   bands (ev):

  -107.8718 -56.2038 -56.2036 -56.2036  -3.9868   0.0940   0.2211   0.2383
     0.4783   0.8082   1.9398   4.8244   5.0622

     occupation numbers 
     1.0000   1.0000   1.0000   1.0000   1.0000   1.0000   1.0000   1.0000
     1.0000   1.0000   1.0000   1.0000   1.0000

          k = 0.0000-0.5619 0.5619 ( 10057 PWs)   bands (ev):

  -107.8718 -56.2038 -56.2037 -56.2036  -3.9748   0.1007   0.2039   0.2847
     0.4613   0.9443   1.7741   4.4487   5.2044

     occupation numbers 
     1.0000   1.0000   1.0000   1.0000   1.0000   1.0000   1.0000   1.0000
     1.0000   1.0000   1.0000   1.0000   1.0000

          k =-0.7024 0.0000 0.0000 ( 10086 PWs)   bands (ev):

  -107.8718 -56.2038 -56.2036 -56.2036  -3.9669   0.0882   0.2404   0.2404
     0.4861   0.8615   1.8125   4.9580   4.9580

     occupation numbers 
     1.0000   1.0000   1.0000   1.0000   1.0000   1.0000   1.0000   1.0000
     1.0000   1.0000   1.0000   1.0000   1.0000

          k = 0.2810 0.1405 0.0000 ( 10051 PWs)   bands (ev):

  -107.8718 -56.2037 -56.2036 -56.2036  -4.4294  -0.0276   0.0130   0.0483
     0.4006   0.4431   3.9861   5.9017   6.4782

     occupation numbers 
     1.0000   1.0000   1.0000   1.0000   1.0000   1.0000   1.0000   1.0000
     1.0000   1.0000   1.0000   1.0000   1.0000

          k = 0.3512 0.2107-0.0702 ( 10065 PWs)   bands (ev):

  -107.8718 -56.2037 -56.2036 -56.2036  -4.2764   0.0161   0.0498   0.1926
     0.4164   0.4592   3.1230   5.4093   6.2151

     occupation numbers 
     1.0000   1.0000   1.0000   1.0000   1.0000   1.0000   1.0000   1.0000
     1.0000   1.0000   1.0000   1.0000   1.0000

          k =-0.2810-0.4215 0.5619 ( 10076 PWs)   bands (ev):

  -107.8718 -56.2038 -56.2036 -56.2036  -4.1471   0.0464   0.0716   0.3559
     0.4413   0.5764   2.2961   5.1517   5.9599

     occupation numbers 
     1.0000   1.0000   1.0000   1.0000   1.0000   1.0000   1.0000   1.0000
     1.0000   1.0000   1.0000   1.0000   1.0000

          k =-0.2107-0.3512 0.4917 ( 10064 PWs)   bands (ev):

  -107.8718 -56.2038 -56.2036 -56.2036  -4.0964   0.0553   0.0794   0.4017
     0.4364   0.7687   1.8721   5.0765   5.8558

     occupation numbers 
     1.0000   1.0000   1.0000   1.0000   1.0000   1.0000   1.0000   1.0000
     1.0000   1.0000   1.0000   1.0000   1.0000

          k = 0.4215 0.1405-0.0000 ( 10079 PWs)   bands (ev):

  -107.8718 -56.2037 -56.2036 -56.2036  -4.2179   0.0361   0.0969   0.1659
     0.4418   0.4668   3.0511   5.2963   5.7255

     occupation numbers 
     1.0000   1.0000   1.0000   1.0000   1.0000   1.0000   1.0000   1.0000
     1.0000   1.0000   1.0000   1.0000   1.0000

          k =-0.2107-0.4917 0.6322 ( 10082 PWs)   bands (ev):

  -107.8718 -56.2037 -56.2036 -56.2036  -4.0996   0.0733   0.1210   0.2743
     0.4549   0.6025   2.4023   4.8672   5.5055

     occupation numbers 
     1.0000   1.0000   1.0000   1.0000   1.0000   1.0000   1.0000   1.0000
     1.0000   1.0000   1.0000   1.0000   1.0000

          k =-0.1405-0.4215 0.5619 ( 10061 PWs)   bands (ev):

  -107.8718 -56.2038 -56.2037 -56.2036  -4.0368   0.0850   0.1301   0.3546
     0.4364   0.8223   1.9286   4.5899   5.4561

     occupation numbers 
     1.0000   1.0000   1.0000   1.0000   1.0000   1.0000   1.0000   1.0000
     1.0000   1.0000   1.0000   1.0000   1.0000

          k =-0.0702-0.3512 0.4917 ( 10072 PWs)   bands (ev):

  -107.8718 -56.2038 -56.2037 -56.2036  -4.0561   0.0850   0.1119   0.3759
     0.4241   0.7487   2.0548   4.5188   5.6284

     occupation numbers 
     1.0000   1.0000   1.0000   1.0000   1.0000   1.0000   1.0000   1.0000
     1.0000   1.0000   1.0000   1.0000   1.0000

          k = 0.0000-0.2810 0.4215 ( 10056 PWs)   bands (ev):

  -107.8718 -56.2037 -56.2036 -56.2036  -4.1489   0.0662   0.0777   0.3092
     0.4304   0.5343   2.5859   4.7708   5.9350

     occupation numbers 
     1.0000   1.0000   1.0000   1.0000   1.0000   1.0000   1.0000   1.0000
     1.0000   1.0000   1.0000   1.0000   1.0000

          k =-0.1405-0.5619 0.7024 ( 10086 PWs)   bands (ev):

  -107.8718 -56.2038 -56.2036 -56.2036  -4.0381   0.0926   0.1748   0.2383
     0.4696   0.6789   2.2283   4.9074   5.1270

     occupation numbers 
     1.0000   1.0000   1.0000   1.0000   1.0000   1.0000   1.0000   1.0000
     1.0000   1.0000   1.0000   1.0000   1.0000

          k =-0.0702-0.4917 0.6322 ( 10068 PWs)   bands (ev):

  -107.8718 -56.2038 -56.2037 -56.2036  -3.9871   0.1081   0.1812   0.2969
     0.4517   0.8949   1.8626   4.5463   5.0709

     occupation numbers 
     1.0000   1.0000   1.0000   1.0000   1.0000   1.0000   1.0000   1.0000
     1.0000   1.0000   1.0000   1.0000   1.0000

          k = 0.0000-0.4215 0.5619 ( 10068 PWs)   bands (ev):

  -107.8718 -56.2038 -56.2037 -56.2036  -3.9944   0.1032   0.1599   0.3570
     0.4241   0.9253   1.8287   4.3250   5.2789

     occupation numbers 
     1.0000   1.0000   1.0000   1.0000   1.0000   1.0000   1.0000   1.0000
     1.0000   1.0000   1.0000   1.0000   1.0000

          k =-0.7024 0.1405 0.0000 ( 10052 PWs)   bands (ev):

  -107.8718 -56.2038 -56.2036 -56.2036  -3.9673   0.1052   0.2134   0.2637
     0.4710   0.9180   1.7851   4.8205   4.8547

     occupation numbers 
     1.0000   1.0000   1.0000   1.0000   1.0000   1.0000   1.0000   1.0000
     1.0000   1.0000   1.0000   1.0000   1.0000

          k =-0.1405-0.4215 0.7024 ( 10070 PWs)   bands (ev):

  -107.8718 -56.2038 -56.2037 -56.2036  -4.0185   0.1143   0.1358   0.3304
     0.4337   0.8052   2.0195   4.5263   5.1840

     occupation numbers 
     1.0000   1.0000   1.0000   1.0000   1.0000   1.0000   1.0000   1.0000
     1.0000   1.0000   1.0000   1.0000   1.0000

          k =-0.0702-0.3512 0.6322 ( 10072 PWs)   bands (ev):

  -107.8718 -56.2038 -56.2037 -56.2036  -3.9872   0.1185   0.1546   0.3726
     0.4010   0.9492   1.8084   4.4360   5.0212

     occupation numbers 
     1.0000   1.0000   1.0000   1.0000   1.0000   1.0000   1.0000   1.0000
     1.0000   1.0000   1.0000   1.0000   1.0000

          k =-0.7024 0.2810 0.0000 ( 10082 PWs)   bands (ev):

  -107.8718 -56.2038 -56.2037 -56.2036  -3.9680   0.1258   0.1764   0.3360
     0.4209   1.0051   1.7380   4.6148   4.7067

     occupation numbers 
     1.0000   1.0000   1.0000   1.0000   1.0000   1.0000   1.0000   1.0000
     1.0000   1.0000   1.0000   1.0000   1.0000

     highest occupied level (ev):     7.1639

!    total energy              =    -346.20831887 Ry
     estimated scf accuracy    <          1.5E-11 Ry

     The total energy is the sum of the following terms:
     one-electron contribution =    -228.98676634 Ry
     hartree contribution      =     116.99940164 Ry
     xc contribution           =     -55.70185992 Ry
     ewald contribution        =    -178.51909424 Ry

     convergence has been achieved in   9 iterations

     Forces acting on atoms (cartesian axes, Ry/au):

     atom    1 type  1   force =     0.00000000    0.00000000    0.00000000
     atom    2 type  2   force =     0.00000000    0.00000000    0.00000000
     The non-local contrib.  to forces
     atom    1 type  1   force =     0.00000000   -0.00000000    0.00000000
     atom    2 type  2   force =     0.00000000    0.00000000   -0.00000000
     The ionic contribution  to forces
     atom    1 type  1   force =    -0.00000000    0.00000000   -0.00000000
     atom    2 type  2   force =     0.00000000    0.00000000    0.00000000
     The local contribution  to forces
     atom    1 type  1   force =    -0.00000000   -0.00000000   -0.00000000
     atom    2 type  2   force =     0.00000000    0.00000000    0.00000000
     The core correction contribution to forces
     atom    1 type  1   force =    -0.00000000   -0.00000000   -0.00000000
     atom    2 type  2   force =    -0.00000000   -0.00000000    0.00000000
     The Hubbard contrib.    to forces
     atom    1 type  1   force =     0.00000000    0.00000000    0.00000000
     atom    2 type  2   force =     0.00000000    0.00000000    0.00000000
     The SCF correction term to forces
     atom    1 type  1   force =    -0.00000000   -0.00000000    0.00000000
     atom    2 type  2   force =    -0.00000000   -0.00000000   -0.00000000

     Total force =     0.000000     Total SCF correction =     0.000000


     Computing stress (Cartesian axis) and pressure

          total   stress  (Ry/bohr**3)                   (kbar)     P=       29.07
   0.00019761  -0.00000000  -0.00000000           29.07       -0.00       -0.00
  -0.00000000   0.00019761  -0.00000000           -0.00       29.07       -0.00
  -0.00000000  -0.00000000   0.00019761           -0.00       -0.00       29.07

     kinetic stress (kbar)  26569.41      0.00     -0.00
                               -0.00  26569.41     -0.00
                               -0.00      0.00  26569.41

     local   stress (kbar) -25860.96     -0.00      0.00
                               -0.00 -25860.96     -0.00
                                0.00     -0.00 -25860.96

     nonloc. stress (kbar)  10055.19      0.00     -0.00
                                0.00  10055.19     -0.00
                               -0.00      0.00  10055.19

     hartree stress (kbar)  12405.11      0.00     -0.00
                                0.00  12405.11      0.00
                               -0.00      0.00  12405.11

     exc-cor stress (kbar)   3531.31      0.00     -0.00
                                0.00   3531.31     -0.00
                               -0.00     -0.00   3531.31

     corecor stress (kbar)  -7743.12     -0.00      0.00
                               -0.00  -7743.12     -0.00
                                0.00     -0.00  -7743.12

     ewald   stress (kbar) -18927.87     -0.00      0.00
                               -0.00 -18927.87      0.00
                                0.00      0.00 -18927.87

     hubbard stress (kbar)      0.00      0.00      0.00
                                0.00      0.00      0.00
                                0.00      0.00      0.00

     DFT-D   stress (kbar)      0.00      0.00      0.00
                                0.00      0.00      0.00
                                0.00      0.00      0.00

     XDM     stress (kbar)      0.00      0.00      0.00
                                0.00      0.00      0.00
                                0.00      0.00      0.00

     dft-nl  stress (kbar)      0.00      0.00      0.00
                                0.00      0.00      0.00
                                0.00      0.00      0.00

     TS-vdW  stress (kbar)      0.00      0.00      0.00
                                0.00      0.00      0.00
                                0.00      0.00      0.00

     MDB     stress (kbar)      0.00      0.00      0.00
                                0.00      0.00      0.00
                                0.00      0.00      0.00

     3D-RISM stress (kbar)      0.00      0.00      0.00
                                0.00      0.00      0.00
                                0.00      0.00      0.00

     Energy error            =      2.1E-03 Ry
     Gradient error          =      0.0E+00 Ry/Bohr
     Cell gradient error     =      2.9E+01 kbar

     number of scf cycles    =   2
     number of bfgs steps    =   1

     enthalpy           old  =    -346.2062020017 Ry
     enthalpy           new  =    -346.2083188709 Ry

     CASE: enthalpy          _new < enthalpy          _old

     new trust radius        =       0.0313705176 bohr
     new conv_thr            =            1.0E-12 Ry

     new unit-cell volume =    472.66956 a.u.^3 (    70.04240 Ang^3 )
     density =      7.78065 g/cm^3

CELL_PARAMETERS (angstrom)
   0.000000000   3.271726663   3.271726663
   3.271726663   0.000000000   3.271726663
   3.271726663   3.271726663   0.000000000

ATOMIC_POSITIONS (crystal)
Hg               0.0000000000        0.0000000000        0.0000000000
Te               0.2500000000        0.2500000000        0.2500000000



     Writing config-only to output data dir /home/User/opencode_workspace/DFT/calculations/hgte/relax_nosoc/out/pwscf.save/ :
     XML data file
     NEW-OLD atomic charge density approx. for the potential
     New effective cutoffs (rho, wfc):  700.23  116.70

     total cpu time spent up to now is       64.6 secs

     per-process dynamical memory:    59.5 Mb

     Self-consistent Calculation

     iteration #  1     ecut=   120.00 Ry     beta= 0.30
     Davidson diagonalization with overlap

---- Real-time Memory Report at c_bands before calling an iterative solver
           175 MiB given to the printing process from OS
            58 MiB allocation reported by mallinfo(arena+hblkhd)
          9121 MiB available memory on the node where the printing process lives
------------------
     ethr =  1.00E-06,  avg # of iterations =  6.1

     Threshold (ethr) on eigenvalues was too large:
     Diagonalizing with lowered threshold

     Davidson diagonalization with overlap

---- Real-time Memory Report at c_bands before calling an iterative solver
           175 MiB given to the printing process from OS
            58 MiB allocation reported by mallinfo(arena+hblkhd)
          9144 MiB available memory on the node where the printing process lives
------------------
     ethr =  1.00E-08,  avg # of iterations =  4.3

     total cpu time spent up to now is       71.0 secs

     total energy              =    -346.20997598 Ry
     estimated scf accuracy    <       0.00000258 Ry

     iteration #  2     ecut=   120.00 Ry     beta= 0.30
     Davidson diagonalization with overlap

---- Real-time Memory Report at c_bands before calling an iterative solver
           175 MiB given to the printing process from OS
            63 MiB allocation reported by mallinfo(arena+hblkhd)
          9121 MiB available memory on the node where the printing process lives
------------------
     ethr =  9.94E-09,  avg # of iterations =  1.0

     total cpu time spent up to now is       73.1 secs

     total energy              =    -346.20997602 Ry
     estimated scf accuracy    <       0.00000107 Ry

     iteration #  3     ecut=   120.00 Ry     beta= 0.30
     Davidson diagonalization with overlap

---- Real-time Memory Report at c_bands before calling an iterative solver
           175 MiB given to the printing process from OS
            64 MiB allocation reported by mallinfo(arena+hblkhd)
          9103 MiB available memory on the node where the printing process lives
------------------
     ethr =  4.13E-09,  avg # of iterations =  2.0

     total cpu time spent up to now is       76.2 secs

     total energy              =    -346.20997614 Ry
     estimated scf accuracy    <       0.00000010 Ry

     iteration #  4     ecut=   120.00 Ry     beta= 0.30
     Davidson diagonalization with overlap

---- Real-time Memory Report at c_bands before calling an iterative solver
           175 MiB given to the printing process from OS
            64 MiB allocation reported by mallinfo(arena+hblkhd)
          9185 MiB available memory on the node where the printing process lives
------------------
     ethr =  3.86E-10,  avg # of iterations =  3.3

     total cpu time spent up to now is       78.8 secs

     total energy              =    -346.20997617 Ry
     estimated scf accuracy    <       0.00000001 Ry

     iteration #  5     ecut=   120.00 Ry     beta= 0.30
     Davidson diagonalization with overlap

---- Real-time Memory Report at c_bands before calling an iterative solver
           175 MiB given to the printing process from OS
            64 MiB allocation reported by mallinfo(arena+hblkhd)
          9113 MiB available memory on the node where the printing process lives
------------------
     ethr =  4.84E-11,  avg # of iterations =  2.8

     total cpu time spent up to now is       81.6 secs

     total energy              =    -346.20997618 Ry
     estimated scf accuracy    <          4.3E-09 Ry

     iteration #  6     ecut=   120.00 Ry     beta= 0.30
     Davidson diagonalization with overlap

---- Real-time Memory Report at c_bands before calling an iterative solver
           175 MiB given to the printing process from OS
            65 MiB allocation reported by mallinfo(arena+hblkhd)
          9100 MiB available memory on the node where the printing process lives
------------------
     ethr =  1.65E-11,  avg # of iterations =  3.8

     total cpu time spent up to now is       84.3 secs

     total energy              =    -346.20997618 Ry
     estimated scf accuracy    <          2.5E-09 Ry

     iteration #  7     ecut=   120.00 Ry     beta= 0.30
     Davidson diagonalization with overlap

---- Real-time Memory Report at c_bands before calling an iterative solver
           175 MiB given to the printing process from OS
            65 MiB allocation reported by mallinfo(arena+hblkhd)
          9162 MiB available memory on the node where the printing process lives
------------------
     ethr =  9.74E-12,  avg # of iterations =  2.0

     total cpu time spent up to now is       86.4 secs

     total energy              =    -346.20997618 Ry
     estimated scf accuracy    <          7.0E-10 Ry

     iteration #  8     ecut=   120.00 Ry     beta= 0.30
     Davidson diagonalization with overlap

---- Real-time Memory Report at c_bands before calling an iterative solver
           175 MiB given to the printing process from OS
            66 MiB allocation reported by mallinfo(arena+hblkhd)
          9091 MiB available memory on the node where the printing process lives
------------------
     ethr =  2.70E-12,  avg # of iterations =  4.1

     total cpu time spent up to now is       89.3 secs

     total energy              =    -346.20997618 Ry
     estimated scf accuracy    <          2.2E-10 Ry

     iteration #  9     ecut=   120.00 Ry     beta= 0.30
     Davidson diagonalization with overlap

---- Real-time Memory Report at c_bands before calling an iterative solver
           175 MiB given to the printing process from OS
            66 MiB allocation reported by mallinfo(arena+hblkhd)
          9098 MiB available memory on the node where the printing process lives
------------------
     ethr =  8.30E-13,  avg # of iterations =  1.2

     total cpu time spent up to now is       91.1 secs

     total energy              =    -346.20997618 Ry
     estimated scf accuracy    <          1.1E-10 Ry

     iteration # 10     ecut=   120.00 Ry     beta= 0.30
     Davidson diagonalization with overlap

---- Real-time Memory Report at c_bands before calling an iterative solver
           175 MiB given to the printing process from OS
            66 MiB allocation reported by mallinfo(arena+hblkhd)
          9090 MiB available memory on the node where the printing process lives
------------------
     ethr =  4.20E-13,  avg # of iterations =  3.3

     total cpu time spent up to now is       93.5 secs

     total energy              =    -346.20997618 Ry
     estimated scf accuracy    <          4.2E-12 Ry

     iteration # 11     ecut=   120.00 Ry     beta= 0.30
     Davidson diagonalization with overlap

---- Real-time Memory Report at c_bands before calling an iterative solver
           175 MiB given to the printing process from OS
            66 MiB allocation reported by mallinfo(arena+hblkhd)
          9093 MiB available memory on the node where the printing process lives
------------------
     ethr =  1.00E-13,  avg # of iterations =  1.3

     total cpu time spent up to now is       95.5 secs

     total energy              =    -346.20997618 Ry
     estimated scf accuracy    <          4.9E-12 Ry

     iteration # 12     ecut=   120.00 Ry     beta= 0.30
     Davidson diagonalization with overlap

---- Real-time Memory Report at c_bands before calling an iterative solver
           175 MiB given to the printing process from OS
            66 MiB allocation reported by mallinfo(arena+hblkhd)
          9087 MiB available memory on the node where the printing process lives
------------------
     ethr =  1.00E-13,  avg # of iterations =  1.0

     total cpu time spent up to now is       97.3 secs

     total energy              =    -346.20997618 Ry
     estimated scf accuracy    <          1.5E-12 Ry

     iteration # 13     ecut=   120.00 Ry     beta= 0.30
     Davidson diagonalization with overlap

---- Real-time Memory Report at c_bands before calling an iterative solver
           175 MiB given to the printing process from OS
            66 MiB allocation reported by mallinfo(arena+hblkhd)
          9100 MiB available memory on the node where the printing process lives
------------------
     ethr =  1.00E-13,  avg # of iterations =  1.0

     total cpu time spent up to now is       99.3 secs

     End of self-consistent calculation

          k = 0.0000 0.0000 0.0000 ( 10081 PWs)   bands (ev):

  -108.0977 -56.4291 -56.4291 -56.4291  -4.8813  -0.2838  -0.2838  -0.2838
     0.2030   0.2030   6.0349   6.8489   6.8489

     occupation numbers 
     1.0000   1.0000   1.0000   1.0000   1.0000   1.0000   1.0000   1.0000
     1.0000   1.0000   1.0000   1.0000   1.0000

          k = 0.0697 0.0697-0.0697 (  9991 PWs)   bands (ev):

  -108.0977 -56.4291 -56.4291 -56.4291  -4.8349  -0.2708  -0.2708  -0.2657
     0.2018   0.2018   5.2792   6.7426   6.7426

     occupation numbers 
     1.0000   1.0000   1.0000   1.0000   1.0000   1.0000   1.0000   1.0000
     1.0000   1.0000   1.0000   1.0000   1.0000

          k = 0.1395 0.1395-0.1395 ( 10033 PWs)   bands (ev):

  -108.0977 -56.4292 -56.4291 -56.4291  -4.7094  -0.2384  -0.2384  -0.1948
     0.2012   0.2012   4.1407   6.4898   6.4898

     occupation numbers 
     1.0000   1.0000   1.0000   1.0000   1.0000   1.0000   1.0000   1.0000
     1.0000   1.0000   1.0000   1.0000   1.0000

          k = 0.2092 0.2092-0.2092 ( 10056 PWs)   bands (ev):

  -108.0977 -56.4292 -56.4291 -56.4291  -4.5461  -0.2024  -0.2024  -0.0303
     0.2068   0.2068   3.0172   6.2129   6.2129

     occupation numbers 
     1.0000   1.0000   1.0000   1.0000   1.0000   1.0000   1.0000   1.0000
     1.0000   1.0000   1.0000   1.0000   1.0000

          k = 0.2789 0.2789-0.2789 ( 10047 PWs)   bands (ev):

  -108.0977 -56.4293 -56.4291 -56.4291  -4.4071  -0.1780  -0.1780   0.2180
     0.2180   0.2555   2.0689   6.0089   6.0089

     occupation numbers 
     1.0000   1.0000   1.0000   1.0000   1.0000   1.0000   1.0000   1.0000
     1.0000   1.0000   1.0000   1.0000   1.0000

          k =-0.3487-0.3487 0.3487 ( 10002 PWs)   bands (ev):

  -108.0976 -56.4293 -56.4291 -56.4291  -4.3523  -0.1700  -0.1700   0.2240
     0.2240   0.4869   1.6007   5.9345   5.9345

     occupation numbers 
     1.0000   1.0000   1.0000   1.0000   1.0000   1.0000   1.0000   1.0000
     1.0000   1.0000   1.0000   1.0000   1.0000

          k = 0.1395 0.0000 0.0000 ( 10005 PWs)   bands (ev):

  -108.0977 -56.4291 -56.4291 -56.4291  -4.8193  -0.2755  -0.2586  -0.2586
     0.1939   0.2088   5.1885   6.5656   6.5656

     occupation numbers 
     1.0000   1.0000   1.0000   1.0000   1.0000   1.0000   1.0000   1.0000
     1.0000   1.0000   1.0000   1.0000   1.0000

          k = 0.2092 0.0697-0.0697 ( 10030 PWs)   bands (ev):

  -108.0977 -56.4292 -56.4291 -56.4291  -4.7199  -0.2514  -0.2253  -0.2115
     0.1874   0.2137   4.3605   6.2753   6.3054

     occupation numbers 
     1.0000   1.0000   1.0000   1.0000   1.0000   1.0000   1.0000   1.0000
     1.0000   1.0000   1.0000   1.0000   1.0000

          k = 0.2789 0.1395-0.1395 ( 10040 PWs)   bands (ev):

  -108.0977 -56.4292 -56.4291 -56.4291  -4.5684  -0.2129  -0.1869  -0.0902
     0.1922   0.2199   3.3232   5.9733   5.9987

     occupation numbers 
     1.0000   1.0000   1.0000   1.0000   1.0000   1.0000   1.0000   1.0000
     1.0000   1.0000   1.0000   1.0000   1.0000

          k = 0.3487 0.2092-0.2092 ( 10057 PWs)   bands (ev):

  -108.0977 -56.4293 -56.4291 -56.4291  -4.4198  -0.1811  -0.1600   0.1192
     0.2266   0.2407   2.3530   5.6549   5.8241

     occupation numbers 
     1.0000   1.0000   1.0000   1.0000   1.0000   1.0000   1.0000   1.0000
     1.0000   1.0000   1.0000   1.0000   1.0000

          k =-0.2789-0.4184 0.4184 ( 10068 PWs)   bands (ev):

  -108.0977 -56.4293 -56.4292 -56.4291  -4.3358  -0.1642  -0.1511   0.2004
     0.2257   0.4712   1.6951   5.4394   5.7982

     occupation numbers 
     1.0000   1.0000   1.0000   1.0000   1.0000   1.0000   1.0000   1.0000
     1.0000   1.0000   1.0000   1.0000   1.0000

          k =-0.2092-0.3487 0.3487 ( 10065 PWs)   bands (ev):

  -108.0977 -56.4293 -56.4292 -56.4291  -4.3541  -0.1620  -0.1597   0.2081
     0.2124   0.3897   1.8558   5.3775   5.9278

     occupation numbers 
     1.0000   1.0000   1.0000   1.0000   1.0000   1.0000   1.0000   1.0000
     1.0000   1.0000   1.0000   1.0000   1.0000

          k =-0.1395-0.2789 0.2789 ( 10056 PWs)   bands (ev):

  -108.0977 -56.4293 -56.4291 -56.4291  -4.4664  -0.1851  -0.1752   0.0580
     0.1959   0.2335   2.6576   5.4934   6.1788

     occupation numbers 
     1.0000   1.0000   1.0000   1.0000   1.0000   1.0000   1.0000   1.0000
     1.0000   1.0000   1.0000   1.0000   1.0000

          k =-0.0697-0.2092 0.2092 ( 10042 PWs)   bands (ev):

  -108.0977 -56.4292 -56.4291 -56.4291  -4.6230  -0.2222  -0.2051  -0.1378
     0.1890   0.2167   3.6593   5.7925   6.4759

     occupation numbers 
     1.0000   1.0000   1.0000   1.0000   1.0000   1.0000   1.0000   1.0000
     1.0000   1.0000   1.0000   1.0000   1.0000

          k = 0.0000-0.1395 0.1395 ( 10043 PWs)   bands (ev):

  -108.0977 -56.4292 -56.4291 -56.4291  -4.7619  -0.2563  -0.2444  -0.2321
     0.1933   0.2083   4.6290   6.2625   6.7042

     occupation numbers 
     1.0000   1.0000   1.0000   1.0000   1.0000   1.0000   1.0000   1.0000
     1.0000   1.0000   1.0000   1.0000   1.0000

          k = 0.2789 0.0000 0.0000 ( 10057 PWs)   bands (ev):

  -108.0977 -56.4292 -56.4291 -56.4291  -4.6511  -0.2387  -0.1886  -0.1886
     0.1777   0.2239   4.0729   5.9529   5.9529

     occupation numbers 
     1.0000   1.0000   1.0000   1.0000   1.0000   1.0000   1.0000   1.0000
     1.0000   1.0000   1.0000   1.0000   1.0000

          k = 0.3487 0.0697-0.0697 ( 10061 PWs)   bands (ev):

  -108.0977 -56.4292 -56.4291 -56.4291  -4.5252  -0.1996  -0.1446  -0.1146
     0.1868   0.2321   3.3664   5.5762   5.6573

     occupation numbers 
     1.0000   1.0000   1.0000   1.0000   1.0000   1.0000   1.0000   1.0000
     1.0000   1.0000   1.0000   1.0000   1.0000

          k = 0.4184 0.1395-0.1395 ( 10068 PWs)   bands (ev):

  -108.0977 -56.4293 -56.4292 -56.4292  -4.3870  -0.1636  -0.1121   0.0241
     0.2370   0.2588   2.5490   5.1379   5.4805

     occupation numbers 
     1.0000   1.0000   1.0000   1.0000   1.0000   1.0000   1.0000   1.0000
     1.0000   1.0000   1.0000   1.0000   1.0000

          k =-0.2092-0.4881 0.4881 ( 10061 PWs)   bands (ev):

  -108.0977 -56.4293 -56.4292 -56.4292  -4.2915  -0.1444  -0.1009   0.1340
     0.2314   0.4650   1.8726   4.7764   5.4702

     occupation numbers 
     1.0000   1.0000   1.0000   1.0000   1.0000   1.0000   1.0000   1.0000
     1.0000   1.0000   1.0000   1.0000   1.0000

          k =-0.1395-0.4184 0.4184 ( 10066 PWs)   bands (ev):

  -108.0977 -56.4293 -56.4292 -56.4292  -4.2799  -0.1384  -0.1114   0.1813
     0.2128   0.5210   1.7507   4.5898   5.6298

     occupation numbers 
     1.0000   1.0000   1.0000   1.0000   1.0000   1.0000   1.0000   1.0000
     1.0000   1.0000   1.0000   1.0000   1.0000

          k =-0.0697-0.3487 0.3487 ( 10066 PWs)   bands (ev):

  -108.0977 -56.4293 -56.4292 -56.4291  -4.3571  -0.1438  -0.1416   0.1498
     0.1922   0.3049   2.2994   4.6536   5.9170

     occupation numbers 
     1.0000   1.0000   1.0000   1.0000   1.0000   1.0000   1.0000   1.0000
     1.0000   1.0000   1.0000   1.0000   1.0000

          k = 0.0000-0.2789 0.2789 ( 10071 PWs)   bands (ev):

  -108.0977 -56.4292 -56.4292 -56.4291  -4.4894  -0.1842  -0.1659  -0.0198
     0.1837   0.2379   3.0229   5.0511   6.2428

     occupation numbers 
     1.0000   1.0000   1.0000   1.0000   1.0000   1.0000   1.0000   1.0000
     1.0000   1.0000   1.0000   1.0000   1.0000

          k = 0.4184 0.0000 0.0000 ( 10077 PWs)   bands (ev):

  -108.0977 -56.4292 -56.4292 -56.4292  -4.4308  -0.1642  -0.0928  -0.0928
     0.2064   0.2427   3.0074   5.3338   5.3338

     occupation numbers 
     1.0000   1.0000   1.0000   1.0000   1.0000   1.0000   1.0000   1.0000
     1.0000   1.0000   1.0000   1.0000   1.0000

          k = 0.4881 0.0697-0.0697 ( 10075 PWs)   bands (ev):

  -108.0977 -56.4293 -56.4292 -56.4292  -4.3193  -0.1301  -0.0529  -0.0225
     0.2485   0.2987   2.4431   4.9554   5.1313

     occupation numbers 
     1.0000   1.0000   1.0000   1.0000   1.0000   1.0000   1.0000   1.0000
     1.0000   1.0000   1.0000   1.0000   1.0000

          k =-0.1395-0.5579 0.5579 ( 10067 PWs)   bands (ev):

  -108.0977 -56.4293 -56.4292 -56.4292  -4.2344  -0.1137  -0.0382   0.0610
     0.2423   0.5008   1.9058   4.4881   5.1058

     occupation numbers 
     1.0000   1.0000   1.0000   1.0000   1.0000   1.0000   1.0000   1.0000
     1.0000   1.0000   1.0000   1.0000   1.0000

          k =-0.0697-0.4881 0.4881 ( 10068 PWs)   bands (ev):

  -108.0977 -56.4293 -56.4292 -56.4292  -4.2113  -0.1131  -0.0514   0.1330
     0.2223   0.6408   1.6658   4.1661   5.2652

     occupation numbers 
     1.0000   1.0000   1.0000   1.0000   1.0000   1.0000   1.0000   1.0000
     1.0000   1.0000   1.0000   1.0000   1.0000

          k =-0.0000-0.4184 0.4184 ( 10073 PWs)   bands (ev):

  -108.0977 -56.4293 -56.4292 -56.4292  -4.2590  -0.1225  -0.0900   0.1723
     0.2013   0.4873   1.9167   4.1795   5.5664

     occupation numbers 
     1.0000   1.0000   1.0000   1.0000   1.0000   1.0000   1.0000   1.0000
     1.0000   1.0000   1.0000   1.0000   1.0000

          k = 0.5579 0.0000 0.0000 ( 10082 PWs)   bands (ev):

  -108.0977 -56.4293 -56.4292 -56.4292  -4.2420  -0.1116  -0.0061  -0.0061
     0.2579   0.3978   2.0890   4.8928   4.8928

     occupation numbers 
     1.0000   1.0000   1.0000   1.0000   1.0000   1.0000   1.0000   1.0000
     1.0000   1.0000   1.0000   1.0000   1.0000

          k =-0.0697-0.6276 0.6276 ( 10066 PWs)   bands (ev):

  -108.0977 -56.4293 -56.4292 -56.4292  -4.1862  -0.0994   0.0115   0.0289
     0.2564   0.5719   1.7333   4.6045   4.8335

     occupation numbers 
     1.0000   1.0000   1.0000   1.0000   1.0000   1.0000   1.0000   1.0000
     1.0000   1.0000   1.0000   1.0000   1.0000

          k = 0.0000-0.5579 0.5579 ( 10057 PWs)   bands (ev):

  -108.0977 -56.4293 -56.4292 -56.4292  -4.1748  -0.0967  -0.0048   0.0744
     0.2405   0.6959   1.5830   4.2418   4.9701

     occupation numbers 
     1.0000   1.0000   1.0000   1.0000   1.0000   1.0000   1.0000   1.0000
     1.0000   1.0000   1.0000   1.0000   1.0000

          k =-0.6973 0.0000 0.0000 ( 10086 PWs)   bands (ev):

  -108.0977 -56.4293 -56.4292 -56.4292  -4.1673  -0.1032   0.0296   0.0296
     0.2638   0.6190   1.6148   4.7333   4.7333

     occupation numbers 
     1.0000   1.0000   1.0000   1.0000   1.0000   1.0000   1.0000   1.0000
     1.0000   1.0000   1.0000   1.0000   1.0000

          k = 0.2789 0.1395 0.0000 ( 10051 PWs)   bands (ev):

  -108.0977 -56.4292 -56.4291 -56.4291  -4.6069  -0.2217  -0.1850  -0.1474
     0.1833   0.2231   3.7073   5.6433   6.1932

     occupation numbers 
     1.0000   1.0000   1.0000   1.0000   1.0000   1.0000   1.0000   1.0000
     1.0000   1.0000   1.0000   1.0000   1.0000

          k = 0.3487 0.2092-0.0697 ( 10065 PWs)   bands (ev):

  -108.0977 -56.4292 -56.4292 -56.4291  -4.4613  -0.1812  -0.1500  -0.0061
     0.1987   0.2387   2.8744   5.1664   5.9409

     occupation numbers 
     1.0000   1.0000   1.0000   1.0000   1.0000   1.0000   1.0000   1.0000
     1.0000   1.0000   1.0000   1.0000   1.0000

          k =-0.2789-0.4184 0.5579 ( 10076 PWs)   bands (ev):

  -108.0977 -56.4293 -56.4292 -56.4291  -4.3385  -0.1527  -0.1294   0.1443
     0.2216   0.3564   2.0831   4.9136   5.6965

     occupation numbers 
     1.0000   1.0000   1.0000   1.0000   1.0000   1.0000   1.0000   1.0000
     1.0000   1.0000   1.0000   1.0000   1.0000

          k =-0.2092-0.3487 0.4881 ( 10064 PWs)   bands (ev):

  -108.0977 -56.4293 -56.4292 -56.4292  -4.2903  -0.1441  -0.1221   0.1849
     0.2170   0.5351   1.6853   4.8391   5.5968

     occupation numbers 
     1.0000   1.0000   1.0000   1.0000   1.0000   1.0000   1.0000   1.0000
     1.0000   1.0000   1.0000   1.0000   1.0000

          k = 0.4184 0.1395-0.0000 ( 10079 PWs)   bands (ev):

  -108.0977 -56.4293 -56.4292 -56.4292  -4.4058  -0.1585  -0.1055  -0.0347
     0.2236   0.2462   2.7986   5.0593   5.4711

     occupation numbers 
     1.0000   1.0000   1.0000   1.0000   1.0000   1.0000   1.0000   1.0000
     1.0000   1.0000   1.0000   1.0000   1.0000

          k =-0.2092-0.4881 0.6276 ( 10082 PWs)   bands (ev):

  -108.0977 -56.4293 -56.4292 -56.4292  -4.2933  -0.1252  -0.0825   0.0676
     0.2344   0.3805   2.1763   4.6433   5.2599

     occupation numbers 
     1.0000   1.0000   1.0000   1.0000   1.0000   1.0000   1.0000   1.0000
     1.0000   1.0000   1.0000   1.0000   1.0000

          k =-0.1395-0.4184 0.5579 ( 10061 PWs)   bands (ev):

  -108.0977 -56.4293 -56.4292 -56.4292  -4.2337  -0.1149  -0.0741   0.1410
     0.2172   0.5870   1.7305   4.3734   5.2125

     occupation numbers 
     1.0000   1.0000   1.0000   1.0000   1.0000   1.0000   1.0000   1.0000
     1.0000   1.0000   1.0000   1.0000   1.0000

          k =-0.0697-0.3487 0.4881 ( 10072 PWs)   bands (ev):

  -108.0977 -56.4293 -56.4292 -56.4292  -4.2520  -0.1154  -0.0912   0.1609
     0.2057   0.5207   1.8478   4.3060   5.3779

     occupation numbers 
     1.0000   1.0000   1.0000   1.0000   1.0000   1.0000   1.0000   1.0000
     1.0000   1.0000   1.0000   1.0000   1.0000

          k = 0.0000-0.2789 0.4184 ( 10056 PWs)   bands (ev):

  -108.0977 -56.4293 -56.4292 -56.4291  -4.3401  -0.1341  -0.1230   0.1022
     0.2117   0.3153   2.3531   4.5514   5.6723

     occupation numbers 
     1.0000   1.0000   1.0000   1.0000   1.0000   1.0000   1.0000   1.0000
     1.0000   1.0000   1.0000   1.0000   1.0000

          k =-0.1395-0.5579 0.6973 ( 10086 PWs)   bands (ev):

  -108.0977 -56.4293 -56.4292 -56.4292  -4.2349  -0.1025  -0.0320   0.0306
     0.2482   0.4523   2.0062   4.6844   4.8956

     occupation numbers 
     1.0000   1.0000   1.0000   1.0000   1.0000   1.0000   1.0000   1.0000
     1.0000   1.0000   1.0000   1.0000   1.0000

          k =-0.0697-0.4881 0.6276 ( 10068 PWs)   bands (ev):

  -108.0977 -56.4293 -56.4292 -56.4292  -4.1865  -0.0906  -0.0261   0.0864
     0.2316   0.6529   1.6638   4.3358   4.8415

     occupation numbers 
     1.0000   1.0000   1.0000   1.0000   1.0000   1.0000   1.0000   1.0000
     1.0000   1.0000   1.0000   1.0000   1.0000

          k = 0.0000-0.4184 0.5579 ( 10068 PWs)   bands (ev):

  -108.0977 -56.4293 -56.4292 -56.4292  -4.1934  -0.0971  -0.0461   0.1425
     0.2061   0.6820   1.6340   4.1217   5.0416

     occupation numbers 
     1.0000   1.0000   1.0000   1.0000   1.0000   1.0000   1.0000   1.0000
     1.0000   1.0000   1.0000   1.0000   1.0000

          k =-0.6973 0.1395 0.0000 ( 10052 PWs)   bands (ev):

  -108.0977 -56.4293 -56.4292 -56.4292  -4.1677  -0.0900   0.0041   0.0534
     0.2496   0.6713   1.5913   4.6034   4.6310

     occupation numbers 
     1.0000   1.0000   1.0000   1.0000   1.0000   1.0000   1.0000   1.0000
     1.0000   1.0000   1.0000   1.0000   1.0000

          k =-0.1395-0.4184 0.6973 ( 10070 PWs)   bands (ev):

  -108.0977 -56.4293 -56.4292 -56.4292  -4.2163  -0.0866  -0.0686   0.1186
     0.2149   0.5727   1.8104   4.3163   4.9502

     occupation numbers 
     1.0000   1.0000   1.0000   1.0000   1.0000   1.0000   1.0000   1.0000
     1.0000   1.0000   1.0000   1.0000   1.0000

          k =-0.0697-0.3487 0.6276 ( 10072 PWs)   bands (ev):

  -108.0977 -56.4293 -56.4292 -56.4292  -4.1866  -0.0828  -0.0511   0.1566
     0.1855   0.7034   1.6153   4.2293   4.7932

     occupation numbers 
     1.0000   1.0000   1.0000   1.0000   1.0000   1.0000   1.0000   1.0000
     1.0000   1.0000   1.0000   1.0000   1.0000

          k =-0.6973 0.2789 0.0000 ( 10082 PWs)   bands (ev):

  -108.0977 -56.4293 -56.4292 -56.4292  -4.1683  -0.0748  -0.0310   0.1233
     0.2033   0.7516   1.5509   4.4090   4.4840

     occupation numbers 
     1.0000   1.0000   1.0000   1.0000   1.0000   1.0000   1.0000   1.0000
     1.0000   1.0000   1.0000   1.0000   1.0000

     highest occupied level (ev):     6.8489

!    total energy              =    -346.20997618 Ry
     estimated scf accuracy    <          1.4E-13 Ry

     The total energy is the sum of the following terms:
     one-electron contribution =    -231.16744737 Ry
     hartree contribution      =     117.86593562 Ry
     xc contribution           =     -55.68200427 Ry
     ewald contribution        =    -177.22646017 Ry

     convergence has been achieved in  13 iterations

     Forces acting on atoms (cartesian axes, Ry/au):

     atom    1 type  1   force =     0.00000000    0.00000000    0.00000000
     atom    2 type  2   force =    -0.00000000   -0.00000000    0.00000000
     The non-local contrib.  to forces
     atom    1 type  1   force =     0.00000000    0.00000000   -0.00000000
     atom    2 type  2   force =     0.00000000    0.00000000    0.00000000
     The ionic contribution  to forces
     atom    1 type  1   force =     0.00000000   -0.00000000    0.00000000
     atom    2 type  2   force =    -0.00000000   -0.00000000    0.00000000
     The local contribution  to forces
     atom    1 type  1   force =     0.00000000   -0.00000000    0.00000000
     atom    2 type  2   force =    -0.00000000   -0.00000000   -0.00000000
     The core correction contribution to forces
     atom    1 type  1   force =     0.00000000   -0.00000000   -0.00000000
     atom    2 type  2   force =    -0.00000000   -0.00000000    0.00000000
     The Hubbard contrib.    to forces
     atom    1 type  1   force =     0.00000000    0.00000000    0.00000000
     atom    2 type  2   force =     0.00000000    0.00000000    0.00000000
     The SCF correction term to forces
     atom    1 type  1   force =    -0.00000000    0.00000000    0.00000000
     atom    2 type  2   force =     0.00000000    0.00000000    0.00000000

     Total force =     0.000000     Total SCF correction =     0.000000


     Computing stress (Cartesian axis) and pressure

          total   stress  (Ry/bohr**3)                   (kbar)     P=       18.98
   0.00012901   0.00000000   0.00000000           18.98        0.00        0.00
   0.00000000   0.00012901  -0.00000000            0.00       18.98       -0.00
   0.00000000  -0.00000000   0.00012901            0.00       -0.00       18.98

     kinetic stress (kbar)  25986.94     -0.00     -0.00
                               -0.00  25986.94     -0.00
                               -0.00     -0.00  25986.94

     local   stress (kbar) -25527.21     -0.00     -0.00
                               -0.00 -25527.21     -0.00
                               -0.00     -0.00 -25527.21

     nonloc. stress (kbar)   9836.50      0.00     -0.00
                               -0.00   9836.50     -0.00
                               -0.00     -0.00   9836.50

     hartree stress (kbar)  12227.48     -0.00     -0.00
                               -0.00  12227.48     -0.00
                               -0.00     -0.00  12227.48

     exc-cor stress (kbar)   3456.53     -0.00      0.00
                               -0.00   3456.53      0.00
                                0.00      0.00   3456.53

     corecor stress (kbar)  -7575.68      0.00     -0.00
                                0.00  -7575.68     -0.00
                               -0.00     -0.00  -7575.68

     ewald   stress (kbar) -18385.58     -0.00      0.00
                               -0.00 -18385.58      0.00
                                0.00      0.00 -18385.58

     hubbard stress (kbar)      0.00      0.00      0.00
                                0.00      0.00      0.00
                                0.00      0.00      0.00

     DFT-D   stress (kbar)      0.00      0.00      0.00
                                0.00      0.00      0.00
                                0.00      0.00      0.00

     XDM     stress (kbar)      0.00      0.00      0.00
                                0.00      0.00      0.00
                                0.00      0.00      0.00

     dft-nl  stress (kbar)      0.00      0.00      0.00
                                0.00      0.00      0.00
                                0.00      0.00      0.00

     TS-vdW  stress (kbar)      0.00      0.00      0.00
                                0.00      0.00      0.00
                                0.00      0.00      0.00

     MDB     stress (kbar)      0.00      0.00      0.00
                                0.00      0.00      0.00
                                0.00      0.00      0.00

     3D-RISM stress (kbar)      0.00      0.00      0.00
                                0.00      0.00      0.00
                                0.00      0.00      0.00

     Energy error            =      1.7E-03 Ry
     Gradient error          =      3.7E-31 Ry/Bohr
     Cell gradient error     =      1.9E+01 kbar

     number of scf cycles    =   3
     number of bfgs steps    =   2

     enthalpy           old  =    -346.2083188709 Ry
     enthalpy           new  =    -346.2099761828 Ry

     CASE: enthalpy          _new < enthalpy          _old

     new trust radius        =       0.0472270697 bohr
     new conv_thr            =            1.0E-12 Ry

     new unit-cell volume =    488.23888 a.u.^3 (    72.34954 Ang^3 )
     density =      7.53254 g/cm^3

CELL_PARAMETERS (angstrom)
   0.000000000   3.307261899   3.307261899
   3.307261899  -0.000000000   3.307261899
   3.307261899   3.307261899   0.000000000

ATOMIC_POSITIONS (crystal)
Hg               0.0000000000       -0.0000000000        0.0000000000
Te               0.2500000000        0.2500000000        0.2500000000



     Writing config-only to output data dir /home/User/opencode_workspace/DFT/calculations/hgte/relax_nosoc/out/pwscf.save/ :
     XML data file
     NEW-OLD atomic charge density approx. for the potential
     New effective cutoffs (rho, wfc):  685.26  114.21

     total cpu time spent up to now is      102.0 secs

     per-process dynamical memory:    59.5 Mb

     Self-consistent Calculation

     iteration #  1     ecut=   120.00 Ry     beta= 0.30
     Davidson diagonalization with overlap

---- Real-time Memory Report at c_bands before calling an iterative solver
           175 MiB given to the printing process from OS
            58 MiB allocation reported by mallinfo(arena+hblkhd)
          9141 MiB available memory on the node where the printing process lives
------------------
     ethr =  1.00E-06,  avg # of iterations =  7.1

     Threshold (ethr) on eigenvalues was too large:
     Diagonalizing with lowered threshold

     Davidson diagonalization with overlap

---- Real-time Memory Report at c_bands before calling an iterative solver
           175 MiB given to the printing process from OS
            58 MiB allocation reported by mallinfo(arena+hblkhd)
          9142 MiB available memory on the node where the printing process lives
------------------
     ethr =  2.15E-08,  avg # of iterations =  3.8

     total cpu time spent up to now is      108.3 secs

     total energy              =    -346.21126553 Ry
     estimated scf accuracy    <       0.00000516 Ry

     iteration #  2     ecut=   120.00 Ry     beta= 0.30
     Davidson diagonalization with overlap

---- Real-time Memory Report at c_bands before calling an iterative solver
           175 MiB given to the printing process from OS
            63 MiB allocation reported by mallinfo(arena+hblkhd)
          9171 MiB available memory on the node where the printing process lives
------------------
     ethr =  1.98E-08,  avg # of iterations =  1.0

     total cpu time spent up to now is      110.1 secs

     total energy              =    -346.21126561 Ry
     estimated scf accuracy    <       0.00000220 Ry

     iteration #  3     ecut=   120.00 Ry     beta= 0.30
     Davidson diagonalization with overlap

---- Real-time Memory Report at c_bands before calling an iterative solver
           175 MiB given to the printing process from OS
            64 MiB allocation reported by mallinfo(arena+hblkhd)
          9115 MiB available memory on the node where the printing process lives
------------------
     ethr =  8.48E-09,  avg # of iterations =  2.0

     total cpu time spent up to now is      112.2 secs

     total energy              =    -346.21126585 Ry
     estimated scf accuracy    <       0.00000018 Ry

     iteration #  4     ecut=   120.00 Ry     beta= 0.30
     Davidson diagonalization with overlap

---- Real-time Memory Report at c_bands before calling an iterative solver
           175 MiB given to the printing process from OS
            64 MiB allocation reported by mallinfo(arena+hblkhd)
          9116 MiB available memory on the node where the printing process lives
------------------
     ethr =  6.90E-10,  avg # of iterations =  2.2

     total cpu time spent up to now is      114.6 secs

     total energy              =    -346.21126590 Ry
     estimated scf accuracy    <       0.00000001 Ry

     iteration #  5     ecut=   120.00 Ry     beta= 0.30
     Davidson diagonalization with overlap

---- Real-time Memory Report at c_bands before calling an iterative solver
           175 MiB given to the printing process from OS
            64 MiB allocation reported by mallinfo(arena+hblkhd)
          9107 MiB available memory on the node where the printing process lives
------------------
     ethr =  5.74E-11,  avg # of iterations =  3.7

     total cpu time spent up to now is      117.2 secs

     total energy              =    -346.21126592 Ry
     estimated scf accuracy    <          4.8E-09 Ry

     iteration #  6     ecut=   120.00 Ry     beta= 0.30
     Davidson diagonalization with overlap

---- Real-time Memory Report at c_bands before calling an iterative solver
           175 MiB given to the printing process from OS
            65 MiB allocation reported by mallinfo(arena+hblkhd)
          9170 MiB available memory on the node where the printing process lives
------------------
     ethr =  1.86E-11,  avg # of iterations =  3.9

     total cpu time spent up to now is      120.1 secs

     total energy              =    -346.21126592 Ry
     estimated scf accuracy    <          3.2E-09 Ry

     iteration #  7     ecut=   120.00 Ry     beta= 0.30
     Davidson diagonalization with overlap

---- Real-time Memory Report at c_bands before calling an iterative solver
           175 MiB given to the printing process from OS
            65 MiB allocation reported by mallinfo(arena+hblkhd)
          9096 MiB available memory on the node where the printing process lives
------------------
     ethr =  1.23E-11,  avg # of iterations =  2.6

     total cpu time spent up to now is      122.8 secs

     total energy              =    -346.21126592 Ry
     estimated scf accuracy    <          2.1E-10 Ry

     iteration #  8     ecut=   120.00 Ry     beta= 0.30
     Davidson diagonalization with overlap

---- Real-time Memory Report at c_bands before calling an iterative solver
           175 MiB given to the printing process from OS
            66 MiB allocation reported by mallinfo(arena+hblkhd)
          9091 MiB available memory on the node where the printing process lives
------------------
     ethr =  7.90E-13,  avg # of iterations =  3.1

     total cpu time spent up to now is      125.2 secs

     total energy              =    -346.21126593 Ry
     estimated scf accuracy    <          6.2E-11 Ry

     iteration #  9     ecut=   120.00 Ry     beta= 0.30
     Davidson diagonalization with overlap

---- Real-time Memory Report at c_bands before calling an iterative solver
           175 MiB given to the printing process from OS
            66 MiB allocation reported by mallinfo(arena+hblkhd)
          9088 MiB available memory on the node where the printing process lives
------------------
     ethr =  2.39E-13,  avg # of iterations =  4.6

     total cpu time spent up to now is      128.1 secs

     total energy              =    -346.21126593 Ry
     estimated scf accuracy    <          1.6E-10 Ry

     iteration # 10     ecut=   120.00 Ry     beta= 0.30
     Davidson diagonalization with overlap

---- Real-time Memory Report at c_bands before calling an iterative solver
           175 MiB given to the printing process from OS
            66 MiB allocation reported by mallinfo(arena+hblkhd)
          9088 MiB available memory on the node where the printing process lives
------------------
     ethr =  2.39E-13,  avg # of iterations =  3.9

     total cpu time spent up to now is      130.7 secs

     total energy              =    -346.21126593 Ry
     estimated scf accuracy    <          4.2E-12 Ry

     iteration # 11     ecut=   120.00 Ry     beta= 0.30
     Davidson diagonalization with overlap

---- Real-time Memory Report at c_bands before calling an iterative solver
           175 MiB given to the printing process from OS
            66 MiB allocation reported by mallinfo(arena+hblkhd)
          9093 MiB available memory on the node where the printing process lives
------------------
     ethr =  1.00E-13,  avg # of iterations =  1.7

     total cpu time spent up to now is      132.6 secs

     End of self-consistent calculation

          k = 0.0000 0.0000 0.0000 ( 10081 PWs)   bands (ev):

  -108.4260 -56.7572 -56.7572 -56.7572  -5.1216  -0.5661  -0.5661  -0.5661
    -0.1157  -0.1157   5.5082   6.3955   6.3955

     occupation numbers 
     1.0000   1.0000   1.0000   1.0000   1.0000   1.0000   1.0000   1.0000
     1.0000   1.0000   1.0000   1.0000   1.0000

          k = 0.0690 0.0690-0.0690 (  9991 PWs)   bands (ev):

  -108.4260 -56.7572 -56.7572 -56.7572  -5.0782  -0.5540  -0.5540  -0.5476
    -0.1168  -0.1168   4.8110   6.2970   6.2970

     occupation numbers 
     1.0000   1.0000   1.0000   1.0000   1.0000   1.0000   1.0000   1.0000
     1.0000   1.0000   1.0000   1.0000   1.0000

          k = 0.1380 0.1380-0.1380 ( 10033 PWs)   bands (ev):

  -108.4260 -56.7572 -56.7572 -56.7572  -4.9614  -0.5239  -0.5239  -0.4772
    -0.1172  -0.1172   3.7314   6.0613   6.0613

     occupation numbers 
     1.0000   1.0000   1.0000   1.0000   1.0000   1.0000   1.0000   1.0000
     1.0000   1.0000   1.0000   1.0000   1.0000

          k = 0.2070 0.2070-0.2070 ( 10056 PWs)   bands (ev):

  -108.4260 -56.7573 -56.7572 -56.7572  -4.8099  -0.4906  -0.4906  -0.3190
    -0.1121  -0.1121   2.6654   5.8019   5.8019

     occupation numbers 
     1.0000   1.0000   1.0000   1.0000   1.0000   1.0000   1.0000   1.0000
     1.0000   1.0000   1.0000   1.0000   1.0000

          k = 0.2759 0.2759-0.2759 ( 10047 PWs)   bands (ev):

  -108.4260 -56.7573 -56.7572 -56.7572  -4.6811  -0.4678  -0.4678  -0.1020
    -0.1020  -0.0542   1.7739   5.6101   5.6101

     occupation numbers 
     1.0000   1.0000   1.0000   1.0000   1.0000   1.0000   1.0000   1.0000
     1.0000   1.0000   1.0000   1.0000   1.0000

          k =-0.3449-0.3449 0.3449 ( 10002 PWs)   bands (ev):

  -108.4260 -56.7573 -56.7572 -56.7572  -4.6304  -0.4603  -0.4603  -0.0965
    -0.0965   0.1476   1.3482   5.5402   5.5402

     occupation numbers 
     1.0000   1.0000   1.0000   1.0000   1.0000   1.0000   1.0000   1.0000
     1.0000   1.0000   1.0000   1.0000   1.0000

          k = 0.1380 0.0000 0.0000 ( 10005 PWs)   bands (ev):

  -108.4260 -56.7572 -56.7572 -56.7572  -5.0637  -0.5562  -0.5427  -0.5427
    -0.1240  -0.1104   4.7184   6.1333   6.1333

     occupation numbers 
     1.0000   1.0000   1.0000   1.0000   1.0000   1.0000   1.0000   1.0000
     1.0000   1.0000   1.0000   1.0000   1.0000

          k = 0.2070 0.0690-0.0690 ( 10030 PWs)   bands (ev):

  -108.4260 -56.7572 -56.7572 -56.7572  -4.9712  -0.5335  -0.5118  -0.4959
    -0.1298  -0.1058   3.9324   5.8620   5.8887

     occupation numbers 
     1.0000   1.0000   1.0000   1.0000   1.0000   1.0000   1.0000   1.0000
     1.0000   1.0000   1.0000   1.0000   1.0000

          k = 0.2759 0.1380-0.1380 ( 10040 PWs)   bands (ev):

  -108.4260 -56.7573 -56.7572 -56.7572  -4.8305  -0.4992  -0.4762  -0.3765
    -0.1252  -0.1002   2.9499   5.5743   5.6020

     occupation numbers 
     1.0000   1.0000   1.0000   1.0000   1.0000   1.0000   1.0000   1.0000
     1.0000   1.0000   1.0000   1.0000   1.0000

          k = 0.3449 0.2070-0.2070 ( 10057 PWs)   bands (ev):

  -108.4260 -56.7573 -56.7572 -56.7572  -4.6929  -0.4702  -0.4512  -0.1832
    -0.0941  -0.0762   2.0355   5.2716   5.4372

     occupation numbers 
     1.0000   1.0000   1.0000   1.0000   1.0000   1.0000   1.0000   1.0000
     1.0000   1.0000   1.0000   1.0000   1.0000

          k =-0.2759-0.4139 0.4139 ( 10068 PWs)   bands (ev):

  -108.4260 -56.7573 -56.7572 -56.7572  -4.6151  -0.4545  -0.4429  -0.1172
    -0.0949   0.1363   1.4300   5.0671   5.4123

     occupation numbers 
     1.0000   1.0000   1.0000   1.0000   1.0000   1.0000   1.0000   1.0000
     1.0000   1.0000   1.0000   1.0000   1.0000

          k =-0.2070-0.3449 0.3449 ( 10065 PWs)   bands (ev):

  -108.4260 -56.7573 -56.7572 -56.7572  -4.6321  -0.4525  -0.4510  -0.1099
    -0.1070   0.0656   1.5750   5.0096   5.5337

     occupation numbers 
     1.0000   1.0000   1.0000   1.0000   1.0000   1.0000   1.0000   1.0000
     1.0000   1.0000   1.0000   1.0000   1.0000

          k =-0.1380-0.2759 0.2759 ( 10056 PWs)   bands (ev):

  -108.4260 -56.7573 -56.7572 -56.7572  -4.7360  -0.4746  -0.4648  -0.2362
    -0.1219  -0.0869   2.3214   5.1224   5.7691

     occupation numbers 
     1.0000   1.0000   1.0000   1.0000   1.0000   1.0000   1.0000   1.0000
     1.0000   1.0000   1.0000   1.0000   1.0000

          k =-0.0690-0.2070 0.2070 ( 10042 PWs)   bands (ev):

  -108.4260 -56.7573 -56.7572 -56.7572  -4.8812  -0.5091  -0.4922  -0.4220
    -0.1282  -0.1031   3.2684   5.4089   6.0471

     occupation numbers 
     1.0000   1.0000   1.0000   1.0000   1.0000   1.0000   1.0000   1.0000
     1.0000   1.0000   1.0000   1.0000   1.0000

          k = 0.0000-0.1380 0.1380 ( 10043 PWs)   bands (ev):

  -108.4260 -56.7572 -56.7572 -56.7572  -5.0103  -0.5406  -0.5278  -0.5155
    -0.1245  -0.1108   4.1903   5.8521   6.2603

     occupation numbers 
     1.0000   1.0000   1.0000   1.0000   1.0000   1.0000   1.0000   1.0000
     1.0000   1.0000   1.0000   1.0000   1.0000

          k = 0.2759 0.0000 0.0000 ( 10057 PWs)   bands (ev):

  -108.4260 -56.7572 -56.7572 -56.7572  -4.9072  -0.5162  -0.4778  -0.4778
    -0.1384  -0.0965   3.6486   5.5597   5.5597

     occupation numbers 
     1.0000   1.0000   1.0000   1.0000   1.0000   1.0000   1.0000   1.0000
     1.0000   1.0000   1.0000   1.0000   1.0000

          k = 0.3449 0.0690-0.0690 ( 10061 PWs)   bands (ev):

  -108.4260 -56.7573 -56.7572 -56.7572  -4.7904  -0.4812  -0.4372  -0.4037
    -0.1295  -0.0890   2.9776   5.2034   5.2811

     occupation numbers 
     1.0000   1.0000   1.0000   1.0000   1.0000   1.0000   1.0000   1.0000
     1.0000   1.0000   1.0000   1.0000   1.0000

          k = 0.4139 0.1380-0.1380 ( 10068 PWs)   bands (ev):

  -108.4260 -56.7573 -56.7572 -56.7572  -4.6624  -0.4513  -0.4072  -0.2712
    -0.0846  -0.0595   2.2082   4.7851   5.1140

     occupation numbers 
     1.0000   1.0000   1.0000   1.0000   1.0000   1.0000   1.0000   1.0000
     1.0000   1.0000   1.0000   1.0000   1.0000

          k =-0.2070-0.4829 0.4829 ( 10061 PWs)   bands (ev):

  -108.4260 -56.7573 -56.7572 -56.7572  -4.5741  -0.4346  -0.3968  -0.1757
    -0.0896   0.1335   1.5823   4.4394   5.1037

     occupation numbers 
     1.0000   1.0000   1.0000   1.0000   1.0000   1.0000   1.0000   1.0000
     1.0000   1.0000   1.0000   1.0000   1.0000

          k =-0.1380-0.4139 0.4139 ( 10066 PWs)   bands (ev):

  -108.4260 -56.7573 -56.7572 -56.7572  -4.5633  -0.4296  -0.4065  -0.1344
    -0.1065   0.1844   1.4723   4.2631   5.2536

     occupation numbers 
     1.0000   1.0000   1.0000   1.0000   1.0000   1.0000   1.0000   1.0000
     1.0000   1.0000   1.0000   1.0000   1.0000

          k =-0.0690-0.3449 0.3449 ( 10066 PWs)   bands (ev):

  -108.4260 -56.7573 -56.7572 -56.7572  -4.6347  -0.4349  -0.4345  -0.1571
    -0.1251  -0.0134   1.9753   4.3284   5.5233

     occupation numbers 
     1.0000   1.0000   1.0000   1.0000   1.0000   1.0000   1.0000   1.0000
     1.0000   1.0000   1.0000   1.0000   1.0000

          k = 0.0000-0.2759 0.2759 ( 10071 PWs)   bands (ev):

  -108.4260 -56.7573 -56.7572 -56.7572  -4.7572  -0.4740  -0.4557  -0.3085
    -0.1329  -0.0831   2.6571   4.7099   5.8289

     occupation numbers 
     1.0000   1.0000   1.0000   1.0000   1.0000   1.0000   1.0000   1.0000
     1.0000   1.0000   1.0000   1.0000   1.0000

          k = 0.4139 0.0000 0.0000 ( 10077 PWs)   bands (ev):

  -108.4260 -56.7573 -56.7572 -56.7572  -4.7029  -0.4402  -0.3895  -0.3895
    -0.1101  -0.0793   2.6307   4.9759   4.9759

     occupation numbers 
     1.0000   1.0000   1.0000   1.0000   1.0000   1.0000   1.0000   1.0000
     1.0000   1.0000   1.0000   1.0000   1.0000

          k = 0.4829 0.0690-0.0690 ( 10075 PWs)   bands (ev):

  -108.4260 -56.7573 -56.7572 -56.7572  -4.5997  -0.4134  -0.3528  -0.3198
    -0.0739  -0.0216   2.0981   4.6179   4.7845

     occupation numbers 
     1.0000   1.0000   1.0000   1.0000   1.0000   1.0000   1.0000   1.0000
     1.0000   1.0000   1.0000   1.0000   1.0000

          k =-0.1380-0.5519 0.5519 ( 10067 PWs)   bands (ev):

  -108.4260 -56.7573 -56.7572 -56.7572  -4.5213  -0.4029  -0.3393  -0.2424
    -0.0795   0.1660   1.6005   4.1737   4.7601

     occupation numbers 
     1.0000   1.0000   1.0000   1.0000   1.0000   1.0000   1.0000   1.0000
     1.0000   1.0000   1.0000   1.0000   1.0000

          k =-0.0690-0.4829 0.4829 ( 10068 PWs)   bands (ev):

  -108.4260 -56.7573 -56.7573 -56.7572  -4.4999  -0.4044  -0.3515  -0.1783
    -0.0976   0.2908   1.3866   3.8677   4.9100

     occupation numbers 
     1.0000   1.0000   1.0000   1.0000   1.0000   1.0000   1.0000   1.0000
     1.0000   1.0000   1.0000   1.0000   1.0000

          k =-0.0000-0.4139 0.4139 ( 10073 PWs)   bands (ev):

  -108.4260 -56.7573 -56.7573 -56.7572  -4.5440  -0.4143  -0.3870  -0.1426
    -0.1168   0.1589   1.6134   3.8810   5.1936

     occupation numbers 
     1.0000   1.0000   1.0000   1.0000   1.0000   1.0000   1.0000   1.0000
     1.0000   1.0000   1.0000   1.0000   1.0000

          k = 0.5519 0.0000 0.0000 ( 10082 PWs)   bands (ev):

  -108.4260 -56.7573 -56.7572 -56.7572  -4.5283  -0.3911  -0.3100  -0.3100
    -0.0653   0.0708   1.7641   4.5593   4.5593

     occupation numbers 
     1.0000   1.0000   1.0000   1.0000   1.0000   1.0000   1.0000   1.0000
     1.0000   1.0000   1.0000   1.0000   1.0000

          k =-0.0690-0.6209 0.6209 ( 10066 PWs)   bands (ev):

  -108.4260 -56.7573 -56.7572 -56.7572  -4.4768  -0.3835  -0.2940  -0.2761
    -0.0666   0.2275   1.4383   4.2868   4.5032

     occupation numbers 
     1.0000   1.0000   1.0000   1.0000   1.0000   1.0000   1.0000   1.0000
     1.0000   1.0000   1.0000   1.0000   1.0000

          k = 0.0000-0.5519 0.5519 ( 10057 PWs)   bands (ev):

  -108.4260 -56.7573 -56.7573 -56.7572  -4.4662  -0.3860  -0.3088  -0.2322
    -0.0810   0.3354   1.3087   3.9429   4.6319

     occupation numbers 
     1.0000   1.0000   1.0000   1.0000   1.0000   1.0000   1.0000   1.0000
     1.0000   1.0000   1.0000   1.0000   1.0000

          k =-0.6898 0.0000 0.0000 ( 10086 PWs)   bands (ev):

  -108.4260 -56.7573 -56.7572 -56.7572  -4.4593  -0.3844  -0.2775  -0.2775
    -0.0599   0.2666   1.3314   4.4087   4.4087

     occupation numbers 
     1.0000   1.0000   1.0000   1.0000   1.0000   1.0000   1.0000   1.0000
     1.0000   1.0000   1.0000   1.0000   1.0000

          k = 0.2759 0.1380 0.0000 ( 10051 PWs)   bands (ev):

  -108.4260 -56.7573 -56.7572 -56.7572  -4.8663  -0.5058  -0.4740  -0.4329
    -0.1333  -0.0972   3.3066   5.2701   5.7824

     occupation numbers 
     1.0000   1.0000   1.0000   1.0000   1.0000   1.0000   1.0000   1.0000
     1.0000   1.0000   1.0000   1.0000   1.0000

          k = 0.3449 0.2070-0.0690 ( 10065 PWs)   bands (ev):

  -108.4260 -56.7573 -56.7572 -56.7572  -4.7312  -0.4695  -0.4417  -0.2968
    -0.1184  -0.0823   2.5176   4.8161   5.5456

     occupation numbers 
     1.0000   1.0000   1.0000   1.0000   1.0000   1.0000   1.0000   1.0000
     1.0000   1.0000   1.0000   1.0000   1.0000

          k =-0.2759-0.4139 0.5519 ( 10076 PWs)   bands (ev):

  -108.4260 -56.7573 -56.7572 -56.7572  -4.6175  -0.4433  -0.4227  -0.1651
    -0.0984   0.0353   1.7779   4.5707   5.3164

     occupation numbers 
     1.0000   1.0000   1.0000   1.0000   1.0000   1.0000   1.0000   1.0000
     1.0000   1.0000   1.0000   1.0000   1.0000

          k =-0.2070-0.3449 0.4829 ( 10064 PWs)   bands (ev):

  -108.4260 -56.7573 -56.7572 -56.7572  -4.5730  -0.4353  -0.4161  -0.1312
    -0.1026   0.1944   1.4169   4.4974   5.2231

     occupation numbers 
     1.0000   1.0000   1.0000   1.0000   1.0000   1.0000   1.0000   1.0000
     1.0000   1.0000   1.0000   1.0000   1.0000

          k = 0.4139 0.1380-0.0000 ( 10079 PWs)   bands (ev):

  -108.4260 -56.7573 -56.7572 -56.7572  -4.6797  -0.4440  -0.4007  -0.3273
    -0.0946  -0.0748   2.4368   4.7171   5.1040

     occupation numbers 
     1.0000   1.0000   1.0000   1.0000   1.0000   1.0000   1.0000   1.0000
     1.0000   1.0000   1.0000   1.0000   1.0000

          k =-0.2070-0.4829 0.6209 ( 10082 PWs)   bands (ev):

  -108.4260 -56.7573 -56.7572 -56.7572  -4.5757  -0.4156  -0.3793  -0.2344
    -0.0867   0.0566   1.8532   4.3204   4.9053

     occupation numbers 
     1.0000   1.0000   1.0000   1.0000   1.0000   1.0000   1.0000   1.0000
     1.0000   1.0000   1.0000   1.0000   1.0000

          k =-0.1380-0.4139 0.5519 ( 10061 PWs)   bands (ev):

  -108.4260 -56.7573 -56.7572 -56.7572  -4.5206  -0.4070  -0.3718  -0.1705
    -0.1021   0.2433   1.4472   4.0615   4.8610

     occupation numbers 
     1.0000   1.0000   1.0000   1.0000   1.0000   1.0000   1.0000   1.0000
     1.0000   1.0000   1.0000   1.0000   1.0000

          k =-0.0690-0.3449 0.4829 ( 10072 PWs)   bands (ev):

  -108.4260 -56.7573 -56.7573 -56.7572  -4.5375  -0.4082  -0.3874  -0.1527
    -0.1124   0.1869   1.5522   3.9991   5.0165

     occupation numbers 
     1.0000   1.0000   1.0000   1.0000   1.0000   1.0000   1.0000   1.0000
     1.0000   1.0000   1.0000   1.0000   1.0000

          k = 0.0000-0.2759 0.4139 ( 10056 PWs)   bands (ev):

  -108.4260 -56.7573 -56.7572 -56.7572  -4.6190  -0.4267  -0.4158  -0.2010
    -0.1069  -0.0040   2.0202   4.2348   5.2934

     occupation numbers 
     1.0000   1.0000   1.0000   1.0000   1.0000   1.0000   1.0000   1.0000
     1.0000   1.0000   1.0000   1.0000   1.0000

          k =-0.1380-0.5519 0.6898 ( 10086 PWs)   bands (ev):

  -108.4260 -56.7573 -56.7572 -56.7572  -4.5217  -0.3891  -0.3335  -0.2721
    -0.0741   0.1217   1.6891   4.3622   4.5617

     occupation numbers 
     1.0000   1.0000   1.0000   1.0000   1.0000   1.0000   1.0000   1.0000
     1.0000   1.0000   1.0000   1.0000   1.0000

          k =-0.0690-0.4829 0.6209 ( 10068 PWs)   bands (ev):

  -108.4260 -56.7573 -56.7573 -56.7572  -4.4769  -0.3815  -0.3282  -0.2206
    -0.0889   0.3004   1.3797   4.0318   4.5104

     occupation numbers 
     1.0000   1.0000   1.0000   1.0000   1.0000   1.0000   1.0000   1.0000
     1.0000   1.0000   1.0000   1.0000   1.0000

          k = 0.0000-0.4139 0.5519 ( 10068 PWs)   bands (ev):

  -108.4260 -56.7573 -56.7573 -56.7572  -4.4833  -0.3898  -0.3465  -0.1702
    -0.1116   0.3272   1.3558   3.8281   4.6992

     occupation numbers 
     1.0000   1.0000   1.0000   1.0000   1.0000   1.0000   1.0000   1.0000
     1.0000   1.0000   1.0000   1.0000   1.0000

          k =-0.6898 0.1380 0.0000 ( 10052 PWs)   bands (ev):

  -108.4260 -56.7573 -56.7572 -56.7572  -4.4597  -0.3765  -0.3010  -0.2529
    -0.0726   0.3131   1.3132   4.2895   4.3082

     occupation numbers 
     1.0000   1.0000   1.0000   1.0000   1.0000   1.0000   1.0000   1.0000
     1.0000   1.0000   1.0000   1.0000   1.0000

          k =-0.1380-0.4139 0.6898 ( 10070 PWs)   bands (ev):

  -108.4260 -56.7573 -56.7573 -56.7572  -4.5045  -0.3802  -0.3667  -0.1906
    -0.1040   0.2326   1.5124   4.0128   4.6128

     occupation numbers 
     1.0000   1.0000   1.0000   1.0000   1.0000   1.0000   1.0000   1.0000
     1.0000   1.0000   1.0000   1.0000   1.0000

          k =-0.0690-0.3449 0.6209 ( 10072 PWs)   bands (ev):

  -108.4260 -56.7573 -56.7573 -56.7572  -4.4770  -0.3770  -0.3510  -0.1581
    -0.1288   0.3453   1.3392   3.9306   4.4644

     occupation numbers 
     1.0000   1.0000   1.0000   1.0000   1.0000   1.0000   1.0000   1.0000
     1.0000   1.0000   1.0000   1.0000   1.0000

          k =-0.6898 0.2759 0.0000 ( 10082 PWs)   bands (ev):

  -108.4260 -56.7573 -56.7573 -56.7572  -4.4602  -0.3681  -0.3333  -0.1870
    -0.1138   0.3843   1.2819   4.1111   4.1632

     occupation numbers 
     1.0000   1.0000   1.0000   1.0000   1.0000   1.0000   1.0000   1.0000
     1.0000   1.0000   1.0000   1.0000   1.0000

     highest occupied level (ev):     6.3955

!    total energy              =    -346.21126593 Ry
     estimated scf accuracy    <          7.4E-13 Ry

     The total energy is the sum of the following terms:
     one-electron contribution =    -234.38536493 Ry
     hartree contribution      =     119.15011052 Ry
     xc contribution           =     -55.65378034 Ry
     ewald contribution        =    -175.32223117 Ry

     convergence has been achieved in  11 iterations

     Forces acting on atoms (cartesian axes, Ry/au):

     atom    1 type  1   force =     0.00000000   -0.00000000   -0.00000000
     atom    2 type  2   force =     0.00000000    0.00000000    0.00000000
     The non-local contrib.  to forces
     atom    1 type  1   force =    -0.00000000   -0.00000000    0.00000000
     atom    2 type  2   force =     0.00000000    0.00000000   -0.00000000
     The ionic contribution  to forces
     atom    1 type  1   force =     0.00000000    0.00000000    0.00000000
     atom    2 type  2   force =    -0.00000000    0.00000000   -0.00000000
     The local contribution  to forces
     atom    1 type  1   force =    -0.00000000   -0.00000000    0.00000000
     atom    2 type  2   force =    -0.00000000    0.00000000   -0.00000000
     The core correction contribution to forces
     atom    1 type  1   force =     0.00000000    0.00000000    0.00000000
     atom    2 type  2   force =    -0.00000000   -0.00000000    0.00000000
     The Hubbard contrib.    to forces
     atom    1 type  1   force =     0.00000000    0.00000000    0.00000000
     atom    2 type  2   force =     0.00000000    0.00000000    0.00000000
     The SCF correction term to forces
     atom    1 type  1   force =     0.00000000   -0.00000000    0.00000000
     atom    2 type  2   force =    -0.00000000   -0.00000000    0.00000000

     Total force =     0.000000     Total SCF correction =     0.000000


     Computing stress (Cartesian axis) and pressure

          total   stress  (Ry/bohr**3)                   (kbar)     P=        5.81
   0.00003950  -0.00000000   0.00000000            5.81       -0.00        0.00
  -0.00000000   0.00003950   0.00000000           -0.00        5.81        0.00
  -0.00000000   0.00000000   0.00003950           -0.00        0.00        5.81

     kinetic stress (kbar)  25145.56      0.00      0.00
                                0.00  25145.56     -0.00
                                0.00     -0.00  25145.56

     local   stress (kbar) -25033.33     -0.00      0.00
                               -0.00 -25033.33     -0.00
                                0.00     -0.00 -25033.33

     nonloc. stress (kbar)   9520.39      0.00      0.00
                                0.00   9520.39     -0.00
                                0.00     -0.00   9520.39

     hartree stress (kbar)  11966.54     -0.00     -0.00
                               -0.00  11966.54      0.00
                               -0.00      0.00  11966.54

     exc-cor stress (kbar)   3348.21      0.00     -0.00
                                0.00   3348.21     -0.00
                               -0.00     -0.00   3348.21

     corecor stress (kbar)  -7333.51      0.00      0.00
                                0.00  -7333.51     -0.00
                                0.00     -0.00  -7333.51

     ewald   stress (kbar) -17608.04      0.00      0.00
                                0.00 -17608.04      0.00
                                0.00      0.00 -17608.04

     hubbard stress (kbar)      0.00      0.00      0.00
                                0.00      0.00      0.00
                                0.00      0.00      0.00

     DFT-D   stress (kbar)      0.00      0.00      0.00
                                0.00      0.00      0.00
                                0.00      0.00      0.00

     XDM     stress (kbar)      0.00      0.00      0.00
                                0.00      0.00      0.00
                                0.00      0.00      0.00

     dft-nl  stress (kbar)      0.00      0.00      0.00
                                0.00      0.00      0.00
                                0.00      0.00      0.00

     TS-vdW  stress (kbar)      0.00      0.00      0.00
                                0.00      0.00      0.00
                                0.00      0.00      0.00

     MDB     stress (kbar)      0.00      0.00      0.00
                                0.00      0.00      0.00
                                0.00      0.00      0.00

     3D-RISM stress (kbar)      0.00      0.00      0.00
                                0.00      0.00      0.00
                                0.00      0.00      0.00

     Energy error            =      1.3E-03 Ry
     Gradient error          =      4.5E-31 Ry/Bohr
     Cell gradient error     =      5.8E+00 kbar

     number of scf cycles    =   4
     number of bfgs steps    =   3

     enthalpy           old  =    -346.2099761828 Ry
     enthalpy           new  =    -346.2112659266 Ry

     CASE: enthalpy          _new < enthalpy          _old

     new trust radius        =       0.0216192702 bohr
     new conv_thr            =            1.0E-12 Ry

     new unit-cell volume =    495.43952 a.u.^3 (    73.41656 Ang^3 )
     density =      7.42306 g/cm^3

CELL_PARAMETERS (angstrom)
   0.000000000   3.323441337   3.323441337
   3.323441337  -0.000000000   3.323441337
   3.323441337   3.323441337   0.000000000

ATOMIC_POSITIONS (crystal)
Hg               0.0000000000       -0.0000000000        0.0000000000
Te               0.2500000000        0.2500000000        0.2500000000



     Writing config-only to output data dir /home/User/opencode_workspace/DFT/calculations/hgte/relax_nosoc/out/pwscf.save/ :
     XML data file
     NEW-OLD atomic charge density approx. for the potential
     New effective cutoffs (rho, wfc):  678.60  113.10

     total cpu time spent up to now is      135.8 secs

     per-process dynamical memory:    59.5 Mb

     Self-consistent Calculation

     iteration #  1     ecut=   120.00 Ry     beta= 0.30
     Davidson diagonalization with overlap

---- Real-time Memory Report at c_bands before calling an iterative solver
           175 MiB given to the printing process from OS
            58 MiB allocation reported by mallinfo(arena+hblkhd)
          9143 MiB available memory on the node where the printing process lives
------------------
     ethr =  1.00E-06,  avg # of iterations =  5.4

     Threshold (ethr) on eigenvalues was too large:
     Diagonalizing with lowered threshold

     Davidson diagonalization with overlap

---- Real-time Memory Report at c_bands before calling an iterative solver
           175 MiB given to the printing process from OS
            58 MiB allocation reported by mallinfo(arena+hblkhd)
          9138 MiB available memory on the node where the printing process lives
------------------
     ethr =  4.36E-09,  avg # of iterations =  5.1

     total cpu time spent up to now is      142.4 secs

     total energy              =    -346.21141871 Ry
     estimated scf accuracy    <       0.00000098 Ry

     iteration #  2     ecut=   120.00 Ry     beta= 0.30
     Davidson diagonalization with overlap

---- Real-time Memory Report at c_bands before calling an iterative solver
           175 MiB given to the printing process from OS
            63 MiB allocation reported by mallinfo(arena+hblkhd)
          9113 MiB available memory on the node where the printing process lives
------------------
     ethr =  3.75E-09,  avg # of iterations =  1.0

     total cpu time spent up to now is      144.3 secs

     total energy              =    -346.21141873 Ry
     estimated scf accuracy    <       0.00000043 Ry

     iteration #  3     ecut=   120.00 Ry     beta= 0.30
     Davidson diagonalization with overlap

---- Real-time Memory Report at c_bands before calling an iterative solver
           175 MiB given to the printing process from OS
            64 MiB allocation reported by mallinfo(arena+hblkhd)
          9125 MiB available memory on the node where the printing process lives
------------------
     ethr =  1.64E-09,  avg # of iterations =  2.0

     total cpu time spent up to now is      146.3 secs

     total energy              =    -346.21141878 Ry
     estimated scf accuracy    <       0.00000002 Ry

     iteration #  4     ecut=   120.00 Ry     beta= 0.30
     Davidson diagonalization with overlap

---- Real-time Memory Report at c_bands before calling an iterative solver
           175 MiB given to the printing process from OS
            64 MiB allocation reported by mallinfo(arena+hblkhd)
          9029 MiB available memory on the node where the printing process lives
------------------
     ethr =  8.69E-11,  avg # of iterations =  4.1

     total cpu time spent up to now is      148.8 secs

     total energy              =    -346.21141879 Ry
     estimated scf accuracy    <          4.1E-09 Ry

     iteration #  5     ecut=   120.00 Ry     beta= 0.30
     Davidson diagonalization with overlap

---- Real-time Memory Report at c_bands before calling an iterative solver
           175 MiB given to the printing process from OS
            64 MiB allocation reported by mallinfo(arena+hblkhd)
          9047 MiB available memory on the node where the printing process lives
------------------
     ethr =  1.58E-11,  avg # of iterations =  2.5

     total cpu time spent up to now is      151.0 secs

     total energy              =    -346.21141880 Ry
     estimated scf accuracy    <          1.3E-09 Ry

     iteration #  6     ecut=   120.00 Ry     beta= 0.30
     Davidson diagonalization with overlap

---- Real-time Memory Report at c_bands before calling an iterative solver
           175 MiB given to the printing process from OS
            65 MiB allocation reported by mallinfo(arena+hblkhd)
          9054 MiB available memory on the node where the printing process lives
------------------
     ethr =  4.83E-12,  avg # of iterations =  3.8

     total cpu time spent up to now is      153.4 secs

     total energy              =    -346.21141880 Ry
     estimated scf accuracy    <          6.2E-10 Ry

     iteration #  7     ecut=   120.00 Ry     beta= 0.30
     Davidson diagonalization with overlap

---- Real-time Memory Report at c_bands before calling an iterative solver
           175 MiB given to the printing process from OS
            65 MiB allocation reported by mallinfo(arena+hblkhd)
          9059 MiB available memory on the node where the printing process lives
------------------
     ethr =  2.40E-12,  avg # of iterations =  2.0

     total cpu time spent up to now is      155.3 secs

     total energy              =    -346.21141880 Ry
     estimated scf accuracy    <          1.7E-10 Ry

     iteration #  8     ecut=   120.00 Ry     beta= 0.30
     Davidson diagonalization with overlap

---- Real-time Memory Report at c_bands before calling an iterative solver
           175 MiB given to the printing process from OS
            66 MiB allocation reported by mallinfo(arena+hblkhd)
          9131 MiB available memory on the node where the printing process lives
------------------
     ethr =  6.66E-13,  avg # of iterations =  4.1

     total cpu time spent up to now is      157.6 secs

     total energy              =    -346.21141880 Ry
     estimated scf accuracy    <          4.0E-11 Ry

     iteration #  9     ecut=   120.00 Ry     beta= 0.30
     Davidson diagonalization with overlap

---- Real-time Memory Report at c_bands before calling an iterative solver
           175 MiB given to the printing process from OS
            66 MiB allocation reported by mallinfo(arena+hblkhd)
          9082 MiB available memory on the node where the printing process lives
------------------
     ethr =  1.53E-13,  avg # of iterations =  1.6

     total cpu time spent up to now is      159.5 secs

     total energy              =    -346.21141880 Ry
     estimated scf accuracy    <          4.8E-11 Ry

     iteration # 10     ecut=   120.00 Ry     beta= 0.30
     Davidson diagonalization with overlap

---- Real-time Memory Report at c_bands before calling an iterative solver
           175 MiB given to the printing process from OS
            66 MiB allocation reported by mallinfo(arena+hblkhd)
          9064 MiB available memory on the node where the printing process lives
------------------
     ethr =  1.53E-13,  avg # of iterations =  2.2

     total cpu time spent up to now is      161.6 secs

     total energy              =    -346.21141880 Ry
     estimated scf accuracy    <          2.0E-12 Ry

     iteration # 11     ecut=   120.00 Ry     beta= 0.30
     Davidson diagonalization with overlap

---- Real-time Memory Report at c_bands before calling an iterative solver
           175 MiB given to the printing process from OS
            66 MiB allocation reported by mallinfo(arena+hblkhd)
          9089 MiB available memory on the node where the printing process lives
------------------
     ethr =  1.00E-13,  avg # of iterations =  1.0

     total cpu time spent up to now is      163.4 secs

     End of self-consistent calculation

          k = 0.0000 0.0000 0.0000 ( 10081 PWs)   bands (ev):

  -108.5716 -56.9026 -56.9026 -56.9026  -5.2286  -0.6916  -0.6916  -0.6916
    -0.2572  -0.2572   5.2769   6.1964   6.1964

     occupation numbers 
     1.0000   1.0000   1.0000   1.0000   1.0000   1.0000   1.0000   1.0000
     1.0000   1.0000   1.0000   1.0000   1.0000

          k = 0.0686 0.0686-0.0686 (  9991 PWs)   bands (ev):

  -108.5715 -56.9026 -56.9026 -56.9026  -5.1866  -0.6800  -0.6800  -0.6730
    -0.2582  -0.2582   4.6049   6.1012   6.1012

     occupation numbers 
     1.0000   1.0000   1.0000   1.0000   1.0000   1.0000   1.0000   1.0000
     1.0000   1.0000   1.0000   1.0000   1.0000

          k = 0.1373 0.1373-0.1373 ( 10033 PWs)   bands (ev):

  -108.5716 -56.9027 -56.9026 -56.9026  -5.0736  -0.6509  -0.6509  -0.6030
    -0.2585  -0.2585   3.5514   5.8729   5.8729

     occupation numbers 
     1.0000   1.0000   1.0000   1.0000   1.0000   1.0000   1.0000   1.0000
     1.0000   1.0000   1.0000   1.0000   1.0000

          k = 0.2059 0.2059-0.2059 ( 10056 PWs)   bands (ev):

  -108.5716 -56.9027 -56.9026 -56.9026  -4.9272  -0.6187  -0.6187  -0.4478
    -0.2536  -0.2536   2.5110   5.6210   5.6210

     occupation numbers 
     1.0000   1.0000   1.0000   1.0000   1.0000   1.0000   1.0000   1.0000
     1.0000   1.0000   1.0000   1.0000   1.0000

          k = 0.2746 0.2746-0.2746 ( 10047 PWs)   bands (ev):

  -108.5716 -56.9027 -56.9026 -56.9026  -4.8029  -0.5967  -0.5967  -0.2439
    -0.2439  -0.1924   1.6446   5.4347   5.4347

     occupation numbers 
     1.0000   1.0000   1.0000   1.0000   1.0000   1.0000   1.0000   1.0000
     1.0000   1.0000   1.0000   1.0000   1.0000

          k =-0.3432-0.3432 0.3432 ( 10002 PWs)   bands (ev):

  -108.5715 -56.9027 -56.9026 -56.9026  -4.7540  -0.5894  -0.5894  -0.2387
    -0.2387  -0.0029   1.2368   5.3667   5.3667

     occupation numbers 
     1.0000   1.0000   1.0000   1.0000   1.0000   1.0000   1.0000   1.0000
     1.0000   1.0000   1.0000   1.0000   1.0000

          k = 0.1373 0.0000 0.0000 ( 10005 PWs)   bands (ev):

  -108.5715 -56.9026 -56.9026 -56.9026  -5.1726  -0.6812  -0.6690  -0.6690
    -0.2650  -0.2521   4.5118   5.9432   5.9432

     occupation numbers 
     1.0000   1.0000   1.0000   1.0000   1.0000   1.0000   1.0000   1.0000
     1.0000   1.0000   1.0000   1.0000   1.0000

          k = 0.2059 0.0686-0.0686 ( 10030 PWs)   bands (ev):

  -108.5716 -56.9026 -56.9026 -56.9026  -5.0831  -0.6591  -0.6392  -0.6223
    -0.2705  -0.2476   3.7444   5.6802   5.7055

     occupation numbers 
     1.0000   1.0000   1.0000   1.0000   1.0000   1.0000   1.0000   1.0000
     1.0000   1.0000   1.0000   1.0000   1.0000

          k = 0.2746 0.1373-0.1373 ( 10040 PWs)   bands (ev):

  -108.5716 -56.9027 -56.9026 -56.9026  -4.9471  -0.6265  -0.6048  -0.5041
    -0.2660  -0.2422   2.7861   5.3990   5.4274

     occupation numbers 
     1.0000   1.0000   1.0000   1.0000   1.0000   1.0000   1.0000   1.0000
     1.0000   1.0000   1.0000   1.0000   1.0000

          k = 0.3432 0.2059-0.2059 ( 10057 PWs)   bands (ev):

  -108.5716 -56.9027 -56.9026 -56.9026  -4.8142  -0.5987  -0.5806  -0.3182
    -0.2364  -0.2168   1.8964   5.1031   5.2669

     occupation numbers 
     1.0000   1.0000   1.0000   1.0000   1.0000   1.0000   1.0000   1.0000
     1.0000   1.0000   1.0000   1.0000   1.0000

          k =-0.2746-0.4119 0.4119 ( 10068 PWs)   bands (ev):

  -108.5716 -56.9027 -56.9026 -56.9026  -4.7392  -0.5836  -0.5727  -0.2583
    -0.2372  -0.0126   1.3135   4.9034   5.2425

     occupation numbers 
     1.0000   1.0000   1.0000   1.0000   1.0000   1.0000   1.0000   1.0000
     1.0000   1.0000   1.0000   1.0000   1.0000

          k =-0.2059-0.3432 0.3432 ( 10065 PWs)   bands (ev):

  -108.5716 -56.9027 -56.9026 -56.9026  -4.7556  -0.5817  -0.5805  -0.2511
    -0.2487  -0.0787   1.4520   4.8479   5.3603

     occupation numbers 
     1.0000   1.0000   1.0000   1.0000   1.0000   1.0000   1.0000   1.0000
     1.0000   1.0000   1.0000   1.0000   1.0000

          k =-0.1373-0.2746 0.2746 ( 10056 PWs)   bands (ev):

  -108.5716 -56.9027 -56.9026 -56.9026  -4.8558  -0.6033  -0.5935  -0.3675
    -0.2630  -0.2291   2.1741   4.9592   5.5889

     occupation numbers 
     1.0000   1.0000   1.0000   1.0000   1.0000   1.0000   1.0000   1.0000
     1.0000   1.0000   1.0000   1.0000   1.0000

          k =-0.0686-0.2059 0.2059 ( 10042 PWs)   bands (ev):

  -108.5716 -56.9027 -56.9026 -56.9026  -4.9961  -0.6366  -0.6200  -0.5486
    -0.2691  -0.2450   3.0967   5.2401   5.8587

     occupation numbers 
     1.0000   1.0000   1.0000   1.0000   1.0000   1.0000   1.0000   1.0000
     1.0000   1.0000   1.0000   1.0000   1.0000

          k = 0.0000-0.1373 0.1373 ( 10043 PWs)   bands (ev):

  -108.5716 -56.9026 -56.9026 -56.9026  -5.1209  -0.6671  -0.6541  -0.6414
    -0.2655  -0.2524   3.9975   5.6713   6.0652

     occupation numbers 
     1.0000   1.0000   1.0000   1.0000   1.0000   1.0000   1.0000   1.0000
     1.0000   1.0000   1.0000   1.0000   1.0000

          k = 0.2746 0.0000 0.0000 ( 10057 PWs)   bands (ev):

  -108.5716 -56.9027 -56.9026 -56.9026  -5.0212  -0.6398  -0.6064  -0.6064
    -0.2787  -0.2387   3.4627   5.3867   5.3867

     occupation numbers 
     1.0000   1.0000   1.0000   1.0000   1.0000   1.0000   1.0000   1.0000
     1.0000   1.0000   1.0000   1.0000   1.0000

          k = 0.3432 0.0686-0.0686 ( 10061 PWs)   bands (ev):

  -108.5716 -56.9027 -56.9026 -56.9026  -4.9083  -0.6070  -0.5672  -0.5321
    -0.2699  -0.2314   2.8073   5.0394   5.1155

     occupation numbers 
     1.0000   1.0000   1.0000   1.0000   1.0000   1.0000   1.0000   1.0000
     1.0000   1.0000   1.0000   1.0000   1.0000

          k = 0.4119 0.1373-0.1373 ( 10068 PWs)   bands (ev):

  -108.5716 -56.9027 -56.9026 -56.9026  -4.7848  -0.5795  -0.5383  -0.4028
    -0.2272  -0.2009   2.0591   4.6301   4.9527

     occupation numbers 
     1.0000   1.0000   1.0000   1.0000   1.0000   1.0000   1.0000   1.0000
     1.0000   1.0000   1.0000   1.0000   1.0000

          k =-0.2059-0.4805 0.4805 ( 10061 PWs)   bands (ev):

  -108.5716 -56.9027 -56.9027 -56.9026  -4.6996  -0.5638  -0.5283  -0.3134
    -0.2320  -0.0140   1.4552   4.2914   4.9424

     occupation numbers 
     1.0000   1.0000   1.0000   1.0000   1.0000   1.0000   1.0000   1.0000
     1.0000   1.0000   1.0000   1.0000   1.0000

          k =-0.1373-0.4119 0.4119 ( 10066 PWs)   bands (ev):

  -108.5716 -56.9027 -56.9027 -56.9026  -4.6892  -0.5591  -0.5376  -0.2746
    -0.2482   0.0347   1.3504   4.1195   5.0880

     occupation numbers 
     1.0000   1.0000   1.0000   1.0000   1.0000   1.0000   1.0000   1.0000
     1.0000   1.0000   1.0000   1.0000   1.0000

          k =-0.0686-0.3432 0.3432 ( 10066 PWs)   bands (ev):

  -108.5716 -56.9027 -56.9027 -56.9026  -4.7581  -0.5647  -0.5645  -0.2940
    -0.2660  -0.1547   1.8336   4.1854   5.3501

     occupation numbers 
     1.0000   1.0000   1.0000   1.0000   1.0000   1.0000   1.0000   1.0000
     1.0000   1.0000   1.0000   1.0000   1.0000

          k = 0.0000-0.2746 0.2746 ( 10071 PWs)   bands (ev):

  -108.5716 -56.9027 -56.9026 -56.9026  -4.8763  -0.6028  -0.5846  -0.4373
    -0.2735  -0.2255   2.4969   4.5596   5.6468

     occupation numbers 
     1.0000   1.0000   1.0000   1.0000   1.0000   1.0000   1.0000   1.0000
     1.0000   1.0000   1.0000   1.0000   1.0000

          k = 0.4119 0.0000 0.0000 ( 10077 PWs)   bands (ev):

  -108.5716 -56.9027 -56.9026 -56.9026  -4.8239  -0.5635  -0.5213  -0.5213
    -0.2506  -0.2221   2.4660   4.8183   4.8183

     occupation numbers 
     1.0000   1.0000   1.0000   1.0000   1.0000   1.0000   1.0000   1.0000
     1.0000   1.0000   1.0000   1.0000   1.0000

          k = 0.4805 0.0686-0.0686 ( 10075 PWs)   bands (ev):

  -108.5716 -56.9027 -56.9027 -56.9026  -4.7243  -0.5402  -0.4860  -0.4517
    -0.2170  -0.1638   1.9474   4.4692   4.6318

     occupation numbers 
     1.0000   1.0000   1.0000   1.0000   1.0000   1.0000   1.0000   1.0000
     1.0000   1.0000   1.0000   1.0000   1.0000

          k =-0.1373-0.5492 0.5492 ( 10067 PWs)   bands (ev):

  -108.5716 -56.9027 -56.9027 -56.9027  -4.6487  -0.5319  -0.4730  -0.3772
    -0.2223   0.0172   1.4673   4.0353   4.6079

     occupation numbers 
     1.0000   1.0000   1.0000   1.0000   1.0000   1.0000   1.0000   1.0000
     1.0000   1.0000   1.0000   1.0000   1.0000

          k =-0.0686-0.4805 0.4805 ( 10068 PWs)   bands (ev):

  -108.5716 -56.9027 -56.9027 -56.9026  -4.6280  -0.5341  -0.4848  -0.3166
    -0.2396   0.1353   1.2646   3.7363   4.7537

     occupation numbers 
     1.0000   1.0000   1.0000   1.0000   1.0000   1.0000   1.0000   1.0000
     1.0000   1.0000   1.0000   1.0000   1.0000

          k = 0.0000-0.4119 0.4119 ( 10073 PWs)   bands (ev):

  -108.5716 -56.9027 -56.9027 -56.9026  -4.6706  -0.5442  -0.5189  -0.2824
    -0.2580   0.0123   1.4812   3.7496   5.0296

     occupation numbers 
     1.0000   1.0000   1.0000   1.0000   1.0000   1.0000   1.0000   1.0000
     1.0000   1.0000   1.0000   1.0000   1.0000

          k = 0.5492 0.0000 0.0000 ( 10082 PWs)   bands (ev):

  -108.5716 -56.9027 -56.9027 -56.9027  -4.6555  -0.5162  -0.4450  -0.4450
    -0.2086  -0.0745   1.6224   4.4124   4.4124

     occupation numbers 
     1.0000   1.0000   1.0000   1.0000   1.0000   1.0000   1.0000   1.0000
     1.0000   1.0000   1.0000   1.0000   1.0000

          k =-0.0686-0.6178 0.6178 ( 10066 PWs)   bands (ev):

  -108.5716 -56.9027 -56.9027 -56.9027  -4.6058  -0.5105  -0.4296  -0.4115
    -0.2099   0.0746   1.3095   4.1468   4.3576

     occupation numbers 
     1.0000   1.0000   1.0000   1.0000   1.0000   1.0000   1.0000   1.0000
     1.0000   1.0000   1.0000   1.0000   1.0000

          k = 0.0000-0.5492 0.5492 ( 10057 PWs)   bands (ev):

  -108.5716 -56.9027 -56.9027 -56.9026  -4.5956  -0.5151  -0.4438  -0.3684
    -0.2236   0.1759   1.1884   3.8111   4.4829

     occupation numbers 
     1.0000   1.0000   1.0000   1.0000   1.0000   1.0000   1.0000   1.0000
     1.0000   1.0000   1.0000   1.0000   1.0000

          k =-0.6865 0.0000 0.0000 ( 10086 PWs)   bands (ev):

  -108.5716 -56.9028 -56.9027 -56.9027  -4.5890  -0.5101  -0.4138  -0.4138
    -0.2035   0.1105   1.2074   4.2657   4.2657

     occupation numbers 
     1.0000   1.0000   1.0000   1.0000   1.0000   1.0000   1.0000   1.0000
     1.0000   1.0000   1.0000   1.0000   1.0000

          k = 0.2746 0.1373 0.0000 ( 10051 PWs)   bands (ev):

  -108.5716 -56.9027 -56.9026 -56.9026  -4.9816  -0.6324  -0.6026  -0.5598
    -0.2739  -0.2393   3.1309   5.1057   5.6018

     occupation numbers 
     1.0000   1.0000   1.0000   1.0000   1.0000   1.0000   1.0000   1.0000
     1.0000   1.0000   1.0000   1.0000   1.0000

          k = 0.3432 0.2059-0.0686 ( 10065 PWs)   bands (ev):

  -108.5716 -56.9027 -56.9026 -56.9026  -4.8512  -0.5978  -0.5713  -0.4265
    -0.2592  -0.2247   2.3613   4.6619   5.3718

     occupation numbers 
     1.0000   1.0000   1.0000   1.0000   1.0000   1.0000   1.0000   1.0000
     1.0000   1.0000   1.0000   1.0000   1.0000

          k =-0.2746-0.4119 0.5492 ( 10076 PWs)   bands (ev):

  -108.5716 -56.9027 -56.9027 -56.9026  -4.7415  -0.5726  -0.5531  -0.3029
    -0.2403  -0.1076   1.6443   4.4200   5.1491

     occupation numbers 
     1.0000   1.0000   1.0000   1.0000   1.0000   1.0000   1.0000   1.0000
     1.0000   1.0000   1.0000   1.0000   1.0000

          k =-0.2059-0.3432 0.4805 ( 10064 PWs)   bands (ev):

  -108.5716 -56.9027 -56.9027 -56.9026  -4.6986  -0.5648  -0.5468  -0.2716
    -0.2444   0.0430   1.2990   4.3473   5.0586

     occupation numbers 
     1.0000   1.0000   1.0000   1.0000   1.0000   1.0000   1.0000   1.0000
     1.0000   1.0000   1.0000   1.0000   1.0000

          k = 0.4119 0.1373-0.0000 ( 10079 PWs)   bands (ev):

  -108.5716 -56.9027 -56.9027 -56.9026  -4.8015  -0.5714  -0.5319  -0.4573
    -0.2359  -0.2171   2.2786   4.5664   4.9425

     occupation numbers 
     1.0000   1.0000   1.0000   1.0000   1.0000   1.0000   1.0000   1.0000
     1.0000   1.0000   1.0000   1.0000   1.0000

          k =-0.2059-0.4805 0.6178 ( 10082 PWs)   bands (ev):

  -108.5716 -56.9027 -56.9027 -56.9026  -4.7012  -0.5450  -0.5112  -0.3689
    -0.2292  -0.0874   1.7121   4.1783   4.7492

     occupation numbers 
     1.0000   1.0000   1.0000   1.0000   1.0000   1.0000   1.0000   1.0000
     1.0000   1.0000   1.0000   1.0000   1.0000

          k =-0.1373-0.4119 0.5492 ( 10061 PWs)   bands (ev):

  -108.5716 -56.9027 -56.9027 -56.9026  -4.6480  -0.5371  -0.5041  -0.3090
    -0.2438   0.0906   1.3233   3.9244   4.7062

     occupation numbers 
     1.0000   1.0000   1.0000   1.0000   1.0000   1.0000   1.0000   1.0000
     1.0000   1.0000   1.0000   1.0000   1.0000

          k =-0.0686-0.3432 0.4805 ( 10072 PWs)   bands (ev):

  -108.5716 -56.9027 -56.9027 -56.9026  -4.6643  -0.5384  -0.5191  -0.2920
    -0.2537   0.0382   1.4233   3.8640   4.8574

     occupation numbers 
     1.0000   1.0000   1.0000   1.0000   1.0000   1.0000   1.0000   1.0000
     1.0000   1.0000   1.0000   1.0000   1.0000

          k = 0.0000-0.2746 0.4119 ( 10056 PWs)   bands (ev):

  -108.5716 -56.9027 -56.9027 -56.9026  -4.7429  -0.5567  -0.5461  -0.3362
    -0.2483  -0.1458   1.8748   4.0953   5.1266

     occupation numbers 
     1.0000   1.0000   1.0000   1.0000   1.0000   1.0000   1.0000   1.0000
     1.0000   1.0000   1.0000   1.0000   1.0000

          k =-0.1373-0.5492 0.6865 ( 10086 PWs)   bands (ev):

  -108.5716 -56.9027 -56.9027 -56.9027  -4.6491  -0.5172  -0.4674  -0.4065
    -0.2170  -0.0253   1.5508   4.2203   4.4146

     occupation numbers 
     1.0000   1.0000   1.0000   1.0000   1.0000   1.0000   1.0000   1.0000
     1.0000   1.0000   1.0000   1.0000   1.0000

          k =-0.0686-0.4805 0.6178 ( 10068 PWs)   bands (ev):

  -108.5716 -56.9027 -56.9027 -56.9027  -4.6059  -0.5112  -0.4624  -0.3570
    -0.2311   0.1440   1.2556   3.8979   4.3646

     occupation numbers 
     1.0000   1.0000   1.0000   1.0000   1.0000   1.0000   1.0000   1.0000
     1.0000   1.0000   1.0000   1.0000   1.0000

          k = 0.0000-0.4119 0.5492 ( 10068 PWs)   bands (ev):

  -108.5716 -56.9027 -56.9027 -56.9027  -4.6121  -0.5201  -0.4799  -0.3091
    -0.2527   0.1697   1.2343   3.6987   4.5484

     occupation numbers 
     1.0000   1.0000   1.0000   1.0000   1.0000   1.0000   1.0000   1.0000
     1.0000   1.0000   1.0000   1.0000   1.0000

          k =-0.6865 0.1373 0.0000 ( 10052 PWs)   bands (ev):

  -108.5716 -56.9027 -56.9027 -56.9027  -4.5893  -0.5045  -0.4364  -0.3889
    -0.2156   0.1547   1.1914   4.1511   4.1661

     occupation numbers 
     1.0000   1.0000   1.0000   1.0000   1.0000   1.0000   1.0000   1.0000
     1.0000   1.0000   1.0000   1.0000   1.0000

          k =-0.1373-0.4119 0.6865 ( 10070 PWs)   bands (ev):

  -108.5716 -56.9027 -56.9027 -56.9027  -4.6325  -0.5109  -0.4992  -0.3280
    -0.2455   0.0813   1.3826   3.8791   4.4643

     occupation numbers 
     1.0000   1.0000   1.0000   1.0000   1.0000   1.0000   1.0000   1.0000
     1.0000   1.0000   1.0000   1.0000   1.0000

          k =-0.0686-0.3432 0.6178 ( 10072 PWs)   bands (ev):

  -108.5716 -56.9027 -56.9027 -56.9027  -4.6060  -0.5079  -0.4842  -0.2978
    -0.2686   0.1864   1.2185   3.7989   4.3196

     occupation numbers 
     1.0000   1.0000   1.0000   1.0000   1.0000   1.0000   1.0000   1.0000
     1.0000   1.0000   1.0000   1.0000   1.0000

          k =-0.6865 0.2746 0.0000 ( 10082 PWs)   bands (ev):

  -108.5716 -56.9027 -56.9027 -56.9027  -4.5897  -0.4988  -0.4676  -0.3249
    -0.2546   0.2220   1.1639   3.9795   4.0221

     occupation numbers 
     1.0000   1.0000   1.0000   1.0000   1.0000   1.0000   1.0000   1.0000
     1.0000   1.0000   1.0000   1.0000   1.0000

     highest occupied level (ev):     6.1964

!    total energy              =    -346.21141880 Ry
     estimated scf accuracy    <          4.8E-13 Ry

     The total energy is the sum of the following terms:
     one-electron contribution =    -235.82986458 Ry
     hartree contribution      =     119.72867992 Ry
     xc contribution           =     -55.64152043 Ry
     ewald contribution        =    -174.46871370 Ry

     convergence has been achieved in  11 iterations

     Forces acting on atoms (cartesian axes, Ry/au):

     atom    1 type  1   force =     0.00000000   -0.00000000   -0.00000000
     atom    2 type  2   force =     0.00000000   -0.00000000   -0.00000000
     The non-local contrib.  to forces
     atom    1 type  1   force =    -0.00000000    0.00000000   -0.00000000
     atom    2 type  2   force =    -0.00000000   -0.00000000    0.00000000
     The ionic contribution  to forces
     atom    1 type  1   force =    -0.00000000   -0.00000000    0.00000000
     atom    2 type  2   force =    -0.00000000    0.00000000   -0.00000000
     The local contribution  to forces
     atom    1 type  1   force =    -0.00000000    0.00000000   -0.00000000
     atom    2 type  2   force =    -0.00000000   -0.00000000    0.00000000
     The core correction contribution to forces
     atom    1 type  1   force =     0.00000000   -0.00000000   -0.00000000
     atom    2 type  2   force =    -0.00000000    0.00000000    0.00000000
     The Hubbard contrib.    to forces
     atom    1 type  1   force =     0.00000000    0.00000000    0.00000000
     atom    2 type  2   force =     0.00000000    0.00000000    0.00000000
     The SCF correction term to forces
     atom    1 type  1   force =    -0.00000000   -0.00000000    0.00000000
     atom    2 type  2   force =    -0.00000000   -0.00000000   -0.00000000

     Total force =     0.000000     Total SCF correction =     0.000000


     Computing stress (Cartesian axis) and pressure

          total   stress  (Ry/bohr**3)                   (kbar)     P=        0.51
   0.00000348  -0.00000000  -0.00000000            0.51       -0.00       -0.00
  -0.00000000   0.00000348   0.00000000           -0.00        0.51        0.00
   0.00000000   0.00000000   0.00000348            0.00        0.00        0.51

     kinetic stress (kbar)  24774.81     -0.00      0.00
                               -0.00  24774.81      0.00
                                0.00      0.00  24774.81

     local   stress (kbar) -24811.19      0.00      0.00
                                0.00 -24811.19      0.00
                                0.00      0.00 -24811.19

     nonloc. stress (kbar)   9380.99     -0.00      0.00
                               -0.00   9380.99      0.00
                               -0.00      0.00   9380.99

     hartree stress (kbar)  11849.88      0.00      0.00
                                0.00  11849.88     -0.00
                                0.00     -0.00  11849.88

     exc-cor stress (kbar)   3300.36      0.00     -0.00
                                0.00   3300.36     -0.00
                               -0.00     -0.00   3300.36

     corecor stress (kbar)  -7226.69      0.00      0.00
                                0.00  -7226.69      0.00
                                0.00      0.00  -7226.69

     ewald   stress (kbar) -17267.65      0.00     -0.00
                                0.00 -17267.65     -0.00
                               -0.00     -0.00 -17267.65

     hubbard stress (kbar)      0.00      0.00      0.00
                                0.00      0.00      0.00
                                0.00      0.00      0.00

     DFT-D   stress (kbar)      0.00      0.00      0.00
                                0.00      0.00      0.00
                                0.00      0.00      0.00

     XDM     stress (kbar)      0.00      0.00      0.00
                                0.00      0.00      0.00
                                0.00      0.00      0.00

     dft-nl  stress (kbar)      0.00      0.00      0.00
                                0.00      0.00      0.00
                                0.00      0.00      0.00

     TS-vdW  stress (kbar)      0.00      0.00      0.00
                                0.00      0.00      0.00
                                0.00      0.00      0.00

     MDB     stress (kbar)      0.00      0.00      0.00
                                0.00      0.00      0.00
                                0.00      0.00      0.00

     3D-RISM stress (kbar)      0.00      0.00      0.00
                                0.00      0.00      0.00
                                0.00      0.00      0.00

     Energy error            =      1.5E-04 Ry
     Gradient error          =      3.6E-31 Ry/Bohr
     Cell gradient error     =      5.1E-01 kbar

     number of scf cycles    =   5
     number of bfgs steps    =   4

     enthalpy           old  =    -346.2112659266 Ry
     enthalpy           new  =    -346.2114187977 Ry

     CASE: enthalpy          _new < enthalpy          _old

     new trust radius        =       0.0021169031 bohr
     new conv_thr            =            1.0E-12 Ry

     new unit-cell volume =    496.14664 a.u.^3 (    73.52135 Ang^3 )
     density =      7.41248 g/cm^3

CELL_PARAMETERS (angstrom)
   0.000000000   3.325021725   3.325021725
   3.325021725  -0.000000000   3.325021725
   3.325021725   3.325021725   0.000000000

ATOMIC_POSITIONS (crystal)
Hg               0.0000000000       -0.0000000000        0.0000000000
Te               0.2500000000        0.2500000000        0.2500000000



     Writing config-only to output data dir /home/User/opencode_workspace/DFT/calculations/hgte/relax_nosoc/out/pwscf.save/ :
     XML data file
     NEW-OLD atomic charge density approx. for the potential
     New effective cutoffs (rho, wfc):  677.96  112.99

     total cpu time spent up to now is      166.0 secs

     per-process dynamical memory:    59.5 Mb

     Self-consistent Calculation

     iteration #  1     ecut=   120.00 Ry     beta= 0.30
     Davidson diagonalization with overlap

---- Real-time Memory Report at c_bands before calling an iterative solver
           175 MiB given to the printing process from OS
            58 MiB allocation reported by mallinfo(arena+hblkhd)
          9131 MiB available memory on the node where the printing process lives
------------------
     ethr =  1.00E-06,  avg # of iterations =  2.0

     Threshold (ethr) on eigenvalues was too large:
     Diagonalizing with lowered threshold

     Davidson diagonalization with overlap

---- Real-time Memory Report at c_bands before calling an iterative solver
           175 MiB given to the printing process from OS
            58 MiB allocation reported by mallinfo(arena+hblkhd)
          9132 MiB available memory on the node where the printing process lives
------------------
     ethr =  7.34E-10,  avg # of iterations =  5.7

     total cpu time spent up to now is      171.2 secs

     total energy              =    -346.21142006 Ry
     estimated scf accuracy    <          9.0E-09 Ry

     iteration #  2     ecut=   120.00 Ry     beta= 0.30
     Davidson diagonalization with overlap

---- Real-time Memory Report at c_bands before calling an iterative solver
           175 MiB given to the printing process from OS
            63 MiB allocation reported by mallinfo(arena+hblkhd)
          9109 MiB available memory on the node where the printing process lives
------------------
     ethr =  3.47E-11,  avg # of iterations =  3.1

     total cpu time spent up to now is      173.4 secs

     total energy              =    -346.21142006 Ry
     estimated scf accuracy    <          4.1E-09 Ry

     iteration #  3     ecut=   120.00 Ry     beta= 0.30
     Davidson diagonalization with overlap

---- Real-time Memory Report at c_bands before calling an iterative solver
           175 MiB given to the printing process from OS
            64 MiB allocation reported by mallinfo(arena+hblkhd)
          9096 MiB available memory on the node where the printing process lives
------------------
     ethr =  1.57E-11,  avg # of iterations =  2.1

     total cpu time spent up to now is      175.3 secs

     total energy              =    -346.21142006 Ry
     estimated scf accuracy    <          2.4E-10 Ry

     iteration #  4     ecut=   120.00 Ry     beta= 0.30
     Davidson diagonalization with overlap

---- Real-time Memory Report at c_bands before calling an iterative solver
           175 MiB given to the printing process from OS
            64 MiB allocation reported by mallinfo(arena+hblkhd)
          9110 MiB available memory on the node where the printing process lives
------------------
     ethr =  9.09E-13,  avg # of iterations =  4.2

     total cpu time spent up to now is      177.6 secs

     total energy              =    -346.21142006 Ry
     estimated scf accuracy    <          6.8E-11 Ry

     iteration #  5     ecut=   120.00 Ry     beta= 0.30
     Davidson diagonalization with overlap

---- Real-time Memory Report at c_bands before calling an iterative solver
           175 MiB given to the printing process from OS
            64 MiB allocation reported by mallinfo(arena+hblkhd)
          9081 MiB available memory on the node where the printing process lives
------------------
     ethr =  2.60E-13,  avg # of iterations =  3.3

     total cpu time spent up to now is      180.0 secs

     total energy              =    -346.21142006 Ry
     estimated scf accuracy    <          2.1E-11 Ry

     iteration #  6     ecut=   120.00 Ry     beta= 0.30
     Davidson diagonalization with overlap

---- Real-time Memory Report at c_bands before calling an iterative solver
           175 MiB given to the printing process from OS
            65 MiB allocation reported by mallinfo(arena+hblkhd)
          9102 MiB available memory on the node where the printing process lives
------------------
     ethr =  1.00E-13,  avg # of iterations =  3.4

     total cpu time spent up to now is      182.5 secs

     total energy              =    -346.21142006 Ry
     estimated scf accuracy    <          4.0E-11 Ry

     iteration #  7     ecut=   120.00 Ry     beta= 0.30
     Davidson diagonalization with overlap

---- Real-time Memory Report at c_bands before calling an iterative solver
           175 MiB given to the printing process from OS
            65 MiB allocation reported by mallinfo(arena+hblkhd)
          9088 MiB available memory on the node where the printing process lives
------------------
     ethr =  1.00E-13,  avg # of iterations =  2.1

     total cpu time spent up to now is      185.1 secs

     End of self-consistent calculation

          k = 0.0000 0.0000 0.0000 ( 10081 PWs)   bands (ev):

  -108.5856 -56.9167 -56.9167 -56.9167  -5.2390  -0.7038  -0.7038  -0.7038
    -0.2709  -0.2709   5.2546   6.1772   6.1772

     occupation numbers 
     1.0000   1.0000   1.0000   1.0000   1.0000   1.0000   1.0000   1.0000
     1.0000   1.0000   1.0000   1.0000   1.0000

          k = 0.0686 0.0686-0.0686 (  9991 PWs)   bands (ev):

  -108.5856 -56.9167 -56.9167 -56.9167  -5.1972  -0.6922  -0.6922  -0.6852
    -0.2719  -0.2719   4.5850   6.0823   6.0823

     occupation numbers 
     1.0000   1.0000   1.0000   1.0000   1.0000   1.0000   1.0000   1.0000
     1.0000   1.0000   1.0000   1.0000   1.0000

          k = 0.1372 0.1372-0.1372 ( 10033 PWs)   bands (ev):

  -108.5856 -56.9167 -56.9167 -56.9167  -5.0845  -0.6632  -0.6632  -0.6152
    -0.2722  -0.2722   3.5341   5.8547   5.8547

     occupation numbers 
     1.0000   1.0000   1.0000   1.0000   1.0000   1.0000   1.0000   1.0000
     1.0000   1.0000   1.0000   1.0000   1.0000

          k = 0.2058 0.2058-0.2058 ( 10056 PWs)   bands (ev):

  -108.5856 -56.9168 -56.9167 -56.9167  -4.9386  -0.6311  -0.6311  -0.4603
    -0.2673  -0.2673   2.4961   5.6036   5.6036

     occupation numbers 
     1.0000   1.0000   1.0000   1.0000   1.0000   1.0000   1.0000   1.0000
     1.0000   1.0000   1.0000   1.0000   1.0000

          k = 0.2745 0.2745-0.2745 ( 10047 PWs)   bands (ev):

  -108.5856 -56.9168 -56.9167 -56.9167  -4.8147  -0.6091  -0.6091  -0.2577
    -0.2577  -0.2058   1.6321   5.4178   5.4178

     occupation numbers 
     1.0000   1.0000   1.0000   1.0000   1.0000   1.0000   1.0000   1.0000
     1.0000   1.0000   1.0000   1.0000   1.0000

          k =-0.3431-0.3431 0.3431 ( 10002 PWs)   bands (ev):

  -108.5856 -56.9168 -56.9167 -56.9167  -4.7660  -0.6019  -0.6019  -0.2525
    -0.2525  -0.0175   1.2261   5.3499   5.3499

     occupation numbers 
     1.0000   1.0000   1.0000   1.0000   1.0000   1.0000   1.0000   1.0000
     1.0000   1.0000   1.0000   1.0000   1.0000

          k = 0.1372 0.0000 0.0000 ( 10005 PWs)   bands (ev):

  -108.5856 -56.9167 -56.9167 -56.9167  -5.1832  -0.6933  -0.6812  -0.6812
    -0.2787  -0.2658   4.4919   5.9248   5.9248

     occupation numbers 
     1.0000   1.0000   1.0000   1.0000   1.0000   1.0000   1.0000   1.0000
     1.0000   1.0000   1.0000   1.0000   1.0000

          k = 0.2058 0.0686-0.0686 ( 10030 PWs)   bands (ev):

  -108.5856 -56.9167 -56.9167 -56.9167  -5.0939  -0.6713  -0.6515  -0.6345
    -0.2842  -0.2614   3.7262   5.6627   5.6878

     occupation numbers 
     1.0000   1.0000   1.0000   1.0000   1.0000   1.0000   1.0000   1.0000
     1.0000   1.0000   1.0000   1.0000   1.0000

          k = 0.2745 0.1372-0.1372 ( 10040 PWs)   bands (ev):

  -108.5856 -56.9168 -56.9167 -56.9167  -4.9584  -0.6389  -0.6173  -0.5165
    -0.2797  -0.2560   2.7703   5.3820   5.4105

     occupation numbers 
     1.0000   1.0000   1.0000   1.0000   1.0000   1.0000   1.0000   1.0000
     1.0000   1.0000   1.0000   1.0000   1.0000

          k = 0.3431 0.2058-0.2058 ( 10057 PWs)   bands (ev):

  -108.5856 -56.9168 -56.9167 -56.9167  -4.8260  -0.6112  -0.5932  -0.3313
    -0.2502  -0.2304   1.8830   5.0869   5.2505

     occupation numbers 
     1.0000   1.0000   1.0000   1.0000   1.0000   1.0000   1.0000   1.0000
     1.0000   1.0000   1.0000   1.0000   1.0000

          k =-0.2745-0.4117 0.4117 ( 10068 PWs)   bands (ev):

  -108.5856 -56.9168 -56.9167 -56.9167  -4.7512  -0.5961  -0.5852  -0.2719
    -0.2510  -0.0270   1.3023   4.8877   5.2261

     occupation numbers 
     1.0000   1.0000   1.0000   1.0000   1.0000   1.0000   1.0000   1.0000
     1.0000   1.0000   1.0000   1.0000   1.0000

          k =-0.2058-0.3431 0.3431 ( 10065 PWs)   bands (ev):

  -108.5856 -56.9168 -56.9167 -56.9167  -4.7675  -0.5942  -0.5930  -0.2647
    -0.2624  -0.0927   1.4401   4.8323   5.3436

     occupation numbers 
     1.0000   1.0000   1.0000   1.0000   1.0000   1.0000   1.0000   1.0000
     1.0000   1.0000   1.0000   1.0000   1.0000

          k =-0.1372-0.2745 0.2745 ( 10056 PWs)   bands (ev):

  -108.5856 -56.9168 -56.9167 -56.9167  -4.8674  -0.6158  -0.6060  -0.3802
    -0.2766  -0.2429   2.1598   4.9434   5.5715

     occupation numbers 
     1.0000   1.0000   1.0000   1.0000   1.0000   1.0000   1.0000   1.0000
     1.0000   1.0000   1.0000   1.0000   1.0000

          k =-0.0686-0.2058 0.2058 ( 10042 PWs)   bands (ev):

  -108.5856 -56.9167 -56.9167 -56.9167  -5.0072  -0.6490  -0.6324  -0.5608
    -0.2827  -0.2587   3.0801   5.2238   5.8405

     occupation numbers 
     1.0000   1.0000   1.0000   1.0000   1.0000   1.0000   1.0000   1.0000
     1.0000   1.0000   1.0000   1.0000   1.0000

          k = 0.0000-0.1372 0.1372 ( 10043 PWs)   bands (ev):

  -108.5856 -56.9167 -56.9167 -56.9167  -5.1316  -0.6793  -0.6663  -0.6536
    -0.2791  -0.2661   3.9789   5.6539   6.0464

     occupation numbers 
     1.0000   1.0000   1.0000   1.0000   1.0000   1.0000   1.0000   1.0000
     1.0000   1.0000   1.0000   1.0000   1.0000

          k = 0.2745 0.0000 0.0000 ( 10057 PWs)   bands (ev):

  -108.5856 -56.9167 -56.9167 -56.9167  -5.0323  -0.6518  -0.6188  -0.6188
    -0.2923  -0.2525   3.4448   5.3700   5.3700

     occupation numbers 
     1.0000   1.0000   1.0000   1.0000   1.0000   1.0000   1.0000   1.0000
     1.0000   1.0000   1.0000   1.0000   1.0000

          k = 0.3431 0.0686-0.0686 ( 10061 PWs)   bands (ev):

  -108.5856 -56.9168 -56.9167 -56.9167  -4.9198  -0.6192  -0.5798  -0.5445
    -0.2835  -0.2452   2.7909   5.0235   5.0995

     occupation numbers 
     1.0000   1.0000   1.0000   1.0000   1.0000   1.0000   1.0000   1.0000
     1.0000   1.0000   1.0000   1.0000   1.0000

          k = 0.4117 0.1372-0.1372 ( 10068 PWs)   bands (ev):

  -108.5856 -56.9168 -56.9167 -56.9167  -4.7966  -0.5919  -0.5510  -0.4156
    -0.2410  -0.2145   2.0447   4.6151   4.9371

     occupation numbers 
     1.0000   1.0000   1.0000   1.0000   1.0000   1.0000   1.0000   1.0000
     1.0000   1.0000   1.0000   1.0000   1.0000

          k =-0.2058-0.4803 0.4803 ( 10061 PWs)   bands (ev):

  -108.5856 -56.9168 -56.9167 -56.9167  -4.7117  -0.5763  -0.5410  -0.3267
    -0.2458  -0.0283   1.4430   4.2771   4.9268

     occupation numbers 
     1.0000   1.0000   1.0000   1.0000   1.0000   1.0000   1.0000   1.0000
     1.0000   1.0000   1.0000   1.0000   1.0000

          k =-0.1372-0.4117 0.4117 ( 10066 PWs)   bands (ev):

  -108.5856 -56.9168 -56.9167 -56.9167  -4.7014  -0.5716  -0.5504  -0.2882
    -0.2619   0.0202   1.3387   4.1057   5.0720

     occupation numbers 
     1.0000   1.0000   1.0000   1.0000   1.0000   1.0000   1.0000   1.0000
     1.0000   1.0000   1.0000   1.0000   1.0000

          k =-0.0686-0.3431 0.3431 ( 10066 PWs)   bands (ev):

  -108.5856 -56.9168 -56.9167 -56.9167  -4.7701  -0.5773  -0.5770  -0.3073
    -0.2796  -0.1684   1.8200   4.1716   5.3334

     occupation numbers 
     1.0000   1.0000   1.0000   1.0000   1.0000   1.0000   1.0000   1.0000
     1.0000   1.0000   1.0000   1.0000   1.0000

          k = 0.0000-0.2745 0.2745 ( 10071 PWs)   bands (ev):

  -108.5856 -56.9168 -56.9167 -56.9167  -4.8879  -0.6153  -0.5971  -0.4497
    -0.2871  -0.2393   2.4814   4.5450   5.6293

     occupation numbers 
     1.0000   1.0000   1.0000   1.0000   1.0000   1.0000   1.0000   1.0000
     1.0000   1.0000   1.0000   1.0000   1.0000

          k = 0.4117 0.0000 0.0000 ( 10077 PWs)   bands (ev):

  -108.5856 -56.9168 -56.9167 -56.9167  -4.8356  -0.5755  -0.5341  -0.5341
    -0.2642  -0.2359   2.4501   4.8031   4.8031

     occupation numbers 
     1.0000   1.0000   1.0000   1.0000   1.0000   1.0000   1.0000   1.0000
     1.0000   1.0000   1.0000   1.0000   1.0000

          k = 0.4803 0.0686-0.0686 ( 10075 PWs)   bands (ev):

  -108.5856 -56.9168 -56.9167 -56.9167  -4.7364  -0.5525  -0.4989  -0.4645
    -0.2308  -0.1776   1.9329   4.4549   4.6170

     occupation numbers 
     1.0000   1.0000   1.0000   1.0000   1.0000   1.0000   1.0000   1.0000
     1.0000   1.0000   1.0000   1.0000   1.0000

          k =-0.1372-0.5489 0.5489 ( 10067 PWs)   bands (ev):

  -108.5856 -56.9168 -56.9167 -56.9167  -4.6610  -0.5444  -0.4860  -0.3903
    -0.2361   0.0027   1.4545   4.0219   4.5932

     occupation numbers 
     1.0000   1.0000   1.0000   1.0000   1.0000   1.0000   1.0000   1.0000
     1.0000   1.0000   1.0000   1.0000   1.0000

          k =-0.0686-0.4803 0.4803 ( 10068 PWs)   bands (ev):

  -108.5856 -56.9168 -56.9167 -56.9167  -4.6405  -0.5467  -0.4977  -0.3300
    -0.2534   0.1202   1.2528   3.7237   4.7386

     occupation numbers 
     1.0000   1.0000   1.0000   1.0000   1.0000   1.0000   1.0000   1.0000
     1.0000   1.0000   1.0000   1.0000   1.0000

          k =-0.0000-0.4117 0.4117 ( 10073 PWs)   bands (ev):

  -108.5856 -56.9168 -56.9167 -56.9167  -4.6828  -0.5568  -0.5317  -0.2960
    -0.2716  -0.0019   1.4685   3.7370   5.0137

     occupation numbers 
     1.0000   1.0000   1.0000   1.0000   1.0000   1.0000   1.0000   1.0000
     1.0000   1.0000   1.0000   1.0000   1.0000

          k = 0.5489 0.0000 0.0000 ( 10082 PWs)   bands (ev):

  -108.5856 -56.9168 -56.9167 -56.9167  -4.6678  -0.5283  -0.4581  -0.4581
    -0.2225  -0.0885   1.6087   4.3982   4.3982

     occupation numbers 
     1.0000   1.0000   1.0000   1.0000   1.0000   1.0000   1.0000   1.0000
     1.0000   1.0000   1.0000   1.0000   1.0000

          k =-0.0686-0.6175 0.6175 ( 10066 PWs)   bands (ev):

  -108.5856 -56.9168 -56.9167 -56.9167  -4.6183  -0.5228  -0.4427  -0.4246
    -0.2237   0.0598   1.2971   4.1333   4.3436

     occupation numbers 
     1.0000   1.0000   1.0000   1.0000   1.0000   1.0000   1.0000   1.0000
     1.0000   1.0000   1.0000   1.0000   1.0000

          k = 0.0000-0.5489 0.5489 ( 10057 PWs)   bands (ev):

  -108.5856 -56.9168 -56.9167 -56.9167  -4.6081  -0.5276  -0.4569  -0.3816
    -0.2374   0.1604   1.1768   3.7984   4.4685

     occupation numbers 
     1.0000   1.0000   1.0000   1.0000   1.0000   1.0000   1.0000   1.0000
     1.0000   1.0000   1.0000   1.0000   1.0000

          k =-0.6862 0.0000 0.0000 ( 10086 PWs)   bands (ev):

  -108.5856 -56.9168 -56.9167 -56.9167  -4.6016  -0.5223  -0.4269  -0.4269
    -0.2173   0.0954   1.1955   4.2519   4.2519

     occupation numbers 
     1.0000   1.0000   1.0000   1.0000   1.0000   1.0000   1.0000   1.0000
     1.0000   1.0000   1.0000   1.0000   1.0000

          k = 0.2745 0.1372 0.0000 ( 10051 PWs)   bands (ev):

  -108.5856 -56.9167 -56.9167 -56.9167  -4.9928  -0.6447  -0.6150  -0.5721
    -0.2875  -0.2531   3.1140   5.0899   5.5844

     occupation numbers 
     1.0000   1.0000   1.0000   1.0000   1.0000   1.0000   1.0000   1.0000
     1.0000   1.0000   1.0000   1.0000   1.0000

          k = 0.3431 0.2058-0.0686 ( 10065 PWs)   bands (ev):

  -108.5856 -56.9168 -56.9167 -56.9167  -4.8628  -0.6103  -0.5839  -0.4390
    -0.2729  -0.2385   2.3462   4.6470   5.3550

     occupation numbers 
     1.0000   1.0000   1.0000   1.0000   1.0000   1.0000   1.0000   1.0000
     1.0000   1.0000   1.0000   1.0000   1.0000

          k =-0.2745-0.4117 0.5489 ( 10076 PWs)   bands (ev):

  -108.5856 -56.9168 -56.9167 -56.9167  -4.7535  -0.5851  -0.5658  -0.3162
    -0.2541  -0.1214   1.6314   4.4055   5.1330

     occupation numbers 
     1.0000   1.0000   1.0000   1.0000   1.0000   1.0000   1.0000   1.0000
     1.0000   1.0000   1.0000   1.0000   1.0000

          k =-0.2058-0.3431 0.4803 ( 10064 PWs)   bands (ev):

  -108.5856 -56.9168 -56.9167 -56.9167  -4.7108  -0.5773  -0.5595  -0.2852
    -0.2581   0.0284   1.2876   4.3328   5.0427

     occupation numbers 
     1.0000   1.0000   1.0000   1.0000   1.0000   1.0000   1.0000   1.0000
     1.0000   1.0000   1.0000   1.0000   1.0000

          k = 0.4117 0.1372-0.0000 ( 10079 PWs)   bands (ev):

  -108.5856 -56.9168 -56.9167 -56.9167  -4.8133  -0.5838  -0.5446  -0.4699
    -0.2496  -0.2309   2.2633   4.5518   4.9269

     occupation numbers 
     1.0000   1.0000   1.0000   1.0000   1.0000   1.0000   1.0000   1.0000
     1.0000   1.0000   1.0000   1.0000   1.0000

          k =-0.2058-0.4803 0.6175 ( 10082 PWs)   bands (ev):

  -108.5856 -56.9168 -56.9167 -56.9167  -4.7133  -0.5575  -0.5240  -0.3819
    -0.2430  -0.1013   1.6985   4.1645   4.7342

     occupation numbers 
     1.0000   1.0000   1.0000   1.0000   1.0000   1.0000   1.0000   1.0000
     1.0000   1.0000   1.0000   1.0000   1.0000

          k =-0.1372-0.4117 0.5489 ( 10061 PWs)   bands (ev):

  -108.5856 -56.9168 -56.9167 -56.9167  -4.6603  -0.5497  -0.5169  -0.3224
    -0.2575   0.0758   1.3113   3.9111   4.6913

     occupation numbers 
     1.0000   1.0000   1.0000   1.0000   1.0000   1.0000   1.0000   1.0000
     1.0000   1.0000   1.0000   1.0000   1.0000

          k =-0.0686-0.3431 0.4803 ( 10072 PWs)   bands (ev):

  -108.5856 -56.9168 -56.9167 -56.9167  -4.6766  -0.5510  -0.5319  -0.3055
    -0.2673   0.0238   1.4109   3.8510   4.8421

     occupation numbers 
     1.0000   1.0000   1.0000   1.0000   1.0000   1.0000   1.0000   1.0000
     1.0000   1.0000   1.0000   1.0000   1.0000

          k = 0.0000-0.2745 0.4117 ( 10056 PWs)   bands (ev):

  -108.5856 -56.9168 -56.9167 -56.9167  -4.7549  -0.5693  -0.5587  -0.3493
    -0.2620  -0.1595   1.8608   4.0819   5.1105

     occupation numbers 
     1.0000   1.0000   1.0000   1.0000   1.0000   1.0000   1.0000   1.0000
     1.0000   1.0000   1.0000   1.0000   1.0000

          k =-0.1372-0.5489 0.6862 ( 10086 PWs)   bands (ev):

  -108.5856 -56.9168 -56.9167 -56.9167  -4.6614  -0.5296  -0.4804  -0.4195
    -0.2309  -0.0395   1.5375   4.2066   4.4004

     occupation numbers 
     1.0000   1.0000   1.0000   1.0000   1.0000   1.0000   1.0000   1.0000
     1.0000   1.0000   1.0000   1.0000   1.0000

          k =-0.0686-0.4803 0.6175 ( 10068 PWs)   bands (ev):

  -108.5856 -56.9168 -56.9167 -56.9167  -4.6184  -0.5238  -0.4754  -0.3702
    -0.2449   0.1289   1.2436   3.8849   4.3505

     occupation numbers 
     1.0000   1.0000   1.0000   1.0000   1.0000   1.0000   1.0000   1.0000
     1.0000   1.0000   1.0000   1.0000   1.0000

          k = 0.0000-0.4117 0.5489 ( 10068 PWs)   bands (ev):

  -108.5856 -56.9168 -56.9168 -56.9167  -4.6245  -0.5327  -0.4928  -0.3225
    -0.2663   0.1545   1.2226   3.6862   4.5339

     occupation numbers 
     1.0000   1.0000   1.0000   1.0000   1.0000   1.0000   1.0000   1.0000
     1.0000   1.0000   1.0000   1.0000   1.0000

          k =-0.6862 0.1372 0.0000 ( 10052 PWs)   bands (ev):

  -108.5856 -56.9168 -56.9167 -56.9167  -4.6018  -0.5169  -0.4495  -0.4021
    -0.2294   0.1393   1.1796   4.1378   4.1524

     occupation numbers 
     1.0000   1.0000   1.0000   1.0000   1.0000   1.0000   1.0000   1.0000
     1.0000   1.0000   1.0000   1.0000   1.0000

          k =-0.1372-0.4117 0.6862 ( 10070 PWs)   bands (ev):

  -108.5856 -56.9168 -56.9167 -56.9167  -4.6449  -0.5236  -0.5121  -0.3413
    -0.2592   0.0666   1.3701   3.8662   4.4499

     occupation numbers 
     1.0000   1.0000   1.0000   1.0000   1.0000   1.0000   1.0000   1.0000
     1.0000   1.0000   1.0000   1.0000   1.0000

          k =-0.0686-0.3431 0.6175 ( 10072 PWs)   bands (ev):

  -108.5856 -56.9168 -56.9168 -56.9167  -4.6185  -0.5206  -0.4971  -0.3113
    -0.2821   0.1711   1.2068   3.7862   4.3057

     occupation numbers 
     1.0000   1.0000   1.0000   1.0000   1.0000   1.0000   1.0000   1.0000
     1.0000   1.0000   1.0000   1.0000   1.0000

          k =-0.6862 0.2745 0.0000 ( 10082 PWs)   bands (ev):

  -108.5856 -56.9168 -56.9168 -56.9167  -4.6023  -0.5114  -0.4806  -0.3383
    -0.2683   0.2063   1.1525   3.9668   4.0084

     occupation numbers 
     1.0000   1.0000   1.0000   1.0000   1.0000   1.0000   1.0000   1.0000
     1.0000   1.0000   1.0000   1.0000   1.0000

     highest occupied level (ev):     6.1772

!    total energy              =    -346.21142006 Ry
     estimated scf accuracy    <          3.0E-13 Ry

     The total energy is the sum of the following terms:
     one-electron contribution =    -235.97027661 Ry
     hartree contribution      =     119.78498620 Ry
     xc contribution           =     -55.64034120 Ry
     ewald contribution        =    -174.38578846 Ry

     convergence has been achieved in   7 iterations

     Forces acting on atoms (cartesian axes, Ry/au):

     atom    1 type  1   force =    -0.00000000    0.00000000    0.00000000
     atom    2 type  2   force =     0.00000000   -0.00000000   -0.00000000
     The non-local contrib.  to forces
     atom    1 type  1   force =     0.00000000   -0.00000000    0.00000000
     atom    2 type  2   force =    -0.00000000    0.00000000    0.00000000
     The ionic contribution  to forces
     atom    1 type  1   force =    -0.00000000    0.00000000   -0.00000000
     atom    2 type  2   force =    -0.00000000    0.00000000    0.00000000
     The local contribution  to forces
     atom    1 type  1   force =     0.00000000   -0.00000000    0.00000000
     atom    2 type  2   force =    -0.00000000   -0.00000000    0.00000000
     The core correction contribution to forces
     atom    1 type  1   force =     0.00000000    0.00000000    0.00000000
     atom    2 type  2   force =     0.00000000   -0.00000000   -0.00000000
     The Hubbard contrib.    to forces
     atom    1 type  1   force =     0.00000000    0.00000000    0.00000000
     atom    2 type  2   force =     0.00000000    0.00000000    0.00000000
     The SCF correction term to forces
     atom    1 type  1   force =     0.00000000   -0.00000000   -0.00000000
     atom    2 type  2   force =     0.00000000   -0.00000000    0.00000000

     Total force =     0.000000     Total SCF correction =     0.000000


     Computing stress (Cartesian axis) and pressure

          total   stress  (Ry/bohr**3)                   (kbar)     P=        0.01
   0.00000010  -0.00000000   0.00000000            0.01       -0.00        0.00
   0.00000000   0.00000010   0.00000000            0.00        0.01        0.00
   0.00000000   0.00000000   0.00000010            0.00        0.00        0.01

     kinetic stress (kbar)  24738.99     -0.00      0.00
                               -0.00  24738.99      0.00
                                0.00      0.00  24738.99

     local   stress (kbar) -24789.58     -0.00     -0.00
                               -0.00 -24789.58      0.00
                               -0.00      0.00 -24789.58

     nonloc. stress (kbar)   9367.53     -0.00      0.00
                               -0.00   9367.53     -0.00
                                0.00     -0.00   9367.53

     hartree stress (kbar)  11838.56     -0.00     -0.00
                               -0.00  11838.56      0.00
                               -0.00      0.00  11838.56

     exc-cor stress (kbar)   3295.74      0.00     -0.00
                                0.00   3295.74     -0.00
                               -0.00     -0.00   3295.74

     corecor stress (kbar)  -7216.37      0.00      0.00
                                0.00  -7216.37      0.00
                                0.00      0.00  -7216.37

     ewald   stress (kbar) -17234.85     -0.00     -0.00
                               -0.00 -17234.85      0.00
                               -0.00      0.00 -17234.85

     hubbard stress (kbar)      0.00      0.00      0.00
                                0.00      0.00      0.00
                                0.00      0.00      0.00

     DFT-D   stress (kbar)      0.00      0.00      0.00
                                0.00      0.00      0.00
                                0.00      0.00      0.00

     XDM     stress (kbar)      0.00      0.00      0.00
                                0.00      0.00      0.00
                                0.00      0.00      0.00

     dft-nl  stress (kbar)      0.00      0.00      0.00
                                0.00      0.00      0.00
                                0.00      0.00      0.00

     TS-vdW  stress (kbar)      0.00      0.00      0.00
                                0.00      0.00      0.00
                                0.00      0.00      0.00

     MDB     stress (kbar)      0.00      0.00      0.00
                                0.00      0.00      0.00
                                0.00      0.00      0.00

     3D-RISM stress (kbar)      0.00      0.00      0.00
                                0.00      0.00      0.00
                                0.00      0.00      0.00

     Energy error            =      1.3E-06 Ry
     Gradient error          =      1.1E-30 Ry/Bohr
     Cell gradient error     =      1.5E-02 kbar

     bfgs converged in   6 scf cycles and   5 bfgs steps
     (criteria: energy <  1.0E-04 Ry, force <  1.0E-03 Ry/Bohr, cell <  5.0E-01 kbar)

     End of BFGS Geometry Optimization

     Final enthalpy           =    -346.2114200630 Ry

     File /home/User/opencode_workspace/DFT/calculations/hgte/relax_nosoc/out/pwscf.bfgs deleted, as requested
Begin final coordinates
     new unit-cell volume =    496.14664 a.u.^3 (    73.52135 Ang^3 )
     density =      7.41248 g/cm^3

CELL_PARAMETERS (angstrom)
   0.000000000   3.325021725   3.325021725
   3.325021725  -0.000000000   3.325021725
   3.325021725   3.325021725   0.000000000

ATOMIC_POSITIONS (crystal)
Hg               0.0000000000       -0.0000000000        0.0000000000
Te               0.2500000000        0.2500000000        0.2500000000
End final coordinates



     Writing config-only to output data dir /home/User/opencode_workspace/DFT/calculations/hgte/relax_nosoc/out/pwscf.save/ :
     XML data file

     Final scf calculation at the relaxed structure.
     The G-vectors are recalculated for the final unit cell
     Results may differ from those at the preceding step.

     Parallelization info
     --------------------
     sticks:   dense  smooth     PW     G-vecs:    dense   smooth      PW
     Min         650     431    123                26941    14639    2184
     Max         651     432    125                26944    14644    2185
     Sum        3901    2587    745               161653    87843   13107

     Using Slab Decomposition



     bravais-lattice index     =            0
     lattice parameter (alat)  =       8.6227  a.u.
     unit-cell volume          =     496.1466 (a.u.)^3
     number of atoms/cell      =            2
     number of atomic types    =            2
     number of electrons       =        26.00
     number of Kohn-Sham states=           13
     kinetic-energy cutoff     =     120.0000  Ry
     charge density cutoff     =     720.0000  Ry
     scf convergence threshold =      1.0E-12
     mixing beta               =       0.3000
     number of iterations used =            8  plain     mixing
     press convergence thresh. =      5.0E-01
     Exchange-correlation= PBE
                           (   1   4   3   4   0   0   0)

     celldm(1)=   8.622745  celldm(2)=   0.000000  celldm(3)=   0.000000
     celldm(4)=   0.000000  celldm(5)=   0.000000  celldm(6)=   0.000000

     crystal axes: (cart. coord. in units of alat)
               a(1) = (   0.000000   0.728698   0.728698 )  
               a(2) = (   0.728698  -0.000000   0.728698 )  
               a(3) = (   0.728698   0.728698   0.000000 )  

     reciprocal axes: (cart. coord. in units 2 pi/alat)
               b(1) = ( -0.686155  0.686155  0.686155 )  
               b(2) = (  0.686155 -0.686155  0.686155 )  
               b(3) = (  0.686155  0.686155 -0.686155 )  


     PseudoPot. # 1 for Hg read from file:
     /home/User/opencode_workspace/DFT/pseudopotentials/Hg.pbe-spn-rrkjus_psl.1.0.0.UPF
     MD5 check sum: f568566075d917e14d67c96ef6763253
     Pseudo is Ultrasoft + core correction, Zval = 20.0
     Generated using &quot;atomic&quot; code by A. Dal Corso  v.6.3
     Using radial grid of 1279 points,  6 beta functions with: 
                l(1) =   0
                l(2) =   0
                l(3) =   1
                l(4) =   1
                l(5) =   2
                l(6) =   2
     Q(r) pseudized with 0 coefficients 


     PseudoPot. # 2 for Te read from file:
     /home/User/opencode_workspace/DFT/pseudopotentials/Te.pbe-n-rrkjus_psl.1.0.0.UPF
     MD5 check sum: 203a1e86ef55f0cd9de2762a27c58f54
     Pseudo is Ultrasoft + core correction, Zval =  6.0
     Generated using &quot;atomic&quot; code by A. Dal Corso  v.6.3
     Using radial grid of 1245 points,  6 beta functions with: 
                l(1) =   0
                l(2) =   0
                l(3) =   1
                l(4) =   1
                l(5) =   2
                l(6) =   2
     Q(r) pseudized with 0 coefficients 


     atomic species   valence    mass     pseudopotential
     Hg               20.00   200.59200     Hg( 1.00)
     Te                6.00   127.60000     Te( 1.00)

     24 Sym. Ops. (no inversion) found


                                    s                        frac. trans.

      isym =  1     identity                                     

 cryst.   s( 1) = (     1          0          0      )
                  (     0          1          0      )
                  (     0          0          1      )

 cart.    s( 1) = (  1.0000000  0.0000000  0.0000000 )
                  (  0.0000000  1.0000000  0.0000000 )
                  (  0.0000000  0.0000000  1.0000000 )


      isym =  2     180 deg rotation - cart. axis [0,0,1]        

 cryst.   s( 2) = (     0          1         -1      )
                  (     1          0         -1      )
                  (     0          0         -1      )

 cart.    s( 2) = ( -1.0000000  0.0000000  0.0000000 )
                  (  0.0000000 -1.0000000  0.0000000 )
                  (  0.0000000  0.0000000  1.0000000 )


      isym =  3     180 deg rotation - cart. axis [0,1,0]        

 cryst.   s( 3) = (     0         -1          1      )
                  (     0         -1          0      )
                  (     1         -1          0      )

 cart.    s( 3) = ( -1.0000000  0.0000000  0.0000000 )
                  (  0.0000000  1.0000000  0.0000000 )
                  (  0.0000000  0.0000000 -1.0000000 )


      isym =  4     180 deg rotation - cart. axis [1,0,0]        

 cryst.   s( 4) = (    -1          0          0      )
                  (    -1          0          1      )
                  (    -1          1          0      )

 cart.    s( 4) = (  1.0000000  0.0000000  0.0000000 )
                  (  0.0000000 -1.0000000  0.0000000 )
                  (  0.0000000  0.0000000 -1.0000000 )


      isym =  5     120 deg rotation - cart. axis [-1,-1,-1]     

 cryst.   s( 5) = (     0          0          1      )
                  (     1          0          0      )
                  (     0          1          0      )

 cart.    s( 5) = (  0.0000000  1.0000000  0.0000000 )
                  (  0.0000000  0.0000000  1.0000000 )
                  (  1.0000000  0.0000000  0.0000000 )


      isym =  6     120 deg rotation - cart. axis [-1,1,1]       

 cryst.   s( 6) = (     1         -1          0      )
                  (     0         -1          1      )
                  (     0         -1          0      )

 cart.    s( 6) = (  0.0000000 -1.0000000  0.0000000 )
                  (  0.0000000  0.0000000  1.0000000 )
                  ( -1.0000000  0.0000000  0.0000000 )


      isym =  7     120 deg rotation - cart. axis [1,1,-1]       

 cryst.   s( 7) = (    -1          1          0      )
                  (    -1          0          0      )
                  (    -1          0          1      )

 cart.    s( 7) = (  0.0000000  1.0000000  0.0000000 )
                  (  0.0000000  0.0000000 -1.0000000 )
                  ( -1.0000000  0.0000000  0.0000000 )


      isym =  8     120 deg rotation - cart. axis [1,-1,1]       

 cryst.   s( 8) = (     0          0         -1      )
                  (     0          1         -1      )
                  (     1          0         -1      )

 cart.    s( 8) = (  0.0000000 -1.0000000  0.0000000 )
                  (  0.0000000  0.0000000 -1.0000000 )
                  (  1.0000000  0.0000000  0.0000000 )


      isym =  9     120 deg rotation - cart. axis [1,1,1]        

 cryst.   s( 9) = (     0          1          0      )
                  (     0          0          1      )
                  (     1          0          0      )

 cart.    s( 9) = (  0.0000000  0.0000000  1.0000000 )
                  (  1.0000000  0.0000000  0.0000000 )
                  (  0.0000000  1.0000000  0.0000000 )


      isym = 10     120 deg rotation - cart. axis [-1,1,-1]      

 cryst.   s(10) = (    -1          0          1      )
                  (    -1          1          0      )
                  (    -1          0          0      )

 cart.    s(10) = (  0.0000000  0.0000000  1.0000000 )
                  ( -1.0000000  0.0000000  0.0000000 )
                  (  0.0000000 -1.0000000  0.0000000 )


      isym = 11     120 deg rotation - cart. axis [1,-1,-1]      

 cryst.   s(11) = (     1          0         -1      )
                  (     0          0         -1      )
                  (     0          1         -1      )

 cart.    s(11) = (  0.0000000  0.0000000 -1.0000000 )
                  ( -1.0000000  0.0000000  0.0000000 )
                  (  0.0000000  1.0000000  0.0000000 )


      isym = 12     120 deg rotation - cart. axis [-1,-1,1]      

 cryst.   s(12) = (     0         -1          0      )
                  (     1         -1          0      )
                  (     0         -1          1      )

 cart.    s(12) = (  0.0000000  0.0000000 -1.0000000 )
                  (  1.0000000  0.0000000  0.0000000 )
                  (  0.0000000 -1.0000000  0.0000000 )


      isym = 13     inv. 180 deg rotation - cart. axis [1,1,0]   

 cryst.   s(13) = (     1          0         -1      )
                  (     0          1         -1      )
                  (     0          0         -1      )

 cart.    s(13) = (  0.0000000 -1.0000000  0.0000000 )
                  ( -1.0000000  0.0000000  0.0000000 )
                  (  0.0000000  0.0000000  1.0000000 )


      isym = 14     inv. 180 deg rotation - cart. axis [1,-1,0]  

 cryst.   s(14) = (     0          1          0      )
                  (     1          0          0      )
                  (     0          0          1      )

 cart.    s(14) = (  0.0000000  1.0000000  0.0000000 )
                  (  1.0000000  0.0000000  0.0000000 )
                  (  0.0000000  0.0000000  1.0000000 )


      isym = 15     inv.  90 deg rotation - cart. axis [0,0,-1]  

 cryst.   s(15) = (     0         -1          0      )
                  (     0         -1          1      )
                  (     1         -1          0      )

 cart.    s(15) = (  0.0000000 -1.0000000  0.0000000 )
                  (  1.0000000  0.0000000  0.0000000 )
                  (  0.0000000  0.0000000 -1.0000000 )


      isym = 16     inv.  90 deg rotation - cart. axis [0,0,1]   

 cryst.   s(16) = (    -1          0          1      )
                  (    -1          0          0      )
                  (    -1          1          0      )

 cart.    s(16) = (  0.0000000  1.0000000  0.0000000 )
                  ( -1.0000000  0.0000000  0.0000000 )
                  (  0.0000000  0.0000000 -1.0000000 )


      isym = 17     inv. 180 deg rotation - cart. axis [1,0,1]   

 cryst.   s(17) = (     1         -1          0      )
                  (     0         -1          0      )
                  (     0         -1          1      )

 cart.    s(17) = (  0.0000000  0.0000000 -1.0000000 )
                  (  0.0000000  1.0000000  0.0000000 )
                  ( -1.0000000  0.0000000  0.0000000 )


      isym = 18     inv. 180 deg rotation - cart. axis [-1,0,1]  

 cryst.   s(18) = (     0          0          1      )
                  (     0          1          0      )
                  (     1          0          0      )

 cart.    s(18) = (  0.0000000  0.0000000  1.0000000 )
                  (  0.0000000  1.0000000  0.0000000 )
                  (  1.0000000  0.0000000  0.0000000 )


      isym = 19     inv.  90 deg rotation - cart. axis [0,1,0]   

 cryst.   s(19) = (     0          0         -1      )
                  (     1          0         -1      )
                  (     0          1         -1      )

 cart.    s(19) = (  0.0000000  0.0000000 -1.0000000 )
                  (  0.0000000 -1.0000000  0.0000000 )
                  (  1.0000000  0.0000000  0.0000000 )


      isym = 20     inv.  90 deg rotation - cart. axis [0,-1,0]  

 cryst.   s(20) = (    -1          1          0      )
                  (    -1          0          1      )
                  (    -1          0          0      )

 cart.    s(20) = (  0.0000000  0.0000000  1.0000000 )
                  (  0.0000000 -1.0000000  0.0000000 )
                  ( -1.0000000  0.0000000  0.0000000 )


      isym = 21     inv. 180 deg rotation - cart. axis [0,1,1]   

 cryst.   s(21) = (    -1          0          0      )
                  (    -1          1          0      )
                  (    -1          0          1      )

 cart.    s(21) = (  1.0000000  0.0000000  0.0000000 )
                  (  0.0000000  0.0000000 -1.0000000 )
                  (  0.0000000 -1.0000000  0.0000000 )


      isym = 22     inv. 180 deg rotation - cart. axis [0,1,-1]  

 cryst.   s(22) = (     1          0          0      )
                  (     0          0          1      )
                  (     0          1          0      )

 cart.    s(22) = (  1.0000000  0.0000000  0.0000000 )
                  (  0.0000000  0.0000000  1.0000000 )
                  (  0.0000000  1.0000000  0.0000000 )


      isym = 23     inv.  90 deg rotation - cart. axis [-1,0,0]  

 cryst.   s(23) = (     0          1         -1      )
                  (     0          0         -1      )
                  (     1          0         -1      )

 cart.    s(23) = ( -1.0000000  0.0000000  0.0000000 )
                  (  0.0000000  0.0000000 -1.0000000 )
                  (  0.0000000  1.0000000  0.0000000 )


      isym = 24     inv.  90 deg rotation - cart. axis [1,0,0]   

 cryst.   s(24) = (     0         -1          1      )
                  (     1         -1          0      )
                  (     0         -1          0      )

 cart.    s(24) = ( -1.0000000  0.0000000  0.0000000 )
                  (  0.0000000  0.0000000  1.0000000 )
                  (  0.0000000 -1.0000000  0.0000000 )


   Cartesian axes

     site n.     atom                  positions (alat units)
         1        Hg     tau(   1) = (   0.0000000   0.0000000  -0.0000000  )
         2        Te     tau(   2) = (   0.3643492   0.3643492   0.3643492  )

   Crystallographic axes

     site n.     atom                  positions (cryst. coord.)
         1        Hg     tau(   1) = (  0.0000000 -0.0000000  0.0000000  )
         2        Te     tau(   2) = (  0.2500000  0.2500000  0.2500000  )

     number of k points=    47
                       cart. coord. in units 2pi/alat
        k(    1) = (   0.0000000   0.0000000   0.0000000), wk =   0.0020000
        k(    2) = (   0.0686155   0.0686155  -0.0686155), wk =   0.0160000
        k(    3) = (   0.1372310   0.1372310  -0.1372310), wk =   0.0160000
        k(    4) = (   0.2058465   0.2058465  -0.2058465), wk =   0.0160000
        k(    5) = (   0.2744620   0.2744620  -0.2744620), wk =   0.0160000
        k(    6) = (  -0.3430775  -0.3430775   0.3430775), wk =   0.0080000
        k(    7) = (   0.1372310   0.0000000   0.0000000), wk =   0.0120000
        k(    8) = (   0.2058465   0.0686155  -0.0686155), wk =   0.0480000
        k(    9) = (   0.2744620   0.1372310  -0.1372310), wk =   0.0480000
        k(   10) = (   0.3430775   0.2058465  -0.2058465), wk =   0.0480000
        k(   11) = (  -0.2744620  -0.4116930   0.4116930), wk =   0.0480000
        k(   12) = (  -0.2058465  -0.3430775   0.3430775), wk =   0.0480000
        k(   13) = (  -0.1372310  -0.2744620   0.2744620), wk =   0.0480000
        k(   14) = (  -0.0686155  -0.2058465   0.2058465), wk =   0.0480000
        k(   15) = (   0.0000000  -0.1372310   0.1372310), wk =   0.0240000
        k(   16) = (   0.2744620   0.0000000   0.0000000), wk =   0.0120000
        k(   17) = (   0.3430775   0.0686155  -0.0686155), wk =   0.0480000
        k(   18) = (   0.4116930   0.1372310  -0.1372310), wk =   0.0480000
        k(   19) = (  -0.2058465  -0.4803084   0.4803084), wk =   0.0480000
        k(   20) = (  -0.1372310  -0.4116930   0.4116930), wk =   0.0480000
        k(   21) = (  -0.0686155  -0.3430775   0.3430775), wk =   0.0480000
        k(   22) = (   0.0000000  -0.2744620   0.2744620), wk =   0.0240000
        k(   23) = (   0.4116930   0.0000000   0.0000000), wk =   0.0120000
        k(   24) = (   0.4803084   0.0686155  -0.0686155), wk =   0.0480000
        k(   25) = (  -0.1372310  -0.5489239   0.5489239), wk =   0.0480000
        k(   26) = (  -0.0686155  -0.4803084   0.4803084), wk =   0.0480000
        k(   27) = (  -0.0000000  -0.4116930   0.4116930), wk =   0.0240000
        k(   28) = (   0.5489239   0.0000000   0.0000000), wk =   0.0120000
        k(   29) = (  -0.0686155  -0.6175394   0.6175394), wk =   0.0480000
        k(   30) = (   0.0000000  -0.5489239   0.5489239), wk =   0.0240000
        k(   31) = (  -0.6861549   0.0000000   0.0000000), wk =   0.0060000
        k(   32) = (   0.2744620   0.1372310   0.0000000), wk =   0.0480000
        k(   33) = (   0.3430775   0.2058465  -0.0686155), wk =   0.0960000
        k(   34) = (  -0.2744620  -0.4116930   0.5489239), wk =   0.0960000
        k(   35) = (  -0.2058465  -0.3430775   0.4803084), wk =   0.0480000
        k(   36) = (   0.4116930   0.1372310  -0.0000000), wk =   0.0480000
        k(   37) = (  -0.2058465  -0.4803084   0.6175394), wk =   0.0960000
        k(   38) = (  -0.1372310  -0.4116930   0.5489239), wk =   0.0960000
        k(   39) = (  -0.0686155  -0.3430775   0.4803084), wk =   0.0960000
        k(   40) = (   0.0000000  -0.2744620   0.4116930), wk =   0.0480000
        k(   41) = (  -0.1372310  -0.5489239   0.6861549), wk =   0.0480000
        k(   42) = (  -0.0686155  -0.4803084   0.6175394), wk =   0.0960000
        k(   43) = (   0.0000000  -0.4116930   0.5489239), wk =   0.0480000
        k(   44) = (  -0.6861549   0.1372310   0.0000000), wk =   0.0240000
        k(   45) = (  -0.1372310  -0.4116930   0.6861549), wk =   0.0480000
        k(   46) = (  -0.0686155  -0.3430775   0.6175394), wk =   0.0480000
        k(   47) = (  -0.6861549   0.2744620   0.0000000), wk =   0.0240000

                       cryst. coord.
        k(    1) = (   0.0000000   0.0000000   0.0000000), wk =   0.0020000
        k(    2) = (   0.0000000   0.0000000   0.1000000), wk =   0.0160000
        k(    3) = (   0.0000000   0.0000000   0.2000000), wk =   0.0160000
        k(    4) = (   0.0000000   0.0000000   0.3000000), wk =   0.0160000
        k(    5) = (   0.0000000   0.0000000   0.4000000), wk =   0.0160000
        k(    6) = (   0.0000000  -0.0000000  -0.5000000), wk =   0.0080000
        k(    7) = (   0.0000000   0.1000000   0.1000000), wk =   0.0120000
        k(    8) = (   0.0000000   0.1000000   0.2000000), wk =   0.0480000
        k(    9) = (   0.0000000   0.1000000   0.3000000), wk =   0.0480000
        k(   10) = (   0.0000000   0.1000000   0.4000000), wk =   0.0480000
        k(   11) = (   0.0000000   0.1000000  -0.5000000), wk =   0.0480000
        k(   12) = (   0.0000000   0.1000000  -0.4000000), wk =   0.0480000
        k(   13) = (   0.0000000   0.1000000  -0.3000000), wk =   0.0480000
        k(   14) = (   0.0000000   0.1000000  -0.2000000), wk =   0.0480000
        k(   15) = (   0.0000000   0.1000000  -0.1000000), wk =   0.0240000
        k(   16) = (   0.0000000   0.2000000   0.2000000), wk =   0.0120000
        k(   17) = (   0.0000000   0.2000000   0.3000000), wk =   0.0480000
        k(   18) = (   0.0000000   0.2000000   0.4000000), wk =   0.0480000
        k(   19) = (   0.0000000   0.2000000  -0.5000000), wk =   0.0480000
        k(   20) = (   0.0000000   0.2000000  -0.4000000), wk =   0.0480000
        k(   21) = (   0.0000000   0.2000000  -0.3000000), wk =   0.0480000
        k(   22) = (   0.0000000   0.2000000  -0.2000000), wk =   0.0240000
        k(   23) = (   0.0000000   0.3000000   0.3000000), wk =   0.0120000
        k(   24) = (   0.0000000   0.3000000   0.4000000), wk =   0.0480000
        k(   25) = (   0.0000000   0.3000000  -0.5000000), wk =   0.0480000
        k(   26) = (   0.0000000   0.3000000  -0.4000000), wk =   0.0480000
        k(   27) = (   0.0000000   0.3000000  -0.3000000), wk =   0.0240000
        k(   28) = (   0.0000000   0.4000000   0.4000000), wk =   0.0120000
        k(   29) = (   0.0000000   0.4000000  -0.5000000), wk =   0.0480000
        k(   30) = (   0.0000000   0.4000000  -0.4000000), wk =   0.0240000
        k(   31) = (  -0.0000000  -0.5000000  -0.5000000), wk =   0.0060000
        k(   32) = (   0.1000000   0.2000000   0.3000000), wk =   0.0480000
        k(   33) = (   0.1000000   0.2000000   0.4000000), wk =   0.0960000
        k(   34) = (   0.1000000   0.2000000  -0.5000000), wk =   0.0960000
        k(   35) = (   0.1000000   0.2000000  -0.4000000), wk =   0.0480000
        k(   36) = (   0.1000000   0.3000000   0.4000000), wk =   0.0480000
        k(   37) = (   0.1000000   0.3000000  -0.5000000), wk =   0.0960000
        k(   38) = (   0.1000000   0.3000000  -0.4000000), wk =   0.0960000
        k(   39) = (   0.1000000   0.3000000  -0.3000000), wk =   0.0960000
        k(   40) = (   0.1000000   0.3000000  -0.2000000), wk =   0.0480000
        k(   41) = (   0.1000000   0.4000000  -0.5000000), wk =   0.0480000
        k(   42) = (   0.1000000   0.4000000  -0.4000000), wk =   0.0960000
        k(   43) = (   0.1000000   0.4000000  -0.3000000), wk =   0.0480000
        k(   44) = (   0.1000000  -0.5000000  -0.4000000), wk =   0.0240000
        k(   45) = (   0.2000000   0.4000000  -0.4000000), wk =   0.0480000
        k(   46) = (   0.2000000   0.4000000  -0.3000000), wk =   0.0480000
        k(   47) = (   0.2000000  -0.5000000  -0.3000000), wk =   0.0240000

     Dense  grid:   161653 G-vectors     FFT dimensions: (  75,  75,  75)

     Smooth grid:    87843 G-vectors     FFT dimensions: (  64,  64,  64)

     Dynamical RAM for                 wfc:       0.36 MB

     Dynamical RAM for     wfc (w. buffer):      17.47 MB

     Dynamical RAM for           str. fact:       0.82 MB

     Dynamical RAM for           local pot:       0.38 MB

     Dynamical RAM for          nlocal pot:       1.01 MB

     Dynamical RAM for                qrad:      12.92 MB

     Dynamical RAM for          rho,v,vnew:       2.91 MB

     Dynamical RAM for               rhoin:       0.97 MB

     Dynamical RAM for            rho*nmix:       6.58 MB

     Dynamical RAM for           G-vectors:       1.65 MB

     Dynamical RAM for          h,s,v(r/c):       0.03 MB

     Dynamical RAM for          <psi|beta>:       0.01 MB

     Dynamical RAM for                 psi:       0.73 MB

     Dynamical RAM for                hpsi:       0.73 MB

     Dynamical RAM for                spsi:       0.73 MB

     Dynamical RAM for      wfcinit/wfcrot:       0.79 MB

     Dynamical RAM for           addusdens:      76.87 MB

     Dynamical RAM for          addusforce:      77.08 MB

     Dynamical RAM for         addusstress:      82.63 MB

     Estimated static dynamical RAM per process >      42.15 MB

     Estimated max dynamical RAM per process >     131.35 MB

     Estimated total dynamical RAM >     788.11 MB

     Initial potential from superposition of free atoms

     starting charge      25.9997, renormalised to      26.0000
     Starting wfcs are   14 randomized atomic wfcs

     total cpu time spent up to now is      188.6 secs

     per-process dynamical memory:    56.5 Mb

     Self-consistent Calculation

     iteration #  1     ecut=   120.00 Ry     beta= 0.30
     Davidson diagonalization with overlap

---- Real-time Memory Report at c_bands before calling an iterative solver
           175 MiB given to the printing process from OS
            55 MiB allocation reported by mallinfo(arena+hblkhd)
          9161 MiB available memory on the node where the printing process lives
------------------
     ethr =  1.00E-06,  avg # of iterations = 11.4

     total cpu time spent up to now is      194.8 secs

     total energy              =    -346.20562574 Ry
     estimated scf accuracy    <       0.05049262 Ry

     iteration #  2     ecut=   120.00 Ry     beta= 0.30
     Davidson diagonalization with overlap

---- Real-time Memory Report at c_bands before calling an iterative solver
           182 MiB given to the printing process from OS
            66 MiB allocation reported by mallinfo(arena+hblkhd)
          9033 MiB available memory on the node where the printing process lives
------------------
     ethr =  1.94E-04,  avg # of iterations =  2.0

     total cpu time spent up to now is      198.0 secs

     total energy              =    -346.21056604 Ry
     estimated scf accuracy    <       0.00577682 Ry

     iteration #  3     ecut=   120.00 Ry     beta= 0.30
     Davidson diagonalization with overlap

---- Real-time Memory Report at c_bands before calling an iterative solver
           182 MiB given to the printing process from OS
            66 MiB allocation reported by mallinfo(arena+hblkhd)
          9029 MiB available memory on the node where the printing process lives
------------------
     ethr =  2.22E-05,  avg # of iterations =  3.1

     total cpu time spent up to now is      200.3 secs

     total energy              =    -346.21133770 Ry
     estimated scf accuracy    <       0.00134660 Ry

     iteration #  4     ecut=   120.00 Ry     beta= 0.30
     Davidson diagonalization with overlap

---- Real-time Memory Report at c_bands before calling an iterative solver
           182 MiB given to the printing process from OS
            67 MiB allocation reported by mallinfo(arena+hblkhd)
          9030 MiB available memory on the node where the printing process lives
------------------
     ethr =  5.18E-06,  avg # of iterations =  1.8

     total cpu time spent up to now is      202.4 secs

     total energy              =    -346.21143727 Ry
     estimated scf accuracy    <       0.00012211 Ry

     iteration #  5     ecut=   120.00 Ry     beta= 0.30
     Davidson diagonalization with overlap

---- Real-time Memory Report at c_bands before calling an iterative solver
           183 MiB given to the printing process from OS
            67 MiB allocation reported by mallinfo(arena+hblkhd)
          9046 MiB available memory on the node where the printing process lives
------------------
     ethr =  4.70E-07,  avg # of iterations =  2.7

     total cpu time spent up to now is      204.6 secs

     total energy              =    -346.21144891 Ry
     estimated scf accuracy    <       0.00001162 Ry

     iteration #  6     ecut=   120.00 Ry     beta= 0.30
     Davidson diagonalization with overlap

---- Real-time Memory Report at c_bands before calling an iterative solver
           183 MiB given to the printing process from OS
            68 MiB allocation reported by mallinfo(arena+hblkhd)
          9037 MiB available memory on the node where the printing process lives
------------------
     ethr =  4.47E-08,  avg # of iterations =  3.7

     total cpu time spent up to now is      207.2 secs

     total energy              =    -346.21145291 Ry
     estimated scf accuracy    <       0.00000376 Ry

     iteration #  7     ecut=   120.00 Ry     beta= 0.30
     Davidson diagonalization with overlap

---- Real-time Memory Report at c_bands before calling an iterative solver
           184 MiB given to the printing process from OS
            68 MiB allocation reported by mallinfo(arena+hblkhd)
          9113 MiB available memory on the node where the printing process lives
------------------
     ethr =  1.45E-08,  avg # of iterations =  2.1

     total cpu time spent up to now is      209.5 secs

     total energy              =    -346.21145317 Ry
     estimated scf accuracy    <       0.00000057 Ry

     iteration #  8     ecut=   120.00 Ry     beta= 0.30
     Davidson diagonalization with overlap

---- Real-time Memory Report at c_bands before calling an iterative solver
           184 MiB given to the printing process from OS
            69 MiB allocation reported by mallinfo(arena+hblkhd)
          9011 MiB available memory on the node where the printing process lives
------------------
     ethr =  2.19E-09,  avg # of iterations =  3.9

     total cpu time spent up to now is      212.2 secs

     total energy              =    -346.21145339 Ry
     estimated scf accuracy    <       0.00000014 Ry

     iteration #  9     ecut=   120.00 Ry     beta= 0.30
     Davidson diagonalization with overlap

---- Real-time Memory Report at c_bands before calling an iterative solver
           185 MiB given to the printing process from OS
            69 MiB allocation reported by mallinfo(arena+hblkhd)
          9019 MiB available memory on the node where the printing process lives
------------------
     ethr =  5.43E-10,  avg # of iterations =  1.4

     total cpu time spent up to now is      214.2 secs

     total energy              =    -346.21145338 Ry
     estimated scf accuracy    <       0.00000004 Ry

     iteration # 10     ecut=   120.00 Ry     beta= 0.30
     Davidson diagonalization with overlap

---- Real-time Memory Report at c_bands before calling an iterative solver
           185 MiB given to the printing process from OS
            69 MiB allocation reported by mallinfo(arena+hblkhd)
          9065 MiB available memory on the node where the printing process lives
------------------
     ethr =  1.52E-10,  avg # of iterations =  3.7

     total cpu time spent up to now is      216.8 secs

     total energy              =    -346.21145339 Ry
     estimated scf accuracy    <          3.5E-09 Ry

     iteration # 11     ecut=   120.00 Ry     beta= 0.30
     Davidson diagonalization with overlap

---- Real-time Memory Report at c_bands before calling an iterative solver
           185 MiB given to the printing process from OS
            69 MiB allocation reported by mallinfo(arena+hblkhd)
          9016 MiB available memory on the node where the printing process lives
------------------
     ethr =  1.34E-11,  avg # of iterations =  2.9

     total cpu time spent up to now is      219.0 secs

     total energy              =    -346.21145339 Ry
     estimated scf accuracy    <          8.0E-10 Ry

     iteration # 12     ecut=   120.00 Ry     beta= 0.30
     Davidson diagonalization with overlap

---- Real-time Memory Report at c_bands before calling an iterative solver
           185 MiB given to the printing process from OS
            69 MiB allocation reported by mallinfo(arena+hblkhd)
          9014 MiB available memory on the node where the printing process lives
------------------
     ethr =  3.08E-12,  avg # of iterations =  4.3

     total cpu time spent up to now is      221.6 secs

     total energy              =    -346.21145339 Ry
     estimated scf accuracy    <          9.5E-10 Ry

     iteration # 13     ecut=   120.00 Ry     beta= 0.30
     Davidson diagonalization with overlap

---- Real-time Memory Report at c_bands before calling an iterative solver
           185 MiB given to the printing process from OS
            69 MiB allocation reported by mallinfo(arena+hblkhd)
          9028 MiB available memory on the node where the printing process lives
------------------
     ethr =  3.08E-12,  avg # of iterations =  2.0

     total cpu time spent up to now is      223.8 secs

     total energy              =    -346.21145339 Ry
     estimated scf accuracy    <          6.1E-11 Ry

     iteration # 14     ecut=   120.00 Ry     beta= 0.30
     Davidson diagonalization with overlap

---- Real-time Memory Report at c_bands before calling an iterative solver
           185 MiB given to the printing process from OS
            69 MiB allocation reported by mallinfo(arena+hblkhd)
          9030 MiB available memory on the node where the printing process lives
------------------
     ethr =  2.34E-13,  avg # of iterations =  4.3

     total cpu time spent up to now is      226.6 secs

     total energy              =    -346.21145339 Ry
     estimated scf accuracy    <          2.1E-11 Ry

     iteration # 15     ecut=   120.00 Ry     beta= 0.30
     Davidson diagonalization with overlap

---- Real-time Memory Report at c_bands before calling an iterative solver
           185 MiB given to the printing process from OS
            69 MiB allocation reported by mallinfo(arena+hblkhd)
          9031 MiB available memory on the node where the printing process lives
------------------
     ethr =  1.00E-13,  avg # of iterations =  2.3

     total cpu time spent up to now is      228.8 secs

     End of self-consistent calculation

          k = 0.0000 0.0000 0.0000 ( 11017 PWs)   bands (ev):

  -108.5857 -56.9169 -56.9169 -56.9169  -5.2392  -0.7040  -0.7040  -0.7040
    -0.2711  -0.2711   5.2543   6.1770   6.1770

     occupation numbers 
     1.0000   1.0000   1.0000   1.0000   1.0000   1.0000   1.0000   1.0000
     1.0000   1.0000   1.0000   1.0000   1.0000

          k = 0.0686 0.0686-0.0686 ( 11017 PWs)   bands (ev):

  -108.5857 -56.9169 -56.9169 -56.9169  -5.1974  -0.6924  -0.6924  -0.6854
    -0.2720  -0.2720   4.5847   6.0821   6.0821

     occupation numbers 
     1.0000   1.0000   1.0000   1.0000   1.0000   1.0000   1.0000   1.0000
     1.0000   1.0000   1.0000   1.0000   1.0000

          k = 0.1372 0.1372-0.1372 ( 11011 PWs)   bands (ev):

  -108.5857 -56.9169 -56.9169 -56.9169  -5.0847  -0.6634  -0.6634  -0.6154
    -0.2724  -0.2724   3.5338   5.8545   5.8545

     occupation numbers 
     1.0000   1.0000   1.0000   1.0000   1.0000   1.0000   1.0000   1.0000
     1.0000   1.0000   1.0000   1.0000   1.0000

          k = 0.2058 0.2058-0.2058 ( 11029 PWs)   bands (ev):

  -108.5857 -56.9170 -56.9169 -56.9169  -4.9388  -0.6313  -0.6313  -0.4605
    -0.2675  -0.2675   2.4959   5.6034   5.6034

     occupation numbers 
     1.0000   1.0000   1.0000   1.0000   1.0000   1.0000   1.0000   1.0000
     1.0000   1.0000   1.0000   1.0000   1.0000

          k = 0.2745 0.2745-0.2745 ( 11048 PWs)   bands (ev):

  -108.5857 -56.9170 -56.9169 -56.9169  -4.8149  -0.6093  -0.6093  -0.2579
    -0.2579  -0.2060   1.6319   5.4176   5.4176

     occupation numbers 
     1.0000   1.0000   1.0000   1.0000   1.0000   1.0000   1.0000   1.0000
     1.0000   1.0000   1.0000   1.0000   1.0000

          k =-0.3431-0.3431 0.3431 ( 10994 PWs)   bands (ev):

  -108.5857 -56.9170 -56.9169 -56.9169  -4.7661  -0.6021  -0.6021  -0.2527
    -0.2527  -0.0177   1.2258   5.3497   5.3497

     occupation numbers 
     1.0000   1.0000   1.0000   1.0000   1.0000   1.0000   1.0000   1.0000
     1.0000   1.0000   1.0000   1.0000   1.0000

          k = 0.1372 0.0000 0.0000 ( 11022 PWs)   bands (ev):

  -108.5857 -56.9169 -56.9169 -56.9169  -5.1834  -0.6935  -0.6814  -0.6814
    -0.2789  -0.2660   4.4916   5.9246   5.9246

     occupation numbers 
     1.0000   1.0000   1.0000   1.0000   1.0000   1.0000   1.0000   1.0000
     1.0000   1.0000   1.0000   1.0000   1.0000

          k = 0.2058 0.0686-0.0686 ( 11024 PWs)   bands (ev):

  -108.5857 -56.9169 -56.9169 -56.9169  -5.0941  -0.6715  -0.6517  -0.6347
    -0.2844  -0.2616   3.7260   5.6625   5.6876

     occupation numbers 
     1.0000   1.0000   1.0000   1.0000   1.0000   1.0000   1.0000   1.0000
     1.0000   1.0000   1.0000   1.0000   1.0000

          k = 0.2745 0.1372-0.1372 ( 11018 PWs)   bands (ev):

  -108.5857 -56.9169 -56.9169 -56.9169  -4.9586  -0.6391  -0.6175  -0.5167
    -0.2798  -0.2562   2.7700   5.3818   5.4103

     occupation numbers 
     1.0000   1.0000   1.0000   1.0000   1.0000   1.0000   1.0000   1.0000
     1.0000   1.0000   1.0000   1.0000   1.0000

          k = 0.3431 0.2058-0.2058 ( 11008 PWs)   bands (ev):

  -108.5857 -56.9170 -56.9169 -56.9169  -4.8262  -0.6113  -0.5934  -0.3315
    -0.2503  -0.2306   1.8828   5.0866   5.2503

     occupation numbers 
     1.0000   1.0000   1.0000   1.0000   1.0000   1.0000   1.0000   1.0000
     1.0000   1.0000   1.0000   1.0000   1.0000

          k =-0.2745-0.4117 0.4117 ( 11015 PWs)   bands (ev):

  -108.5857 -56.9170 -56.9169 -56.9169  -4.7514  -0.5963  -0.5854  -0.2721
    -0.2511  -0.0272   1.3021   4.8874   5.2259

     occupation numbers 
     1.0000   1.0000   1.0000   1.0000   1.0000   1.0000   1.0000   1.0000
     1.0000   1.0000   1.0000   1.0000   1.0000

          k =-0.2058-0.3431 0.3431 ( 11018 PWs)   bands (ev):

  -108.5857 -56.9170 -56.9169 -56.9169  -4.7677  -0.5944  -0.5932  -0.2649
    -0.2626  -0.0929   1.4399   4.8321   5.3434

     occupation numbers 
     1.0000   1.0000   1.0000   1.0000   1.0000   1.0000   1.0000   1.0000
     1.0000   1.0000   1.0000   1.0000   1.0000

          k =-0.1372-0.2745 0.2745 ( 11017 PWs)   bands (ev):

  -108.5857 -56.9170 -56.9169 -56.9169  -4.8676  -0.6160  -0.6062  -0.3804
    -0.2768  -0.2430   2.1596   4.9432   5.5713

     occupation numbers 
     1.0000   1.0000   1.0000   1.0000   1.0000   1.0000   1.0000   1.0000
     1.0000   1.0000   1.0000   1.0000   1.0000

          k =-0.0686-0.2058 0.2058 ( 11033 PWs)   bands (ev):

  -108.5857 -56.9169 -56.9169 -56.9169  -5.0074  -0.6492  -0.6326  -0.5610
    -0.2829  -0.2589   3.0799   5.2235   5.8403

     occupation numbers 
     1.0000   1.0000   1.0000   1.0000   1.0000   1.0000   1.0000   1.0000
     1.0000   1.0000   1.0000   1.0000   1.0000

          k = 0.0000-0.1372 0.1372 ( 11047 PWs)   bands (ev):

  -108.5857 -56.9169 -56.9169 -56.9169  -5.1318  -0.6795  -0.6665  -0.6538
    -0.2793  -0.2663   3.9787   5.6537   6.0462

     occupation numbers 
     1.0000   1.0000   1.0000   1.0000   1.0000   1.0000   1.0000   1.0000
     1.0000   1.0000   1.0000   1.0000   1.0000

          k = 0.2745 0.0000 0.0000 ( 11022 PWs)   bands (ev):

  -108.5857 -56.9169 -56.9169 -56.9169  -5.0325  -0.6520  -0.6190  -0.6190
    -0.2925  -0.2527   3.4446   5.3698   5.3698

     occupation numbers 
     1.0000   1.0000   1.0000   1.0000   1.0000   1.0000   1.0000   1.0000
     1.0000   1.0000   1.0000   1.0000   1.0000

          k = 0.3431 0.0686-0.0686 ( 11039 PWs)   bands (ev):

  -108.5857 -56.9169 -56.9169 -56.9169  -4.9200  -0.6194  -0.5800  -0.5447
    -0.2837  -0.2454   2.7907   5.0233   5.0993

     occupation numbers 
     1.0000   1.0000   1.0000   1.0000   1.0000   1.0000   1.0000   1.0000
     1.0000   1.0000   1.0000   1.0000   1.0000

          k = 0.4117 0.1372-0.1372 ( 11007 PWs)   bands (ev):

  -108.5857 -56.9170 -56.9169 -56.9169  -4.7968  -0.5921  -0.5512  -0.4158
    -0.2412  -0.2147   2.0445   4.6149   4.9369

     occupation numbers 
     1.0000   1.0000   1.0000   1.0000   1.0000   1.0000   1.0000   1.0000
     1.0000   1.0000   1.0000   1.0000   1.0000

          k =-0.2058-0.4803 0.4803 ( 11013 PWs)   bands (ev):

  -108.5857 -56.9170 -56.9169 -56.9169  -4.7119  -0.5765  -0.5412  -0.3269
    -0.2460  -0.0285   1.4427   4.2768   4.9266

     occupation numbers 
     1.0000   1.0000   1.0000   1.0000   1.0000   1.0000   1.0000   1.0000
     1.0000   1.0000   1.0000   1.0000   1.0000

          k =-0.1372-0.4117 0.4117 ( 11002 PWs)   bands (ev):

  -108.5857 -56.9170 -56.9169 -56.9169  -4.7016  -0.5718  -0.5505  -0.2884
    -0.2621   0.0200   1.3384   4.1054   5.0718

     occupation numbers 
     1.0000   1.0000   1.0000   1.0000   1.0000   1.0000   1.0000   1.0000
     1.0000   1.0000   1.0000   1.0000   1.0000

          k =-0.0686-0.3431 0.3431 ( 11007 PWs)   bands (ev):

  -108.5857 -56.9170 -56.9169 -56.9169  -4.7703  -0.5775  -0.5772  -0.3075
    -0.2798  -0.1686   1.8198   4.1713   5.3332

     occupation numbers 
     1.0000   1.0000   1.0000   1.0000   1.0000   1.0000   1.0000   1.0000
     1.0000   1.0000   1.0000   1.0000   1.0000

          k = 0.0000-0.2745 0.2745 ( 11007 PWs)   bands (ev):

  -108.5857 -56.9169 -56.9169 -56.9169  -4.8881  -0.6155  -0.5973  -0.4499
    -0.2873  -0.2395   2.4812   4.5448   5.6291

     occupation numbers 
     1.0000   1.0000   1.0000   1.0000   1.0000   1.0000   1.0000   1.0000
     1.0000   1.0000   1.0000   1.0000   1.0000

          k = 0.4117 0.0000 0.0000 ( 11034 PWs)   bands (ev):

  -108.5857 -56.9170 -56.9169 -56.9169  -4.8358  -0.5757  -0.5343  -0.5343
    -0.2644  -0.2361   2.4499   4.8029   4.8029

     occupation numbers 
     1.0000   1.0000   1.0000   1.0000   1.0000   1.0000   1.0000   1.0000
     1.0000   1.0000   1.0000   1.0000   1.0000

          k = 0.4803 0.0686-0.0686 ( 11009 PWs)   bands (ev):

  -108.5857 -56.9170 -56.9169 -56.9169  -4.7366  -0.5527  -0.4991  -0.4647
    -0.2310  -0.1778   1.9327   4.4546   4.6168

     occupation numbers 
     1.0000   1.0000   1.0000   1.0000   1.0000   1.0000   1.0000   1.0000
     1.0000   1.0000   1.0000   1.0000   1.0000

          k =-0.1372-0.5489 0.5489 ( 11006 PWs)   bands (ev):

  -108.5857 -56.9170 -56.9169 -56.9169  -4.6612  -0.5446  -0.4862  -0.3905
    -0.2363   0.0025   1.4543   4.0217   4.5930

     occupation numbers 
     1.0000   1.0000   1.0000   1.0000   1.0000   1.0000   1.0000   1.0000
     1.0000   1.0000   1.0000   1.0000   1.0000

          k =-0.0686-0.4803 0.4803 ( 11019 PWs)   bands (ev):

  -108.5857 -56.9170 -56.9169 -56.9169  -4.6406  -0.5469  -0.4979  -0.3302
    -0.2536   0.1200   1.2527   3.7233   4.7384

     occupation numbers 
     1.0000   1.0000   1.0000   1.0000   1.0000   1.0000   1.0000   1.0000
     1.0000   1.0000   1.0000   1.0000   1.0000

          k =-0.0000-0.4117 0.4117 ( 11012 PWs)   bands (ev):

  -108.5857 -56.9170 -56.9169 -56.9169  -4.6830  -0.5570  -0.5319  -0.2962
    -0.2718  -0.0021   1.4683   3.7366   5.0135

     occupation numbers 
     1.0000   1.0000   1.0000   1.0000   1.0000   1.0000   1.0000   1.0000
     1.0000   1.0000   1.0000   1.0000   1.0000

          k = 0.5489 0.0000 0.0000 ( 10982 PWs)   bands (ev):

  -108.5857 -56.9170 -56.9169 -56.9169  -4.6680  -0.5285  -0.4583  -0.4583
    -0.2227  -0.0888   1.6085   4.3980   4.3980

     occupation numbers 
     1.0000   1.0000   1.0000   1.0000   1.0000   1.0000   1.0000   1.0000
     1.0000   1.0000   1.0000   1.0000   1.0000

          k =-0.0686-0.6175 0.6175 ( 10981 PWs)   bands (ev):

  -108.5857 -56.9170 -56.9169 -56.9169  -4.6185  -0.5230  -0.4429  -0.4248
    -0.2239   0.0596   1.2969   4.1331   4.3434

     occupation numbers 
     1.0000   1.0000   1.0000   1.0000   1.0000   1.0000   1.0000   1.0000
     1.0000   1.0000   1.0000   1.0000   1.0000

          k = 0.0000-0.5489 0.5489 ( 11036 PWs)   bands (ev):

  -108.5857 -56.9170 -56.9169 -56.9169  -4.6083  -0.5278  -0.4571  -0.3818
    -0.2376   0.1602   1.1767   3.7981   4.4683

     occupation numbers 
     1.0000   1.0000   1.0000   1.0000   1.0000   1.0000   1.0000   1.0000
     1.0000   1.0000   1.0000   1.0000   1.0000

          k =-0.6862 0.0000 0.0000 ( 10950 PWs)   bands (ev):

  -108.5857 -56.9170 -56.9169 -56.9169  -4.6017  -0.5225  -0.4271  -0.4271
    -0.2175   0.0952   1.1953   4.2517   4.2517

     occupation numbers 
     1.0000   1.0000   1.0000   1.0000   1.0000   1.0000   1.0000   1.0000
     1.0000   1.0000   1.0000   1.0000   1.0000

          k = 0.2745 0.1372 0.0000 ( 11037 PWs)   bands (ev):

  -108.5857 -56.9169 -56.9169 -56.9169  -4.9930  -0.6449  -0.6152  -0.5723
    -0.2876  -0.2533   3.1138   5.0896   5.5842

     occupation numbers 
     1.0000   1.0000   1.0000   1.0000   1.0000   1.0000   1.0000   1.0000
     1.0000   1.0000   1.0000   1.0000   1.0000

          k = 0.3431 0.2058-0.0686 ( 11033 PWs)   bands (ev):

  -108.5857 -56.9170 -56.9169 -56.9169  -4.8630  -0.6105  -0.5841  -0.4392
    -0.2731  -0.2387   2.3460   4.6468   5.3548

     occupation numbers 
     1.0000   1.0000   1.0000   1.0000   1.0000   1.0000   1.0000   1.0000
     1.0000   1.0000   1.0000   1.0000   1.0000

          k =-0.2745-0.4117 0.5489 ( 11010 PWs)   bands (ev):

  -108.5857 -56.9170 -56.9169 -56.9169  -4.7537  -0.5853  -0.5660  -0.3164
    -0.2543  -0.1216   1.6312   4.4052   5.1328

     occupation numbers 
     1.0000   1.0000   1.0000   1.0000   1.0000   1.0000   1.0000   1.0000
     1.0000   1.0000   1.0000   1.0000   1.0000

          k =-0.2058-0.3431 0.4803 ( 11010 PWs)   bands (ev):

  -108.5857 -56.9170 -56.9169 -56.9169  -4.7109  -0.5775  -0.5597  -0.2854
    -0.2583   0.0282   1.2874   4.3325   5.0425

     occupation numbers 
     1.0000   1.0000   1.0000   1.0000   1.0000   1.0000   1.0000   1.0000
     1.0000   1.0000   1.0000   1.0000   1.0000

          k = 0.4117 0.1372-0.0000 ( 11037 PWs)   bands (ev):

  -108.5857 -56.9170 -56.9169 -56.9169  -4.8135  -0.5840  -0.5448  -0.4701
    -0.2498  -0.2311   2.2631   4.5516   4.9267

     occupation numbers 
     1.0000   1.0000   1.0000   1.0000   1.0000   1.0000   1.0000   1.0000
     1.0000   1.0000   1.0000   1.0000   1.0000

          k =-0.2058-0.4803 0.6175 ( 11010 PWs)   bands (ev):

  -108.5857 -56.9170 -56.9169 -56.9169  -4.7135  -0.5577  -0.5242  -0.3821
    -0.2432  -0.1015   1.6983   4.1643   4.7340

     occupation numbers 
     1.0000   1.0000   1.0000   1.0000   1.0000   1.0000   1.0000   1.0000
     1.0000   1.0000   1.0000   1.0000   1.0000

          k =-0.1372-0.4117 0.5489 ( 11001 PWs)   bands (ev):

  -108.5857 -56.9170 -56.9169 -56.9169  -4.6605  -0.5499  -0.5171  -0.3226
    -0.2577   0.0756   1.3111   3.9108   4.6910

     occupation numbers 
     1.0000   1.0000   1.0000   1.0000   1.0000   1.0000   1.0000   1.0000
     1.0000   1.0000   1.0000   1.0000   1.0000

          k =-0.0686-0.3431 0.4803 ( 11013 PWs)   bands (ev):

  -108.5857 -56.9170 -56.9169 -56.9169  -4.6768  -0.5512  -0.5321  -0.3057
    -0.2675   0.0236   1.4107   3.8507   4.8419

     occupation numbers 
     1.0000   1.0000   1.0000   1.0000   1.0000   1.0000   1.0000   1.0000
     1.0000   1.0000   1.0000   1.0000   1.0000

          k = 0.0000-0.2745 0.4117 ( 11020 PWs)   bands (ev):

  -108.5857 -56.9170 -56.9169 -56.9169  -4.7551  -0.5695  -0.5589  -0.3495
    -0.2622  -0.1597   1.8606   4.0816   5.1103

     occupation numbers 
     1.0000   1.0000   1.0000   1.0000   1.0000   1.0000   1.0000   1.0000
     1.0000   1.0000   1.0000   1.0000   1.0000

          k =-0.1372-0.5489 0.6862 ( 10988 PWs)   bands (ev):

  -108.5857 -56.9170 -56.9169 -56.9169  -4.6616  -0.5298  -0.4806  -0.4197
    -0.2311  -0.0398   1.5373   4.2063   4.4002

     occupation numbers 
     1.0000   1.0000   1.0000   1.0000   1.0000   1.0000   1.0000   1.0000
     1.0000   1.0000   1.0000   1.0000   1.0000

          k =-0.0686-0.4803 0.6175 ( 10981 PWs)   bands (ev):

  -108.5857 -56.9170 -56.9169 -56.9169  -4.6186  -0.5240  -0.4756  -0.3704
    -0.2451   0.1287   1.2435   3.8846   4.3502

     occupation numbers 
     1.0000   1.0000   1.0000   1.0000   1.0000   1.0000   1.0000   1.0000
     1.0000   1.0000   1.0000   1.0000   1.0000

          k = 0.0000-0.4117 0.5489 ( 11006 PWs)   bands (ev):

  -108.5857 -56.9170 -56.9169 -56.9169  -4.6247  -0.5329  -0.4930  -0.3227
    -0.2665   0.1543   1.2224   3.6859   4.5337

     occupation numbers 
     1.0000   1.0000   1.0000   1.0000   1.0000   1.0000   1.0000   1.0000
     1.0000   1.0000   1.0000   1.0000   1.0000

          k =-0.6862 0.1372 0.0000 ( 10978 PWs)   bands (ev):

  -108.5857 -56.9170 -56.9169 -56.9169  -4.6020  -0.5171  -0.4497  -0.4023
    -0.2296   0.1391   1.1794   4.1375   4.1521

     occupation numbers 
     1.0000   1.0000   1.0000   1.0000   1.0000   1.0000   1.0000   1.0000
     1.0000   1.0000   1.0000   1.0000   1.0000

          k =-0.1372-0.4117 0.6862 ( 10998 PWs)   bands (ev):

  -108.5857 -56.9170 -56.9169 -56.9169  -4.6451  -0.5238  -0.5123  -0.3415
    -0.2594   0.0664   1.3699   3.8659   4.4497

     occupation numbers 
     1.0000   1.0000   1.0000   1.0000   1.0000   1.0000   1.0000   1.0000
     1.0000   1.0000   1.0000   1.0000   1.0000

          k =-0.0686-0.3431 0.6175 ( 10996 PWs)   bands (ev):

  -108.5857 -56.9170 -56.9169 -56.9169  -4.6187  -0.5208  -0.4973  -0.3115
    -0.2823   0.1709   1.2067   3.7859   4.3054

     occupation numbers 
     1.0000   1.0000   1.0000   1.0000   1.0000   1.0000   1.0000   1.0000
     1.0000   1.0000   1.0000   1.0000   1.0000

          k =-0.6862 0.2745 0.0000 ( 10988 PWs)   bands (ev):

  -108.5857 -56.9170 -56.9169 -56.9169  -4.6025  -0.5116  -0.4808  -0.3384
    -0.2684   0.2061   1.1523   3.9665   4.0081

     occupation numbers 
     1.0000   1.0000   1.0000   1.0000   1.0000   1.0000   1.0000   1.0000
     1.0000   1.0000   1.0000   1.0000   1.0000

     highest occupied level (ev):     6.1770

!    total energy              =    -346.21145339 Ry
     estimated scf accuracy    <          3.4E-13 Ry

     The total energy is the sum of the following terms:
     one-electron contribution =    -235.97017681 Ry
     hartree contribution      =     119.78468935 Ry
     xc contribution           =     -55.64017747 Ry
     ewald contribution        =    -174.38578846 Ry

     convergence has been achieved in  15 iterations

     Forces acting on atoms (cartesian axes, Ry/au):

     atom    1 type  1   force =    -0.00000000   -0.00000000    0.00000000
     atom    2 type  2   force =     0.00000000   -0.00000000    0.00000000
     The non-local contrib.  to forces
     atom    1 type  1   force =    -0.00000000    0.00000000   -0.00000000
     atom    2 type  2   force =    -0.00000000    0.00000000    0.00000000
     The ionic contribution  to forces
     atom    1 type  1   force =     0.00000000    0.00000000    0.00000000
     atom    2 type  2   force =     0.00000000    0.00000000   -0.00000000
     The local contribution  to forces
     atom    1 type  1   force =     0.00000000   -0.00000000   -0.00000000
     atom    2 type  2   force =     0.00000000    0.00000000   -0.00000000
     The core correction contribution to forces
     atom    1 type  1   force =     0.00000000   -0.00000000   -0.00000000
     atom    2 type  2   force =    -0.00000000   -0.00000000    0.00000000
     The Hubbard contrib.    to forces
     atom    1 type  1   force =     0.00000000    0.00000000    0.00000000
     atom    2 type  2   force =     0.00000000    0.00000000    0.00000000
     The SCF correction term to forces
     atom    1 type  1   force =    -0.00000000    0.00000000   -0.00000000
     atom    2 type  2   force =     0.00000000    0.00000000   -0.00000000

     Total force =     0.000000     Total SCF correction =     0.000000


     Computing stress (Cartesian axis) and pressure

          total   stress  (Ry/bohr**3)                   (kbar)     P=        0.01
   0.00000006   0.00000000   0.00000000            0.01        0.00        0.00
  -0.00000000   0.00000006   0.00000000           -0.00        0.01        0.00
   0.00000000   0.00000000   0.00000006            0.00        0.00        0.01

     kinetic stress (kbar)  24738.83     -0.00      0.00
                               -0.00  24738.83      0.00
                               -0.00      0.00  24738.83

     local   stress (kbar) -24789.65     -0.00      0.00
                               -0.00 -24789.65      0.00
                                0.00      0.00 -24789.65

     nonloc. stress (kbar)   9367.77     -0.00      0.00
                               -0.00   9367.77      0.00
                                0.00      0.00   9367.77

     hartree stress (kbar)  11838.53      0.00      0.00
                                0.00  11838.53     -0.00
                                0.00     -0.00  11838.53

     exc-cor stress (kbar)   3295.75     -0.00      0.00
                               -0.00   3295.75      0.00
                                0.00      0.00   3295.75

     corecor stress (kbar)  -7216.37     -0.00      0.00
                               -0.00  -7216.37     -0.00
                                0.00     -0.00  -7216.37

     ewald   stress (kbar) -17234.85     -0.00     -0.00
                               -0.00 -17234.85      0.00
                               -0.00      0.00 -17234.85

     hubbard stress (kbar)      0.00      0.00      0.00
                                0.00      0.00      0.00
                                0.00      0.00      0.00

     DFT-D   stress (kbar)      0.00      0.00      0.00
                                0.00      0.00      0.00
                                0.00      0.00      0.00

     XDM     stress (kbar)      0.00      0.00      0.00
                                0.00      0.00      0.00
                                0.00      0.00      0.00

     dft-nl  stress (kbar)      0.00      0.00      0.00
                                0.00      0.00      0.00
                                0.00      0.00      0.00

     TS-vdW  stress (kbar)      0.00      0.00      0.00
                                0.00      0.00      0.00
                                0.00      0.00      0.00

     MDB     stress (kbar)      0.00      0.00      0.00
                                0.00      0.00      0.00
                                0.00      0.00      0.00

     3D-RISM stress (kbar)      0.00      0.00      0.00
                                0.00      0.00      0.00
                                0.00      0.00      0.00


     Writing all to output data dir /home/User/opencode_workspace/DFT/calculations/hgte/relax_nosoc/out/pwscf.save/ :
     XML data file, charge density, pseudopotentials, collected wavefunctions

     init_run     :      2.32s CPU      2.72s WALL (       2 calls)
     electrons    :    177.01s CPU    209.98s WALL (       7 calls)
     update_pot   :      0.18s CPU      0.23s WALL (       5 calls)
     forces       :      1.97s CPU      2.72s WALL (       7 calls)
     stress       :     12.44s CPU     14.55s WALL (       7 calls)

     Called by init_run:
     wfcinit      :      1.12s CPU      1.28s WALL (       2 calls)
     wfcinit:atom :      0.03s CPU      0.03s WALL (      94 calls)
     wfcinit:wfcr :      0.97s CPU      1.12s WALL (      94 calls)
     potinit      :      0.25s CPU      0.27s WALL (       2 calls)
     hinit0       :      0.63s CPU      0.66s WALL (       2 calls)

     Called by electrons:
     c_bands      :    131.10s CPU    145.76s WALL (      85 calls)
     sum_band     :     33.71s CPU     44.37s WALL (      85 calls)
     v_of_rho     :      2.37s CPU      2.65s WALL (      86 calls)
     v_h          :      0.14s CPU      0.17s WALL (      86 calls)
     v_xc         :      2.58s CPU      2.92s WALL (     100 calls)
     newd         :     10.28s CPU     18.22s WALL (      86 calls)
     mix_rho      :      0.30s CPU      0.33s WALL (      85 calls)

     Called by c_bands:
     init_us_2    :      4.14s CPU      4.32s WALL (    8742 calls)
     cegterg      :    123.69s CPU    138.14s WALL (    3995 calls)

     Called by sum_band:
     sum_band:wei :      0.00s CPU      0.00s WALL (      85 calls)
     sum_band:loo :     21.63s CPU     24.09s WALL (      85 calls)
     sum_band:buf :      0.12s CPU      0.13s WALL (    3995 calls)
     sum_band:ini :      1.94s CPU      2.01s WALL (    3995 calls)
     sum_band:cal :      1.62s CPU      1.75s WALL (    3995 calls)
     sum_band:bec :      0.06s CPU      0.07s WALL (    3995 calls)
     addusdens    :     10.82s CPU     18.92s WALL (      85 calls)
                                        0.00s GPU  (      85 calls)
     addusd:skk   :      0.01s CPU      0.01s WALL (     170 calls)
                                        0.00s GPU  (     170 calls)

     Called by *egterg:
     cdiaghg      :      2.83s CPU      2.94s WALL (   16022 calls)
     cegterg:over :      4.66s CPU      4.86s WALL (   12544 calls)
     cegterg:upda :      1.61s CPU      1.66s WALL (   12544 calls)
     cegterg:last :      3.07s CPU      3.15s WALL (    9178 calls)
     h_psi        :    105.96s CPU    119.85s WALL (   16633 calls)
     s_psi        :      2.29s CPU      2.45s WALL (   16633 calls)
     g_psi        :      0.93s CPU      0.95s WALL (   12544 calls)

     Called by h_psi:
     h_psi:calbec :      5.32s CPU      5.82s WALL (   16633 calls)
     vloc_psi     :     97.49s CPU    110.65s WALL (   16633 calls)
                                        0.00s GPU  (   16633 calls)
     add_vuspsi   :      2.60s CPU      2.82s WALL (   16633 calls)

     General routines
     calbec       :      8.64s CPU      9.32s WALL (   26221 calls)
     fft          :      1.67s CPU      2.03s WALL (    1290 calls)
     ffts         :      0.25s CPU      0.26s WALL (     171 calls)
     fftw         :    105.36s CPU    119.55s WALL (  352533 calls)
     interpolate  :      0.30s CPU      0.33s WALL (      86 calls)

     Parallel routines

     PWSCF        :   3m14.85s CPU   3m51.72s WALL


   This run was terminated on:   0:15:38  23Sep2026            

=------------------------------------------------------------------------------=
   JOB DONE.
=------------------------------------------------------------------------------=
