
     Program PWSCF v.7.5 starts on 22Sep2026 at 19: 4:36 

     This program is part of the open-source Quantum ESPRESSO suite
     for quantum simulation of materials; please cite
         "P. Giannozzi et al., J. Phys.:Condens. Matter 21 395502 (2009);
         "P. Giannozzi et al., J. Phys.:Condens. Matter 29 465901 (2017);
         "P. Giannozzi et al., J. Chem. Phys. 152 154105 (2020);
          URL http://www.quantum-espresso.org", 
     in publications or presentations arising from this work. More details at
     http://www.quantum-espresso.org/quote

     Parallel version (MPI & OpenMP), running on       6 processor cores
     Number of MPI processes:                 6
     Threads/MPI process:                     1

     MPI processes distributed on     1 nodes
     2653 MiB available memory on the printing compute node when the environment starts

     Reading input from pw.in

     Current dimensions of program PWSCF are:
     Max number of different atomic species (ntypx) = 10
     Max number of k-points (npk) =  40000
     Max angular momentum in pseudopotentials (lmaxx) =  4
     file Cd.pbe-n-rrkjus_psl.1.0.0.UPF: wavefunction(s)  4D renormalized
     file Te.pbe-n-rrkjus_psl.1.0.0.UPF: wavefunction(s)  5S renormalized
     Message from routine setup:
     using ibrav=0 with symmetry is DISCOURAGED, use correct ibrav instead

     R & G space division:  proc/nbgrp/npool/nimage =       6
     Subspace diagonalization in iterative solution of the eigenvalue problem:
     a serial algorithm will be used


     Parallelization info
     --------------------
     sticks:   dense  smooth     PW     G-vecs:    dense   smooth      PW
     Min         414     275     79                13591     7399    1142
     Max         417     276     80                13592     7402    1145
     Sum        2491    1651    475                81547    44399    6855

     Using Slab Decomposition



     bravais-lattice index     =            0
     lattice parameter (alat)  =       8.6615  a.u.
     unit-cell volume          =     459.4769 (a.u.)^3
     number of atoms/cell      =            2
     number of atomic types    =            2
     number of electrons       =        18.00
     number of Kohn-Sham states=            9
     kinetic-energy cutoff     =      80.0000  Ry
     charge density cutoff     =     480.0000  Ry
     scf convergence threshold =      1.0E-10
     mixing beta               =       0.3000
     number of iterations used =            8  plain     mixing
     Exchange-correlation= PBE
                           (   1   4   3   4   0   0   0)

     celldm(1)=   8.661496  celldm(2)=   0.000000  celldm(3)=   0.000000
     celldm(4)=   0.000000  celldm(5)=   0.000000  celldm(6)=   0.000000

     crystal axes: (cart. coord. in units of alat)
               a(1) = (   0.000000   0.707107   0.707107 )  
               a(2) = (   0.707107   0.000000   0.707107 )  
               a(3) = (   0.707107   0.707107   0.000000 )  

     reciprocal axes: (cart. coord. in units 2 pi/alat)
               b(1) = ( -0.707107  0.707107  0.707107 )  
               b(2) = (  0.707107 -0.707107  0.707107 )  
               b(3) = (  0.707107  0.707107 -0.707107 )  


     PseudoPot. # 1 for Cd read from file:
     /home/User/opencode_workspace/DFT/pseudopotentials/Cd.pbe-n-rrkjus_psl.1.0.0.UPF
     MD5 check sum: a744746c89d2344a134ead0d8ab94e7a
     Pseudo is Ultrasoft + core correction, Zval = 12.0
     Generated using &quot;atomic&quot; code by A. Dal Corso  v.6.3
     Using radial grid of 1239 points,  6 beta functions with: 
                l(1) =   0
                l(2) =   0
                l(3) =   1
                l(4) =   1
                l(5) =   2
                l(6) =   2
     Q(r) pseudized with 0 coefficients 


     PseudoPot. # 2 for Te read from file:
     /home/User/opencode_workspace/DFT/pseudopotentials/Te.pbe-n-rrkjus_psl.1.0.0.UPF
     MD5 check sum: 203a1e86ef55f0cd9de2762a27c58f54
     Pseudo is Ultrasoft + core correction, Zval =  6.0
     Generated using &quot;atomic&quot; code by A. Dal Corso  v.6.3
     Using radial grid of 1245 points,  6 beta functions with: 
                l(1) =   0
                l(2) =   0
                l(3) =   1
                l(4) =   1
                l(5) =   2
                l(6) =   2
     Q(r) pseudized with 0 coefficients 


     atomic species   valence    mass     pseudopotential
     Cd               12.00   112.41400     Cd( 1.00)
     Te                6.00   127.60000     Te( 1.00)

     24 Sym. Ops. (no inversion) found


                                    s                        frac. trans.

      isym =  1     identity                                     

 cryst.   s( 1) = (     1          0          0      )
                  (     0          1          0      )
                  (     0          0          1      )

 cart.    s( 1) = (  1.0000000  0.0000000  0.0000000 )
                  (  0.0000000  1.0000000  0.0000000 )
                  (  0.0000000  0.0000000  1.0000000 )


      isym =  2     180 deg rotation - cart. axis [0,0,1]        

 cryst.   s( 2) = (     0          1         -1      )
                  (     1          0         -1      )
                  (     0          0         -1      )

 cart.    s( 2) = ( -1.0000000  0.0000000  0.0000000 )
                  (  0.0000000 -1.0000000  0.0000000 )
                  (  0.0000000  0.0000000  1.0000000 )


      isym =  3     180 deg rotation - cart. axis [0,1,0]        

 cryst.   s( 3) = (     0         -1          1      )
                  (     0         -1          0      )
                  (     1         -1          0      )

 cart.    s( 3) = ( -1.0000000  0.0000000  0.0000000 )
                  (  0.0000000  1.0000000  0.0000000 )
                  (  0.0000000  0.0000000 -1.0000000 )


      isym =  4     180 deg rotation - cart. axis [1,0,0]        

 cryst.   s( 4) = (    -1          0          0      )
                  (    -1          0          1      )
                  (    -1          1          0      )

 cart.    s( 4) = (  1.0000000  0.0000000  0.0000000 )
                  (  0.0000000 -1.0000000  0.0000000 )
                  (  0.0000000  0.0000000 -1.0000000 )


      isym =  5     120 deg rotation - cart. axis [-1,-1,-1]     

 cryst.   s( 5) = (     0          0          1      )
                  (     1          0          0      )
                  (     0          1          0      )

 cart.    s( 5) = (  0.0000000  1.0000000  0.0000000 )
                  (  0.0000000  0.0000000  1.0000000 )
                  (  1.0000000  0.0000000  0.0000000 )


      isym =  6     120 deg rotation - cart. axis [-1,1,1]       

 cryst.   s( 6) = (     1         -1          0      )
                  (     0         -1          1      )
                  (     0         -1          0      )

 cart.    s( 6) = (  0.0000000 -1.0000000  0.0000000 )
                  (  0.0000000  0.0000000  1.0000000 )
                  ( -1.0000000  0.0000000  0.0000000 )


      isym =  7     120 deg rotation - cart. axis [1,1,-1]       

 cryst.   s( 7) = (    -1          1          0      )
                  (    -1          0          0      )
                  (    -1          0          1      )

 cart.    s( 7) = (  0.0000000  1.0000000  0.0000000 )
                  (  0.0000000  0.0000000 -1.0000000 )
                  ( -1.0000000  0.0000000  0.0000000 )


      isym =  8     120 deg rotation - cart. axis [1,-1,1]       

 cryst.   s( 8) = (     0          0         -1      )
                  (     0          1         -1      )
                  (     1          0         -1      )

 cart.    s( 8) = (  0.0000000 -1.0000000  0.0000000 )
                  (  0.0000000  0.0000000 -1.0000000 )
                  (  1.0000000  0.0000000  0.0000000 )


      isym =  9     120 deg rotation - cart. axis [1,1,1]        

 cryst.   s( 9) = (     0          1          0      )
                  (     0          0          1      )
                  (     1          0          0      )

 cart.    s( 9) = (  0.0000000  0.0000000  1.0000000 )
                  (  1.0000000  0.0000000  0.0000000 )
                  (  0.0000000  1.0000000  0.0000000 )


      isym = 10     120 deg rotation - cart. axis [-1,1,-1]      

 cryst.   s(10) = (    -1          0          1      )
                  (    -1          1          0      )
                  (    -1          0          0      )

 cart.    s(10) = (  0.0000000  0.0000000  1.0000000 )
                  ( -1.0000000  0.0000000  0.0000000 )
                  (  0.0000000 -1.0000000  0.0000000 )


      isym = 11     120 deg rotation - cart. axis [1,-1,-1]      

 cryst.   s(11) = (     1          0         -1      )
                  (     0          0         -1      )
                  (     0          1         -1      )

 cart.    s(11) = (  0.0000000  0.0000000 -1.0000000 )
                  ( -1.0000000  0.0000000  0.0000000 )
                  (  0.0000000  1.0000000  0.0000000 )


      isym = 12     120 deg rotation - cart. axis [-1,-1,1]      

 cryst.   s(12) = (     0         -1          0      )
                  (     1         -1          0      )
                  (     0         -1          1      )

 cart.    s(12) = (  0.0000000  0.0000000 -1.0000000 )
                  (  1.0000000  0.0000000  0.0000000 )
                  (  0.0000000 -1.0000000  0.0000000 )


      isym = 13     inv. 180 deg rotation - cart. axis [1,1,0]   

 cryst.   s(13) = (     1          0         -1      )
                  (     0          1         -1      )
                  (     0          0         -1      )

 cart.    s(13) = (  0.0000000 -1.0000000  0.0000000 )
                  ( -1.0000000  0.0000000  0.0000000 )
                  (  0.0000000  0.0000000  1.0000000 )


      isym = 14     inv. 180 deg rotation - cart. axis [1,-1,0]  

 cryst.   s(14) = (     0          1          0      )
                  (     1          0          0      )
                  (     0          0          1      )

 cart.    s(14) = (  0.0000000  1.0000000  0.0000000 )
                  (  1.0000000  0.0000000  0.0000000 )
                  (  0.0000000  0.0000000  1.0000000 )


      isym = 15     inv.  90 deg rotation - cart. axis [0,0,-1]  

 cryst.   s(15) = (     0         -1          0      )
                  (     0         -1          1      )
                  (     1         -1          0      )

 cart.    s(15) = (  0.0000000 -1.0000000  0.0000000 )
                  (  1.0000000  0.0000000  0.0000000 )
                  (  0.0000000  0.0000000 -1.0000000 )


      isym = 16     inv.  90 deg rotation - cart. axis [0,0,1]   

 cryst.   s(16) = (    -1          0          1      )
                  (    -1          0          0      )
                  (    -1          1          0      )

 cart.    s(16) = (  0.0000000  1.0000000  0.0000000 )
                  ( -1.0000000  0.0000000  0.0000000 )
                  (  0.0000000  0.0000000 -1.0000000 )


      isym = 17     inv. 180 deg rotation - cart. axis [1,0,1]   

 cryst.   s(17) = (     1         -1          0      )
                  (     0         -1          0      )
                  (     0         -1          1      )

 cart.    s(17) = (  0.0000000  0.0000000 -1.0000000 )
                  (  0.0000000  1.0000000  0.0000000 )
                  ( -1.0000000  0.0000000  0.0000000 )


      isym = 18     inv. 180 deg rotation - cart. axis [-1,0,1]  

 cryst.   s(18) = (     0          0          1      )
                  (     0          1          0      )
                  (     1          0          0      )

 cart.    s(18) = (  0.0000000  0.0000000  1.0000000 )
                  (  0.0000000  1.0000000  0.0000000 )
                  (  1.0000000  0.0000000  0.0000000 )


      isym = 19     inv.  90 deg rotation - cart. axis [0,1,0]   

 cryst.   s(19) = (     0          0         -1      )
                  (     1          0         -1      )
                  (     0          1         -1      )

 cart.    s(19) = (  0.0000000  0.0000000 -1.0000000 )
                  (  0.0000000 -1.0000000  0.0000000 )
                  (  1.0000000  0.0000000  0.0000000 )


      isym = 20     inv.  90 deg rotation - cart. axis [0,-1,0]  

 cryst.   s(20) = (    -1          1          0      )
                  (    -1          0          1      )
                  (    -1          0          0      )

 cart.    s(20) = (  0.0000000  0.0000000  1.0000000 )
                  (  0.0000000 -1.0000000  0.0000000 )
                  ( -1.0000000  0.0000000  0.0000000 )


      isym = 21     inv. 180 deg rotation - cart. axis [0,1,1]   

 cryst.   s(21) = (    -1          0          0      )
                  (    -1          1          0      )
                  (    -1          0          1      )

 cart.    s(21) = (  1.0000000  0.0000000  0.0000000 )
                  (  0.0000000  0.0000000 -1.0000000 )
                  (  0.0000000 -1.0000000  0.0000000 )


      isym = 22     inv. 180 deg rotation - cart. axis [0,1,-1]  

 cryst.   s(22) = (     1          0          0      )
                  (     0          0          1      )
                  (     0          1          0      )

 cart.    s(22) = (  1.0000000  0.0000000  0.0000000 )
                  (  0.0000000  0.0000000  1.0000000 )
                  (  0.0000000  1.0000000  0.0000000 )


      isym = 23     inv.  90 deg rotation - cart. axis [-1,0,0]  

 cryst.   s(23) = (     0          1         -1      )
                  (     0          0         -1      )
                  (     1          0         -1      )

 cart.    s(23) = ( -1.0000000  0.0000000  0.0000000 )
                  (  0.0000000  0.0000000 -1.0000000 )
                  (  0.0000000  1.0000000  0.0000000 )


      isym = 24     inv.  90 deg rotation - cart. axis [1,0,0]   

 cryst.   s(24) = (     0         -1          1      )
                  (     1         -1          0      )
                  (     0         -1          0      )

 cart.    s(24) = ( -1.0000000  0.0000000  0.0000000 )
                  (  0.0000000  0.0000000  1.0000000 )
                  (  0.0000000 -1.0000000  0.0000000 )


   Cartesian axes

     site n.     atom                  positions (alat units)
         1        Cd     tau(   1) = (   0.0000000   0.0000000   0.0000000  )
         2        Te     tau(   2) = (   0.3535534   0.3535534   0.3535534  )

   Crystallographic axes

     site n.     atom                  positions (cryst. coord.)
         1        Cd     tau(   1) = (  0.0000000  0.0000000  0.0000000  )
         2        Te     tau(   2) = (  0.2500000  0.2500000  0.2500000  )

     number of k points=    29
                       cart. coord. in units 2pi/alat
        k(    1) = (   0.0000000   0.0000000   0.0000000), wk =   0.0039062
        k(    2) = (   0.0883883   0.0883883  -0.0883883), wk =   0.0312500
        k(    3) = (   0.1767767   0.1767767  -0.1767767), wk =   0.0312500
        k(    4) = (   0.2651650   0.2651650  -0.2651650), wk =   0.0312500
        k(    5) = (  -0.3535534  -0.3535534   0.3535534), wk =   0.0156250
        k(    6) = (   0.1767767   0.0000000   0.0000000), wk =   0.0234375
        k(    7) = (   0.2651650   0.0883883  -0.0883883), wk =   0.0937500
        k(    8) = (   0.3535534   0.1767767  -0.1767767), wk =   0.0937500
        k(    9) = (  -0.2651650  -0.4419417   0.4419417), wk =   0.0937500
        k(   10) = (  -0.1767767  -0.3535534   0.3535534), wk =   0.0937500
        k(   11) = (  -0.0883883  -0.2651650   0.2651650), wk =   0.0937500
        k(   12) = (   0.0000000  -0.1767767   0.1767767), wk =   0.0468750
        k(   13) = (   0.3535534   0.0000000   0.0000000), wk =   0.0234375
        k(   14) = (   0.4419417   0.0883883  -0.0883883), wk =   0.0937500
        k(   15) = (  -0.1767767  -0.5303301   0.5303301), wk =   0.0937500
        k(   16) = (  -0.0883883  -0.4419417   0.4419417), wk =   0.0937500
        k(   17) = (   0.0000000  -0.3535534   0.3535534), wk =   0.0468750
        k(   18) = (   0.5303301   0.0000000   0.0000000), wk =   0.0234375
        k(   19) = (  -0.0883883  -0.6187184   0.6187184), wk =   0.0937500
        k(   20) = (   0.0000000  -0.5303301   0.5303301), wk =   0.0468750
        k(   21) = (  -0.7071068   0.0000000   0.0000000), wk =   0.0117188
        k(   22) = (   0.3535534   0.1767767   0.0000000), wk =   0.0937500
        k(   23) = (  -0.2651650  -0.4419417   0.6187184), wk =   0.1875000
        k(   24) = (  -0.1767767  -0.3535534   0.5303301), wk =   0.0937500
        k(   25) = (  -0.1767767  -0.5303301   0.7071068), wk =   0.0937500
        k(   26) = (  -0.0883883  -0.4419417   0.6187184), wk =   0.1875000
        k(   27) = (   0.0000000  -0.3535534   0.5303301), wk =   0.0937500
        k(   28) = (  -0.7071068   0.1767767   0.0000000), wk =   0.0468750
        k(   29) = (  -0.7071068   0.3535534   0.0000000), wk =   0.0234375

                       cryst. coord.
        k(    1) = (   0.0000000   0.0000000   0.0000000), wk =   0.0039062
        k(    2) = (   0.0000000   0.0000000   0.1250000), wk =   0.0312500
        k(    3) = (   0.0000000   0.0000000   0.2500000), wk =   0.0312500
        k(    4) = (   0.0000000   0.0000000   0.3750000), wk =   0.0312500
        k(    5) = (   0.0000000   0.0000000  -0.5000000), wk =   0.0156250
        k(    6) = (   0.0000000   0.1250000   0.1250000), wk =   0.0234375
        k(    7) = (   0.0000000   0.1250000   0.2500000), wk =   0.0937500
        k(    8) = (   0.0000000   0.1250000   0.3750000), wk =   0.0937500
        k(    9) = (   0.0000000   0.1250000  -0.5000000), wk =   0.0937500
        k(   10) = (   0.0000000   0.1250000  -0.3750000), wk =   0.0937500
        k(   11) = (   0.0000000   0.1250000  -0.2500000), wk =   0.0937500
        k(   12) = (   0.0000000   0.1250000  -0.1250000), wk =   0.0468750
        k(   13) = (   0.0000000   0.2500000   0.2500000), wk =   0.0234375
        k(   14) = (   0.0000000   0.2500000   0.3750000), wk =   0.0937500
        k(   15) = (   0.0000000   0.2500000  -0.5000000), wk =   0.0937500
        k(   16) = (   0.0000000   0.2500000  -0.3750000), wk =   0.0937500
        k(   17) = (   0.0000000   0.2500000  -0.2500000), wk =   0.0468750
        k(   18) = (   0.0000000   0.3750000   0.3750000), wk =   0.0234375
        k(   19) = (   0.0000000   0.3750000  -0.5000000), wk =   0.0937500
        k(   20) = (   0.0000000   0.3750000  -0.3750000), wk =   0.0468750
        k(   21) = (   0.0000000  -0.5000000  -0.5000000), wk =   0.0117188
        k(   22) = (   0.1250000   0.2500000   0.3750000), wk =   0.0937500
        k(   23) = (   0.1250000   0.2500000  -0.5000000), wk =   0.1875000
        k(   24) = (   0.1250000   0.2500000  -0.3750000), wk =   0.0937500
        k(   25) = (   0.1250000   0.3750000  -0.5000000), wk =   0.0937500
        k(   26) = (   0.1250000   0.3750000  -0.3750000), wk =   0.1875000
        k(   27) = (   0.1250000   0.3750000  -0.2500000), wk =   0.0937500
        k(   28) = (   0.1250000  -0.5000000  -0.3750000), wk =   0.0468750
        k(   29) = (   0.2500000  -0.5000000  -0.2500000), wk =   0.0234375

     Dense  grid:    81547 G-vectors     FFT dimensions: (  64,  64,  64)

     Smooth grid:    44399 G-vectors     FFT dimensions: (  50,  50,  50)

     Dynamical RAM for                 wfc:       0.13 MB

     Dynamical RAM for     wfc (w. buffer):       3.81 MB

     Dynamical RAM for           str. fact:       0.41 MB

     Dynamical RAM for           local pot:       0.00 MB

     Dynamical RAM for          nlocal pot:       0.51 MB

     Dynamical RAM for                qrad:       3.52 MB

     Dynamical RAM for          rho,v,vnew:       1.65 MB

     Dynamical RAM for               rhoin:       0.55 MB

     Dynamical RAM for            rho*nmix:       3.32 MB

     Dynamical RAM for           G-vectors:       0.83 MB

     Dynamical RAM for          h,s,v(r/c):       0.01 MB

     Dynamical RAM for          <psi|beta>:       0.00 MB

     Dynamical RAM for                 psi:       0.25 MB

     Dynamical RAM for                hpsi:       0.25 MB

     Dynamical RAM for                spsi:       0.25 MB

     Dynamical RAM for      wfcinit/wfcrot:       0.26 MB

     Dynamical RAM for           addusdens:      38.78 MB

     Estimated static dynamical RAM per process >      13.63 MB

     Estimated max dynamical RAM per process >      55.73 MB

     Estimated total dynamical RAM >     334.36 MB

     Initial potential from superposition of free atoms

     starting charge      17.9949, renormalised to      18.0000
     Starting wfcs are   13 randomized atomic wfcs

     total cpu time spent up to now is        1.1 secs

     per-process dynamical memory:    24.4 Mb

     Self-consistent Calculation

     iteration #  1     ecut=    80.00 Ry     beta= 0.30
     Davidson diagonalization with overlap

---- Real-time Memory Report at c_bands before calling an iterative solver
            99 MiB given to the printing process from OS
            23 MiB allocation reported by mallinfo(arena+hblkhd)
          2372 MiB available memory on the node where the printing process lives
------------------
     ethr =  1.00E-02,  avg # of iterations =  1.1

     Threshold (ethr) on eigenvalues was too large:
     Diagonalizing with lowered threshold

     Davidson diagonalization with overlap

---- Real-time Memory Report at c_bands before calling an iterative solver
           104 MiB given to the printing process from OS
            26 MiB allocation reported by mallinfo(arena+hblkhd)
          2372 MiB available memory on the node where the printing process lives
------------------
     ethr =  2.05E-04,  avg # of iterations =  5.0

     total cpu time spent up to now is        2.5 secs

     total energy              =    -128.97478377 Ry
     estimated scf accuracy    <       0.04129406 Ry

     iteration #  2     ecut=    80.00 Ry     beta= 0.30
     Davidson diagonalization with overlap

---- Real-time Memory Report at c_bands before calling an iterative solver
           106 MiB given to the printing process from OS
            28 MiB allocation reported by mallinfo(arena+hblkhd)
          2370 MiB available memory on the node where the printing process lives
------------------
     ethr =  2.29E-04,  avg # of iterations =  1.8

     total cpu time spent up to now is        3.4 secs

     total energy              =    -128.97303742 Ry
     estimated scf accuracy    <       0.01247237 Ry

     iteration #  3     ecut=    80.00 Ry     beta= 0.30
     Davidson diagonalization with overlap

---- Real-time Memory Report at c_bands before calling an iterative solver
           106 MiB given to the printing process from OS
            28 MiB allocation reported by mallinfo(arena+hblkhd)
          2343 MiB available memory on the node where the printing process lives
------------------
     ethr =  6.93E-05,  avg # of iterations =  2.2

     total cpu time spent up to now is        4.1 secs

     total energy              =    -128.97646347 Ry
     estimated scf accuracy    <       0.00137947 Ry

     iteration #  4     ecut=    80.00 Ry     beta= 0.30
     Davidson diagonalization with overlap

---- Real-time Memory Report at c_bands before calling an iterative solver
           106 MiB given to the printing process from OS
            28 MiB allocation reported by mallinfo(arena+hblkhd)
          2263 MiB available memory on the node where the printing process lives
------------------
     ethr =  7.66E-06,  avg # of iterations =  5.2

     total cpu time spent up to now is        5.0 secs

     total energy              =    -128.97718860 Ry
     estimated scf accuracy    <       0.00021284 Ry

     iteration #  5     ecut=    80.00 Ry     beta= 0.30
     Davidson diagonalization with overlap

---- Real-time Memory Report at c_bands before calling an iterative solver
           106 MiB given to the printing process from OS
            29 MiB allocation reported by mallinfo(arena+hblkhd)
          2270 MiB available memory on the node where the printing process lives
------------------
     ethr =  1.18E-06,  avg # of iterations =  5.1

     total cpu time spent up to now is        5.9 secs

     total energy              =    -128.97727795 Ry
     estimated scf accuracy    <       0.00006661 Ry

     iteration #  6     ecut=    80.00 Ry     beta= 0.30
     Davidson diagonalization with overlap

---- Real-time Memory Report at c_bands before calling an iterative solver
           107 MiB given to the printing process from OS
            29 MiB allocation reported by mallinfo(arena+hblkhd)
          2262 MiB available memory on the node where the printing process lives
------------------
     ethr =  3.70E-07,  avg # of iterations =  5.5

     total cpu time spent up to now is        6.8 secs

     total energy              =    -128.97731585 Ry
     estimated scf accuracy    <       0.00005002 Ry

     iteration #  7     ecut=    80.00 Ry     beta= 0.30
     Davidson diagonalization with overlap

---- Real-time Memory Report at c_bands before calling an iterative solver
           107 MiB given to the printing process from OS
            29 MiB allocation reported by mallinfo(arena+hblkhd)
          2262 MiB available memory on the node where the printing process lives
------------------
     ethr =  2.78E-07,  avg # of iterations =  1.1

     total cpu time spent up to now is        7.4 secs

     total energy              =    -128.97732382 Ry
     estimated scf accuracy    <       0.00005029 Ry

     iteration #  8     ecut=    80.00 Ry     beta= 0.30
     Davidson diagonalization with overlap

---- Real-time Memory Report at c_bands before calling an iterative solver
           107 MiB given to the printing process from OS
            29 MiB allocation reported by mallinfo(arena+hblkhd)
          2264 MiB available memory on the node where the printing process lives
------------------
     ethr =  2.78E-07,  avg # of iterations =  1.0

     total cpu time spent up to now is        8.0 secs

     total energy              =    -128.97731203 Ry
     estimated scf accuracy    <       0.00006899 Ry

     iteration #  9     ecut=    80.00 Ry     beta= 0.30
     Davidson diagonalization with overlap

---- Real-time Memory Report at c_bands before calling an iterative solver
           107 MiB given to the printing process from OS
            30 MiB allocation reported by mallinfo(arena+hblkhd)
          2286 MiB available memory on the node where the printing process lives
------------------
     ethr =  2.78E-07,  avg # of iterations =  2.1

     total cpu time spent up to now is        8.7 secs

     total energy              =    -128.97729291 Ry
     estimated scf accuracy    <       0.00005194 Ry

     iteration # 10     ecut=    80.00 Ry     beta= 0.30
     Davidson diagonalization with overlap

---- Real-time Memory Report at c_bands before calling an iterative solver
           108 MiB given to the printing process from OS
            30 MiB allocation reported by mallinfo(arena+hblkhd)
          2254 MiB available memory on the node where the printing process lives
------------------
     ethr =  2.78E-07,  avg # of iterations =  7.2

     total cpu time spent up to now is        9.8 secs

     total energy              =    -128.97737273 Ry
     estimated scf accuracy    <       0.00015606 Ry

     iteration # 11     ecut=    80.00 Ry     beta= 0.30
     Davidson diagonalization with overlap

---- Real-time Memory Report at c_bands before calling an iterative solver
           108 MiB given to the printing process from OS
            30 MiB allocation reported by mallinfo(arena+hblkhd)
          2253 MiB available memory on the node where the printing process lives
------------------
     ethr =  2.78E-07,  avg # of iterations =  1.8

     total cpu time spent up to now is       10.5 secs

     total energy              =    -128.97736711 Ry
     estimated scf accuracy    <       0.00017596 Ry

     iteration # 12     ecut=    80.00 Ry     beta= 0.30
     Davidson diagonalization with overlap

---- Real-time Memory Report at c_bands before calling an iterative solver
           108 MiB given to the printing process from OS
            30 MiB allocation reported by mallinfo(arena+hblkhd)
          2250 MiB available memory on the node where the printing process lives
------------------
     ethr =  2.78E-07,  avg # of iterations =  1.0

     total cpu time spent up to now is       11.1 secs

     total energy              =    -128.97733492 Ry
     estimated scf accuracy    <       0.00017358 Ry

     iteration # 13     ecut=    80.00 Ry     beta= 0.30
     Davidson diagonalization with overlap

---- Real-time Memory Report at c_bands before calling an iterative solver
           108 MiB given to the printing process from OS
            30 MiB allocation reported by mallinfo(arena+hblkhd)
          2253 MiB available memory on the node where the printing process lives
------------------
     ethr =  2.78E-07,  avg # of iterations =  1.0

     total cpu time spent up to now is       11.8 secs

     total energy              =    -128.97730533 Ry
     estimated scf accuracy    <       0.00011747 Ry

     iteration # 14     ecut=    80.00 Ry     beta= 0.30
     Davidson diagonalization with overlap

---- Real-time Memory Report at c_bands before calling an iterative solver
           108 MiB given to the printing process from OS
            30 MiB allocation reported by mallinfo(arena+hblkhd)
          2253 MiB available memory on the node where the printing process lives
------------------
     ethr =  2.78E-07,  avg # of iterations =  1.1

     total cpu time spent up to now is       12.4 secs

     total energy              =    -128.97731286 Ry
     estimated scf accuracy    <       0.00005913 Ry

     iteration # 15     ecut=    80.00 Ry     beta= 0.30
     Davidson diagonalization with overlap

---- Real-time Memory Report at c_bands before calling an iterative solver
           108 MiB given to the printing process from OS
            30 MiB allocation reported by mallinfo(arena+hblkhd)
          2258 MiB available memory on the node where the printing process lives
------------------
     ethr =  2.78E-07,  avg # of iterations =  1.0

     total cpu time spent up to now is       13.1 secs

     total energy              =    -128.97728160 Ry
     estimated scf accuracy    <       0.00006188 Ry

     iteration # 16     ecut=    80.00 Ry     beta= 0.30
     Davidson diagonalization with overlap

---- Real-time Memory Report at c_bands before calling an iterative solver
           108 MiB given to the printing process from OS
            30 MiB allocation reported by mallinfo(arena+hblkhd)
          2258 MiB available memory on the node where the printing process lives
------------------
     ethr =  2.78E-07,  avg # of iterations =  3.3

     total cpu time spent up to now is       13.8 secs

     total energy              =    -128.97729536 Ry
     estimated scf accuracy    <       0.00000278 Ry

     iteration # 17     ecut=    80.00 Ry     beta= 0.30
     Davidson diagonalization with overlap

---- Real-time Memory Report at c_bands before calling an iterative solver
           108 MiB given to the printing process from OS
            30 MiB allocation reported by mallinfo(arena+hblkhd)
          2251 MiB available memory on the node where the printing process lives
------------------
     ethr =  1.55E-08,  avg # of iterations =  6.2

     total cpu time spent up to now is       14.8 secs

     total energy              =    -128.97729774 Ry
     estimated scf accuracy    <       0.00000048 Ry

     iteration # 18     ecut=    80.00 Ry     beta= 0.30
     Davidson diagonalization with overlap

---- Real-time Memory Report at c_bands before calling an iterative solver
           108 MiB given to the printing process from OS
            30 MiB allocation reported by mallinfo(arena+hblkhd)
          2258 MiB available memory on the node where the printing process lives
------------------
     ethr =  2.69E-09,  avg # of iterations =  3.4

     total cpu time spent up to now is       15.6 secs

     total energy              =    -128.97729769 Ry
     estimated scf accuracy    <       0.00000031 Ry

     iteration # 19     ecut=    80.00 Ry     beta= 0.30
     Davidson diagonalization with overlap

---- Real-time Memory Report at c_bands before calling an iterative solver
           108 MiB given to the printing process from OS
            30 MiB allocation reported by mallinfo(arena+hblkhd)
          2259 MiB available memory on the node where the printing process lives
------------------
     ethr =  1.70E-09,  avg # of iterations =  2.6

     total cpu time spent up to now is       16.3 secs

     total energy              =    -128.97729777 Ry
     estimated scf accuracy    <       0.00000003 Ry

     iteration # 20     ecut=    80.00 Ry     beta= 0.30
     Davidson diagonalization with overlap

---- Real-time Memory Report at c_bands before calling an iterative solver
           108 MiB given to the printing process from OS
            30 MiB allocation reported by mallinfo(arena+hblkhd)
          2250 MiB available memory on the node where the printing process lives
------------------
     ethr =  1.49E-10,  avg # of iterations =  6.3

     total cpu time spent up to now is       17.5 secs

     total energy              =    -128.97729785 Ry
     estimated scf accuracy    <       0.00000007 Ry

     iteration # 21     ecut=    80.00 Ry     beta= 0.30
     Davidson diagonalization with overlap

---- Real-time Memory Report at c_bands before calling an iterative solver
           108 MiB given to the printing process from OS
            30 MiB allocation reported by mallinfo(arena+hblkhd)
          2250 MiB available memory on the node where the printing process lives
------------------
     ethr =  1.49E-10,  avg # of iterations =  3.8

     total cpu time spent up to now is       18.4 secs

     total energy              =    -128.97729784 Ry
     estimated scf accuracy    <       0.00000021 Ry

     iteration # 22     ecut=    80.00 Ry     beta= 0.30
     Davidson diagonalization with overlap

---- Real-time Memory Report at c_bands before calling an iterative solver
           108 MiB given to the printing process from OS
            30 MiB allocation reported by mallinfo(arena+hblkhd)
          2255 MiB available memory on the node where the printing process lives
------------------
     ethr =  1.49E-10,  avg # of iterations =  7.6

     total cpu time spent up to now is       19.5 secs

     total energy              =    -128.97729770 Ry
     estimated scf accuracy    <       0.00000032 Ry

     iteration # 23     ecut=    80.00 Ry     beta= 0.30
     Davidson diagonalization with overlap

---- Real-time Memory Report at c_bands before calling an iterative solver
           108 MiB given to the printing process from OS
            30 MiB allocation reported by mallinfo(arena+hblkhd)
          2257 MiB available memory on the node where the printing process lives
------------------
     ethr =  1.49E-10,  avg # of iterations =  7.8

     total cpu time spent up to now is       20.7 secs

     total energy              =    -128.97729778 Ry
     estimated scf accuracy    <          7.9E-09 Ry

     iteration # 24     ecut=    80.00 Ry     beta= 0.30
     Davidson diagonalization with overlap

---- Real-time Memory Report at c_bands before calling an iterative solver
           108 MiB given to the printing process from OS
            30 MiB allocation reported by mallinfo(arena+hblkhd)
          2257 MiB available memory on the node where the printing process lives
------------------
     ethr =  4.37E-11,  avg # of iterations =  3.7

     total cpu time spent up to now is       21.6 secs

     total energy              =    -128.97729778 Ry
     estimated scf accuracy    <       0.00000001 Ry

     iteration # 25     ecut=    80.00 Ry     beta= 0.30
     Davidson diagonalization with overlap

---- Real-time Memory Report at c_bands before calling an iterative solver
           108 MiB given to the printing process from OS
            30 MiB allocation reported by mallinfo(arena+hblkhd)
          2256 MiB available memory on the node where the printing process lives
------------------
     ethr =  4.37E-11,  avg # of iterations =  3.0

     total cpu time spent up to now is       22.5 secs

     total energy              =    -128.97729778 Ry
     estimated scf accuracy    <          5.5E-10 Ry

     iteration # 26     ecut=    80.00 Ry     beta= 0.30
     Davidson diagonalization with overlap

---- Real-time Memory Report at c_bands before calling an iterative solver
           108 MiB given to the printing process from OS
            30 MiB allocation reported by mallinfo(arena+hblkhd)
          2253 MiB available memory on the node where the printing process lives
------------------
     ethr =  3.07E-12,  avg # of iterations =  8.2

     total cpu time spent up to now is       23.8 secs

     total energy              =    -128.97729778 Ry
     estimated scf accuracy    <          8.0E-09 Ry

     iteration # 27     ecut=    80.00 Ry     beta= 0.30
     Davidson diagonalization with overlap

---- Real-time Memory Report at c_bands before calling an iterative solver
           108 MiB given to the printing process from OS
            30 MiB allocation reported by mallinfo(arena+hblkhd)
          2254 MiB available memory on the node where the printing process lives
------------------
     ethr =  3.07E-12,  avg # of iterations =  9.3

     total cpu time spent up to now is       26.7 secs

     total energy              =    -128.97729778 Ry
     estimated scf accuracy    <          1.4E-09 Ry

     iteration # 28     ecut=    80.00 Ry     beta= 0.30
     Davidson diagonalization with overlap

---- Real-time Memory Report at c_bands before calling an iterative solver
           108 MiB given to the printing process from OS
            30 MiB allocation reported by mallinfo(arena+hblkhd)
          2246 MiB available memory on the node where the printing process lives
------------------
     ethr =  3.07E-12,  avg # of iterations =  4.8

     total cpu time spent up to now is       27.6 secs

     End of self-consistent calculation

          k = 0.0000 0.0000 0.0000 (  5601 PWs)   bands (ev):

    -6.0537  -3.1527  -3.1527  -3.1527  -2.8920  -2.8920   5.1238   5.1238
     5.1238

     occupation numbers 
     1.0000   1.0000   1.0000   1.0000   1.0000   1.0000   1.0000   1.0000
     1.0000

          k = 0.0884 0.0884-0.0884 (  5585 PWs)   bands (ev):

    -5.9953  -3.1416  -3.1416  -3.1071  -2.8928  -2.8928   3.8987   4.9860
     4.9860

     occupation numbers 
     1.0000   1.0000   1.0000   1.0000   1.0000   1.0000   1.0000   1.0000
     1.0000

          k = 0.1768 0.1768-0.1768 (  5561 PWs)   bands (ev):

    -5.8537  -3.1169  -3.1169  -2.9541  -2.8920  -2.8920   2.3953   4.6945
     4.6945

     occupation numbers 
     1.0000   1.0000   1.0000   1.0000   1.0000   1.0000   1.0000   1.0000
     1.0000

          k = 0.2652 0.2652-0.2652 (  5558 PWs)   bands (ev):

    -5.7133  -3.0963  -3.0963  -2.8862  -2.8862  -2.7006   1.1944   4.4434
     4.4434

     occupation numbers 
     1.0000   1.0000   1.0000   1.0000   1.0000   1.0000   1.0000   1.0000
     1.0000

          k =-0.3536-0.3536 0.3536 (  5564 PWs)   bands (ev):

    -5.6563  -3.0894  -3.0894  -2.8820  -2.8820  -2.5407   0.6958   4.3480
     4.3480

     occupation numbers 
     1.0000   1.0000   1.0000   1.0000   1.0000   1.0000   1.0000   1.0000
     1.0000

          k = 0.1768 0.0000 0.0000 (  5565 PWs)   bands (ev):

    -5.9759  -3.1308  -3.1308  -3.1066  -2.8984  -2.8873   3.8702   4.7480
     4.7480

     occupation numbers 
     1.0000   1.0000   1.0000   1.0000   1.0000   1.0000   1.0000   1.0000
     1.0000

          k = 0.2652 0.0884-0.0884 (  5563 PWs)   bands (ev):

    -5.8624  -3.1125  -3.1048  -3.0004  -2.8944  -2.8832   2.7454   4.4151
     4.4456

     occupation numbers 
     1.0000   1.0000   1.0000   1.0000   1.0000   1.0000   1.0000   1.0000
     1.0000

          k = 0.3536 0.1768-0.1768 (  5540 PWs)   bands (ev):

    -5.7224  -3.0929  -3.0819  -2.9148  -2.8792  -2.7451   1.5474   4.0607
     4.1847

     occupation numbers 
     1.0000   1.0000   1.0000   1.0000   1.0000   1.0000   1.0000   1.0000
     1.0000

          k =-0.2652-0.4419 0.4419 (  5549 PWs)   bands (ev):

    -5.6390  -3.0815  -3.0739  -2.8970  -2.8803  -2.5269   0.8247   3.7583
     4.1540

     occupation numbers 
     1.0000   1.0000   1.0000   1.0000   1.0000   1.0000   1.0000   1.0000
     1.0000

          k =-0.1768-0.3536 0.3536 (  5538 PWs)   bands (ev):

    -5.6577  -3.0813  -3.0808  -2.8903  -2.8891  -2.5809   0.9881   3.6645
     4.3321

     occupation numbers 
     1.0000   1.0000   1.0000   1.0000   1.0000   1.0000   1.0000   1.0000
     1.0000

          k =-0.0884-0.2652 0.2652 (  5551 PWs)   bands (ev):

    -5.7687  -3.1029  -3.0924  -2.9019  -2.8994  -2.8200   1.9148   3.8421
     4.6466

     occupation numbers 
     1.0000   1.0000   1.0000   1.0000   1.0000   1.0000   1.0000   1.0000
     1.0000

          k = 0.0000-0.1768 0.1768 (  5561 PWs)   bands (ev):

    -5.9092  -3.1291  -3.1165  -3.0327  -2.8989  -2.8858   3.0781   4.3457
     4.9356

     occupation numbers 
     1.0000   1.0000   1.0000   1.0000   1.0000   1.0000   1.0000   1.0000
     1.0000

          k = 0.3536 0.0000 0.0000 (  5537 PWs)   bands (ev):

    -5.7889  -3.0751  -3.0751  -2.9933  -2.8758  -2.8638   2.4552   4.0359
     4.0359

     occupation numbers 
     1.0000   1.0000   1.0000   1.0000   1.0000   1.0000   1.0000   1.0000
     1.0000

          k = 0.4419 0.0884-0.0884 (  5551 PWs)   bands (ev):

    -5.6781  -3.0578  -3.0475  -2.9594  -2.8712  -2.7112   1.6781   3.5787
     3.7765

     occupation numbers 
     1.0000   1.0000   1.0000   1.0000   1.0000   1.0000   1.0000   1.0000
     1.0000

          k =-0.1768-0.5303 0.5303 (  5558 PWs)   bands (ev):

    -5.5967  -3.0557  -3.0368  -2.9325  -2.8746  -2.4868   1.0435   3.0427
     3.7449

     occupation numbers 
     1.0000   1.0000   1.0000   1.0000   1.0000   1.0000   1.0000   1.0000
     1.0000

          k =-0.0884-0.4419 0.4419 (  5548 PWs)   bands (ev):

    -5.5893  -3.0599  -3.0460  -2.9090  -2.8879  -2.4363   0.9655   2.7546
     3.9524

     occupation numbers 
     1.0000   1.0000   1.0000   1.0000   1.0000   1.0000   1.0000   1.0000
     1.0000

          k = 0.0000-0.3536 0.3536 (  5556 PWs)   bands (ev):

    -5.6591  -3.0724  -3.0706  -2.8993  -2.8985  -2.6182   1.4095   2.9745
     4.3164

     occupation numbers 
     1.0000   1.0000   1.0000   1.0000   1.0000   1.0000   1.0000   1.0000
     1.0000

          k = 0.5303 0.0000 0.0000 (  5542 PWs)   bands (ev):

    -5.6074  -3.0147  -3.0147  -2.9873  -2.8642  -2.5965   1.3105   3.4679
     3.4679

     occupation numbers 
     1.0000   1.0000   1.0000   1.0000   1.0000   1.0000   1.0000   1.0000
     1.0000

          k =-0.0884-0.6187 0.6187 (  5551 PWs)   bands (ev):

    -5.5534  -3.0196  -3.0016  -2.9681  -2.8651  -2.4322   0.9538   3.0402
     3.3922

     occupation numbers 
     1.0000   1.0000   1.0000   1.0000   1.0000   1.0000   1.0000   1.0000
     1.0000

          k = 0.0000-0.5303 0.5303 (  5536 PWs)   bands (ev):

    -5.5467  -3.0385  -3.0133  -2.9379  -2.8769  -2.3573   0.9140   2.5652
     3.5774

     occupation numbers 
     1.0000   1.0000   1.0000   1.0000   1.0000   1.0000   1.0000   1.0000
     1.0000

          k =-0.7071 0.0000 0.0000 (  5514 PWs)   bands (ev):

    -5.5353  -2.9966  -2.9882  -2.9882  -2.8594  -2.4030   0.8143   3.2579
     3.2579

     occupation numbers 
     1.0000   1.0000   1.0000   1.0000   1.0000   1.0000   1.0000   1.0000
     1.0000

          k = 0.3536 0.1768 0.0000 (  5549 PWs)   bands (ev):

    -5.7502  -3.0886  -3.0767  -2.9400  -2.8817  -2.8070   2.0356   3.6322
     4.3045

     occupation numbers 
     1.0000   1.0000   1.0000   1.0000   1.0000   1.0000   1.0000   1.0000
     1.0000

          k =-0.2652-0.4419 0.6187 (  5550 PWs)   bands (ev):

    -5.6406  -3.0689  -3.0588  -2.9192  -2.8811  -2.5830   1.2518   3.1769
     4.0035

     occupation numbers 
     1.0000   1.0000   1.0000   1.0000   1.0000   1.0000   1.0000   1.0000
     1.0000

          k =-0.1768-0.3536 0.5303 (  5550 PWs)   bands (ev):

    -5.5963  -3.0638  -3.0514  -2.9070  -2.8854  -2.4456   0.8844   3.0555
     3.8556

     occupation numbers 
     1.0000   1.0000   1.0000   1.0000   1.0000   1.0000   1.0000   1.0000
     1.0000

          k =-0.1768-0.5303 0.7071 (  5563 PWs)   bands (ev):

    -5.5970  -3.0361  -3.0312  -2.9517  -2.8712  -2.5280   1.2153   3.1241
     3.4922

     occupation numbers 
     1.0000   1.0000   1.0000   1.0000   1.0000   1.0000   1.0000   1.0000
     1.0000

          k =-0.0884-0.4419 0.6187 (  5554 PWs)   bands (ev):

    -5.5542  -3.0389  -3.0240  -2.9296  -2.8814  -2.3735   0.9558   2.7143
     3.3733

     occupation numbers 
     1.0000   1.0000   1.0000   1.0000   1.0000   1.0000   1.0000   1.0000
     1.0000

          k = 0.0000-0.3536 0.5303 (  5555 PWs)   bands (ev):

    -5.5719  -3.0489  -3.0359  -2.9160  -2.8889  -2.4083   1.0329   2.6260
     3.6188

     occupation numbers 
     1.0000   1.0000   1.0000   1.0000   1.0000   1.0000   1.0000   1.0000
     1.0000

          k =-0.7071 0.1768 0.0000 (  5540 PWs)   bands (ev):

    -5.5362  -3.0163  -3.0099  -2.9533  -2.8700  -2.3607   0.8709   3.0206
     3.0807

     occupation numbers 
     1.0000   1.0000   1.0000   1.0000   1.0000   1.0000   1.0000   1.0000
     1.0000

          k =-0.7071 0.3536 0.0000 (  5540 PWs)   bands (ev):

    -5.5370  -3.0292  -3.0236  -2.9211  -2.8903  -2.3204   0.9362   2.7977
     2.9225

     occupation numbers 
     1.0000   1.0000   1.0000   1.0000   1.0000   1.0000   1.0000   1.0000
     1.0000

     highest occupied level (ev):     5.1238

!    total energy              =    -128.97729778 Ry
     estimated scf accuracy    <          3.3E-11 Ry

     The total energy is the sum of the following terms:
     one-electron contribution =     -48.73590553 Ry
     hartree contribution      =      36.05985135 Ry
     xc contribution           =     -39.50001665 Ry
     ewald contribution        =     -76.80122694 Ry

     convergence has been achieved in  28 iterations

     Writing all to output data dir /home/User/opencode_workspace/DFT/calculations/cdte/conv_scf_k8/out/pwscf.save/ :
     XML data file, charge density, pseudopotentials, collected wavefunctions

     init_run     :      0.76s CPU      0.85s WALL (       1 calls)
     electrons    :     21.62s CPU     26.56s WALL (       1 calls)

     Called by init_run:
     wfcinit      :      0.20s CPU      0.23s WALL (       1 calls)
     wfcinit:atom :      0.00s CPU      0.00s WALL (      29 calls)
     wfcinit:wfcr :      0.18s CPU      0.20s WALL (      29 calls)
     potinit      :      0.11s CPU      0.12s WALL (       1 calls)
     hinit0       :      0.28s CPU      0.29s WALL (       1 calls)

     Called by electrons:
     c_bands      :     15.08s CPU     17.08s WALL (      29 calls)
     sum_band     :      4.15s CPU      5.77s WALL (      29 calls)
     v_of_rho     :      0.45s CPU      0.55s WALL (      29 calls)
     v_h          :      0.03s CPU      0.03s WALL (      29 calls)
     v_xc         :      0.43s CPU      0.51s WALL (      29 calls)
     newd         :      1.90s CPU      3.17s WALL (      29 calls)
     mix_rho      :      0.06s CPU      0.07s WALL (      29 calls)

     Called by c_bands:
     init_us_2    :      0.39s CPU      0.43s WALL (    1711 calls)
     cegterg      :     14.28s CPU     16.22s WALL (     841 calls)

     Called by sum_band:
     sum_band:wei :      0.00s CPU      0.00s WALL (      29 calls)
     sum_band:loo :      1.92s CPU      2.20s WALL (      29 calls)
     sum_band:buf :      0.01s CPU      0.01s WALL (     841 calls)
     sum_band:ini :      0.19s CPU      0.21s WALL (     841 calls)
     sum_band:cal :      0.15s CPU      0.17s WALL (     841 calls)
     sum_band:bec :      0.01s CPU      0.01s WALL (     841 calls)
     addusdens    :      1.87s CPU      3.19s WALL (      29 calls)
                                        0.00s GPU  (      29 calls)
     addusd:skk   :      0.00s CPU      0.00s WALL (      58 calls)
                                        0.00s GPU  (      58 calls)

     Called by *egterg:
     cdiaghg      :      0.38s CPU      0.41s WALL (    4087 calls)
     cegterg:over :      0.46s CPU      0.51s WALL (    3275 calls)
     cegterg:upda :      0.13s CPU      0.14s WALL (    3275 calls)
     cegterg:last :      0.25s CPU      0.27s WALL (    2371 calls)
     h_psi        :     12.46s CPU     14.25s WALL (    4145 calls)
     s_psi        :      0.22s CPU      0.24s WALL (    4145 calls)
     g_psi        :      0.09s CPU      0.10s WALL (    3275 calls)

     Called by h_psi:
     h_psi:calbec :      0.69s CPU      0.77s WALL (    4145 calls)
     vloc_psi     :     11.44s CPU     13.11s WALL (    4145 calls)
                                        0.00s GPU  (    4145 calls)
     add_vuspsi   :      0.26s CPU      0.30s WALL (    4145 calls)

     General routines
     calbec       :      0.82s CPU      0.92s WALL (    4986 calls)
     fft          :      0.36s CPU      0.43s WALL (     376 calls)
     ffts         :      0.11s CPU      0.11s WALL (      58 calls)
     fftw         :     12.12s CPU     13.91s WALL (   59875 calls)
     interpolate  :      0.11s CPU      0.12s WALL (      29 calls)

     Parallel routines

     PWSCF        :     22.65s CPU     27.72s WALL


   This run was terminated on:  19: 5: 3  22Sep2026            

=------------------------------------------------------------------------------=
   JOB DONE.
=------------------------------------------------------------------------------=
