
     Program PWSCF v.7.5 starts on 22Sep2026 at 19:14:39 

     This program is part of the open-source Quantum ESPRESSO suite
     for quantum simulation of materials; please cite
         "P. Giannozzi et al., J. Phys.:Condens. Matter 21 395502 (2009);
         "P. Giannozzi et al., J. Phys.:Condens. Matter 29 465901 (2017);
         "P. Giannozzi et al., J. Chem. Phys. 152 154105 (2020);
          URL http://www.quantum-espresso.org", 
     in publications or presentations arising from this work. More details at
     http://www.quantum-espresso.org/quote

     Parallel version (MPI & OpenMP), running on       6 processor cores
     Number of MPI processes:                 6
     Threads/MPI process:                     1

     MPI processes distributed on     1 nodes
     2086 MiB available memory on the printing compute node when the environment starts

     Reading input from pw.in

     Current dimensions of program PWSCF are:
     Max number of different atomic species (ntypx) = 10
     Max number of k-points (npk) =  40000
     Max angular momentum in pseudopotentials (lmaxx) =  4
     file Hg.pbe-spn-rrkjus_psl.1.0.0.UPF: wavefunction(s)  5P renormalized
     file Te.pbe-n-rrkjus_psl.1.0.0.UPF: wavefunction(s)  5S renormalized
     Message from routine setup:
     using ibrav=0 with symmetry is DISCOURAGED, use correct ibrav instead

     R & G space division:  proc/nbgrp/npool/nimage =       6
     Subspace diagonalization in iterative solution of the eigenvalue problem:
     a serial algorithm will be used


     Parallelization info
     --------------------
     sticks:   dense  smooth     PW     G-vecs:    dense   smooth      PW
     Min         255     171     51                 6614     3598     587
     Max         256     172     53                 6617     3601     588
     Sum        1531    1027    313                39693    21595    3527

     Using Slab Decomposition



     bravais-lattice index     =            0
     lattice parameter (alat)  =       8.6227  a.u.
     unit-cell volume          =     453.3375 (a.u.)^3
     number of atoms/cell      =            2
     number of atomic types    =            2
     number of electrons       =        26.00
     number of Kohn-Sham states=           13
     kinetic-energy cutoff     =      50.0000  Ry
     charge density cutoff     =     300.0000  Ry
     scf convergence threshold =      1.0E-10
     mixing beta               =       0.3000
     number of iterations used =            8  plain     mixing
     Exchange-correlation= PBE
                           (   1   4   3   4   0   0   0)

     celldm(1)=   8.622745  celldm(2)=   0.000000  celldm(3)=   0.000000
     celldm(4)=   0.000000  celldm(5)=   0.000000  celldm(6)=   0.000000

     crystal axes: (cart. coord. in units of alat)
               a(1) = (   0.000000   0.707107   0.707107 )  
               a(2) = (   0.707107   0.000000   0.707107 )  
               a(3) = (   0.707107   0.707107   0.000000 )  

     reciprocal axes: (cart. coord. in units 2 pi/alat)
               b(1) = ( -0.707107  0.707107  0.707107 )  
               b(2) = (  0.707107 -0.707107  0.707107 )  
               b(3) = (  0.707107  0.707107 -0.707107 )  


     PseudoPot. # 1 for Hg read from file:
     /home/User/opencode_workspace/DFT/pseudopotentials/Hg.pbe-spn-rrkjus_psl.1.0.0.UPF
     MD5 check sum: f568566075d917e14d67c96ef6763253
     Pseudo is Ultrasoft + core correction, Zval = 20.0
     Generated using &quot;atomic&quot; code by A. Dal Corso  v.6.3
     Using radial grid of 1279 points,  6 beta functions with: 
                l(1) =   0
                l(2) =   0
                l(3) =   1
                l(4) =   1
                l(5) =   2
                l(6) =   2
     Q(r) pseudized with 0 coefficients 


     PseudoPot. # 2 for Te read from file:
     /home/User/opencode_workspace/DFT/pseudopotentials/Te.pbe-n-rrkjus_psl.1.0.0.UPF
     MD5 check sum: 203a1e86ef55f0cd9de2762a27c58f54
     Pseudo is Ultrasoft + core correction, Zval =  6.0
     Generated using &quot;atomic&quot; code by A. Dal Corso  v.6.3
     Using radial grid of 1245 points,  6 beta functions with: 
                l(1) =   0
                l(2) =   0
                l(3) =   1
                l(4) =   1
                l(5) =   2
                l(6) =   2
     Q(r) pseudized with 0 coefficients 


     atomic species   valence    mass     pseudopotential
     Hg               20.00   200.59200     Hg( 1.00)
     Te                6.00   127.60000     Te( 1.00)

     24 Sym. Ops. (no inversion) found


                                    s                        frac. trans.

      isym =  1     identity                                     

 cryst.   s( 1) = (     1          0          0      )
                  (     0          1          0      )
                  (     0          0          1      )

 cart.    s( 1) = (  1.0000000  0.0000000  0.0000000 )
                  (  0.0000000  1.0000000  0.0000000 )
                  (  0.0000000  0.0000000  1.0000000 )


      isym =  2     180 deg rotation - cart. axis [0,0,1]        

 cryst.   s( 2) = (     0          1         -1      )
                  (     1          0         -1      )
                  (     0          0         -1      )

 cart.    s( 2) = ( -1.0000000  0.0000000  0.0000000 )
                  (  0.0000000 -1.0000000  0.0000000 )
                  (  0.0000000  0.0000000  1.0000000 )


      isym =  3     180 deg rotation - cart. axis [0,1,0]        

 cryst.   s( 3) = (     0         -1          1      )
                  (     0         -1          0      )
                  (     1         -1          0      )

 cart.    s( 3) = ( -1.0000000  0.0000000  0.0000000 )
                  (  0.0000000  1.0000000  0.0000000 )
                  (  0.0000000  0.0000000 -1.0000000 )


      isym =  4     180 deg rotation - cart. axis [1,0,0]        

 cryst.   s( 4) = (    -1          0          0      )
                  (    -1          0          1      )
                  (    -1          1          0      )

 cart.    s( 4) = (  1.0000000  0.0000000  0.0000000 )
                  (  0.0000000 -1.0000000  0.0000000 )
                  (  0.0000000  0.0000000 -1.0000000 )


      isym =  5     120 deg rotation - cart. axis [-1,-1,-1]     

 cryst.   s( 5) = (     0          0          1      )
                  (     1          0          0      )
                  (     0          1          0      )

 cart.    s( 5) = (  0.0000000  1.0000000  0.0000000 )
                  (  0.0000000  0.0000000  1.0000000 )
                  (  1.0000000  0.0000000  0.0000000 )


      isym =  6     120 deg rotation - cart. axis [-1,1,1]       

 cryst.   s( 6) = (     1         -1          0      )
                  (     0         -1          1      )
                  (     0         -1          0      )

 cart.    s( 6) = (  0.0000000 -1.0000000  0.0000000 )
                  (  0.0000000  0.0000000  1.0000000 )
                  ( -1.0000000  0.0000000  0.0000000 )


      isym =  7     120 deg rotation - cart. axis [1,1,-1]       

 cryst.   s( 7) = (    -1          1          0      )
                  (    -1          0          0      )
                  (    -1          0          1      )

 cart.    s( 7) = (  0.0000000  1.0000000  0.0000000 )
                  (  0.0000000  0.0000000 -1.0000000 )
                  ( -1.0000000  0.0000000  0.0000000 )


      isym =  8     120 deg rotation - cart. axis [1,-1,1]       

 cryst.   s( 8) = (     0          0         -1      )
                  (     0          1         -1      )
                  (     1          0         -1      )

 cart.    s( 8) = (  0.0000000 -1.0000000  0.0000000 )
                  (  0.0000000  0.0000000 -1.0000000 )
                  (  1.0000000  0.0000000  0.0000000 )


      isym =  9     120 deg rotation - cart. axis [1,1,1]        

 cryst.   s( 9) = (     0          1          0      )
                  (     0          0          1      )
                  (     1          0          0      )

 cart.    s( 9) = (  0.0000000  0.0000000  1.0000000 )
                  (  1.0000000  0.0000000  0.0000000 )
                  (  0.0000000  1.0000000  0.0000000 )


      isym = 10     120 deg rotation - cart. axis [-1,1,-1]      

 cryst.   s(10) = (    -1          0          1      )
                  (    -1          1          0      )
                  (    -1          0          0      )

 cart.    s(10) = (  0.0000000  0.0000000  1.0000000 )
                  ( -1.0000000  0.0000000  0.0000000 )
                  (  0.0000000 -1.0000000  0.0000000 )


      isym = 11     120 deg rotation - cart. axis [1,-1,-1]      

 cryst.   s(11) = (     1          0         -1      )
                  (     0          0         -1      )
                  (     0          1         -1      )

 cart.    s(11) = (  0.0000000  0.0000000 -1.0000000 )
                  ( -1.0000000  0.0000000  0.0000000 )
                  (  0.0000000  1.0000000  0.0000000 )


      isym = 12     120 deg rotation - cart. axis [-1,-1,1]      

 cryst.   s(12) = (     0         -1          0      )
                  (     1         -1          0      )
                  (     0         -1          1      )

 cart.    s(12) = (  0.0000000  0.0000000 -1.0000000 )
                  (  1.0000000  0.0000000  0.0000000 )
                  (  0.0000000 -1.0000000  0.0000000 )


      isym = 13     inv. 180 deg rotation - cart. axis [1,1,0]   

 cryst.   s(13) = (     1          0         -1      )
                  (     0          1         -1      )
                  (     0          0         -1      )

 cart.    s(13) = (  0.0000000 -1.0000000  0.0000000 )
                  ( -1.0000000  0.0000000  0.0000000 )
                  (  0.0000000  0.0000000  1.0000000 )


      isym = 14     inv. 180 deg rotation - cart. axis [1,-1,0]  

 cryst.   s(14) = (     0          1          0      )
                  (     1          0          0      )
                  (     0          0          1      )

 cart.    s(14) = (  0.0000000  1.0000000  0.0000000 )
                  (  1.0000000  0.0000000  0.0000000 )
                  (  0.0000000  0.0000000  1.0000000 )


      isym = 15     inv.  90 deg rotation - cart. axis [0,0,-1]  

 cryst.   s(15) = (     0         -1          0      )
                  (     0         -1          1      )
                  (     1         -1          0      )

 cart.    s(15) = (  0.0000000 -1.0000000  0.0000000 )
                  (  1.0000000  0.0000000  0.0000000 )
                  (  0.0000000  0.0000000 -1.0000000 )


      isym = 16     inv.  90 deg rotation - cart. axis [0,0,1]   

 cryst.   s(16) = (    -1          0          1      )
                  (    -1          0          0      )
                  (    -1          1          0      )

 cart.    s(16) = (  0.0000000  1.0000000  0.0000000 )
                  ( -1.0000000  0.0000000  0.0000000 )
                  (  0.0000000  0.0000000 -1.0000000 )


      isym = 17     inv. 180 deg rotation - cart. axis [1,0,1]   

 cryst.   s(17) = (     1         -1          0      )
                  (     0         -1          0      )
                  (     0         -1          1      )

 cart.    s(17) = (  0.0000000  0.0000000 -1.0000000 )
                  (  0.0000000  1.0000000  0.0000000 )
                  ( -1.0000000  0.0000000  0.0000000 )


      isym = 18     inv. 180 deg rotation - cart. axis [-1,0,1]  

 cryst.   s(18) = (     0          0          1      )
                  (     0          1          0      )
                  (     1          0          0      )

 cart.    s(18) = (  0.0000000  0.0000000  1.0000000 )
                  (  0.0000000  1.0000000  0.0000000 )
                  (  1.0000000  0.0000000  0.0000000 )


      isym = 19     inv.  90 deg rotation - cart. axis [0,1,0]   

 cryst.   s(19) = (     0          0         -1      )
                  (     1          0         -1      )
                  (     0          1         -1      )

 cart.    s(19) = (  0.0000000  0.0000000 -1.0000000 )
                  (  0.0000000 -1.0000000  0.0000000 )
                  (  1.0000000  0.0000000  0.0000000 )


      isym = 20     inv.  90 deg rotation - cart. axis [0,-1,0]  

 cryst.   s(20) = (    -1          1          0      )
                  (    -1          0          1      )
                  (    -1          0          0      )

 cart.    s(20) = (  0.0000000  0.0000000  1.0000000 )
                  (  0.0000000 -1.0000000  0.0000000 )
                  ( -1.0000000  0.0000000  0.0000000 )


      isym = 21     inv. 180 deg rotation - cart. axis [0,1,1]   

 cryst.   s(21) = (    -1          0          0      )
                  (    -1          1          0      )
                  (    -1          0          1      )

 cart.    s(21) = (  1.0000000  0.0000000  0.0000000 )
                  (  0.0000000  0.0000000 -1.0000000 )
                  (  0.0000000 -1.0000000  0.0000000 )


      isym = 22     inv. 180 deg rotation - cart. axis [0,1,-1]  

 cryst.   s(22) = (     1          0          0      )
                  (     0          0          1      )
                  (     0          1          0      )

 cart.    s(22) = (  1.0000000  0.0000000  0.0000000 )
                  (  0.0000000  0.0000000  1.0000000 )
                  (  0.0000000  1.0000000  0.0000000 )


      isym = 23     inv.  90 deg rotation - cart. axis [-1,0,0]  

 cryst.   s(23) = (     0          1         -1      )
                  (     0          0         -1      )
                  (     1          0         -1      )

 cart.    s(23) = ( -1.0000000  0.0000000  0.0000000 )
                  (  0.0000000  0.0000000 -1.0000000 )
                  (  0.0000000  1.0000000  0.0000000 )


      isym = 24     inv.  90 deg rotation - cart. axis [1,0,0]   

 cryst.   s(24) = (     0         -1          1      )
                  (     1         -1          0      )
                  (     0         -1          0      )

 cart.    s(24) = ( -1.0000000  0.0000000  0.0000000 )
                  (  0.0000000  0.0000000  1.0000000 )
                  (  0.0000000 -1.0000000  0.0000000 )


   Cartesian axes

     site n.     atom                  positions (alat units)
         1        Hg     tau(   1) = (   0.0000000   0.0000000   0.0000000  )
         2        Te     tau(   2) = (   0.3535534   0.3535534   0.3535534  )

   Crystallographic axes

     site n.     atom                  positions (cryst. coord.)
         1        Hg     tau(   1) = (  0.0000000  0.0000000  0.0000000  )
         2        Te     tau(   2) = (  0.2500000  0.2500000  0.2500000  )

     number of k points=    29
                       cart. coord. in units 2pi/alat
        k(    1) = (   0.0000000   0.0000000   0.0000000), wk =   0.0039062
        k(    2) = (   0.0883883   0.0883883  -0.0883883), wk =   0.0312500
        k(    3) = (   0.1767767   0.1767767  -0.1767767), wk =   0.0312500
        k(    4) = (   0.2651650   0.2651650  -0.2651650), wk =   0.0312500
        k(    5) = (  -0.3535534  -0.3535534   0.3535534), wk =   0.0156250
        k(    6) = (   0.1767767   0.0000000   0.0000000), wk =   0.0234375
        k(    7) = (   0.2651650   0.0883883  -0.0883883), wk =   0.0937500
        k(    8) = (   0.3535534   0.1767767  -0.1767767), wk =   0.0937500
        k(    9) = (  -0.2651650  -0.4419417   0.4419417), wk =   0.0937500
        k(   10) = (  -0.1767767  -0.3535534   0.3535534), wk =   0.0937500
        k(   11) = (  -0.0883883  -0.2651650   0.2651650), wk =   0.0937500
        k(   12) = (   0.0000000  -0.1767767   0.1767767), wk =   0.0468750
        k(   13) = (   0.3535534   0.0000000   0.0000000), wk =   0.0234375
        k(   14) = (   0.4419417   0.0883883  -0.0883883), wk =   0.0937500
        k(   15) = (  -0.1767767  -0.5303301   0.5303301), wk =   0.0937500
        k(   16) = (  -0.0883883  -0.4419417   0.4419417), wk =   0.0937500
        k(   17) = (   0.0000000  -0.3535534   0.3535534), wk =   0.0468750
        k(   18) = (   0.5303301   0.0000000   0.0000000), wk =   0.0234375
        k(   19) = (  -0.0883883  -0.6187184   0.6187184), wk =   0.0937500
        k(   20) = (   0.0000000  -0.5303301   0.5303301), wk =   0.0468750
        k(   21) = (  -0.7071068   0.0000000   0.0000000), wk =   0.0117188
        k(   22) = (   0.3535534   0.1767767   0.0000000), wk =   0.0937500
        k(   23) = (  -0.2651650  -0.4419417   0.6187184), wk =   0.1875000
        k(   24) = (  -0.1767767  -0.3535534   0.5303301), wk =   0.0937500
        k(   25) = (  -0.1767767  -0.5303301   0.7071068), wk =   0.0937500
        k(   26) = (  -0.0883883  -0.4419417   0.6187184), wk =   0.1875000
        k(   27) = (   0.0000000  -0.3535534   0.5303301), wk =   0.0937500
        k(   28) = (  -0.7071068   0.1767767   0.0000000), wk =   0.0468750
        k(   29) = (  -0.7071068   0.3535534   0.0000000), wk =   0.0234375

                       cryst. coord.
        k(    1) = (   0.0000000   0.0000000   0.0000000), wk =   0.0039062
        k(    2) = (   0.0000000   0.0000000   0.1250000), wk =   0.0312500
        k(    3) = (   0.0000000   0.0000000   0.2500000), wk =   0.0312500
        k(    4) = (   0.0000000   0.0000000   0.3750000), wk =   0.0312500
        k(    5) = (   0.0000000   0.0000000  -0.5000000), wk =   0.0156250
        k(    6) = (   0.0000000   0.1250000   0.1250000), wk =   0.0234375
        k(    7) = (   0.0000000   0.1250000   0.2500000), wk =   0.0937500
        k(    8) = (   0.0000000   0.1250000   0.3750000), wk =   0.0937500
        k(    9) = (   0.0000000   0.1250000  -0.5000000), wk =   0.0937500
        k(   10) = (   0.0000000   0.1250000  -0.3750000), wk =   0.0937500
        k(   11) = (   0.0000000   0.1250000  -0.2500000), wk =   0.0937500
        k(   12) = (   0.0000000   0.1250000  -0.1250000), wk =   0.0468750
        k(   13) = (   0.0000000   0.2500000   0.2500000), wk =   0.0234375
        k(   14) = (   0.0000000   0.2500000   0.3750000), wk =   0.0937500
        k(   15) = (   0.0000000   0.2500000  -0.5000000), wk =   0.0937500
        k(   16) = (   0.0000000   0.2500000  -0.3750000), wk =   0.0937500
        k(   17) = (   0.0000000   0.2500000  -0.2500000), wk =   0.0468750
        k(   18) = (   0.0000000   0.3750000   0.3750000), wk =   0.0234375
        k(   19) = (   0.0000000   0.3750000  -0.5000000), wk =   0.0937500
        k(   20) = (   0.0000000   0.3750000  -0.3750000), wk =   0.0468750
        k(   21) = (   0.0000000  -0.5000000  -0.5000000), wk =   0.0117188
        k(   22) = (   0.1250000   0.2500000   0.3750000), wk =   0.0937500
        k(   23) = (   0.1250000   0.2500000  -0.5000000), wk =   0.1875000
        k(   24) = (   0.1250000   0.2500000  -0.3750000), wk =   0.0937500
        k(   25) = (   0.1250000   0.3750000  -0.5000000), wk =   0.0937500
        k(   26) = (   0.1250000   0.3750000  -0.3750000), wk =   0.1875000
        k(   27) = (   0.1250000   0.3750000  -0.2500000), wk =   0.0937500
        k(   28) = (   0.1250000  -0.5000000  -0.3750000), wk =   0.0468750
        k(   29) = (   0.2500000  -0.5000000  -0.2500000), wk =   0.0234375

     Dense  grid:    39693 G-vectors     FFT dimensions: (  48,  48,  48)

     Smooth grid:    21595 G-vectors     FFT dimensions: (  40,  40,  40)

     Dynamical RAM for                 wfc:       0.09 MB

     Dynamical RAM for     wfc (w. buffer):       2.68 MB

     Dynamical RAM for           str. fact:       0.20 MB

     Dynamical RAM for           local pot:       0.00 MB

     Dynamical RAM for          nlocal pot:       0.25 MB

     Dynamical RAM for                qrad:       2.78 MB

     Dynamical RAM for          rho,v,vnew:       0.72 MB

     Dynamical RAM for               rhoin:       0.24 MB

     Dynamical RAM for            rho*nmix:       1.62 MB

     Dynamical RAM for           G-vectors:       0.41 MB

     Dynamical RAM for          h,s,v(r/c):       0.03 MB

     Dynamical RAM for          <psi|beta>:       0.01 MB

     Dynamical RAM for                 psi:       0.18 MB

     Dynamical RAM for                hpsi:       0.18 MB

     Dynamical RAM for                spsi:       0.18 MB

     Dynamical RAM for      wfcinit/wfcrot:       0.18 MB

     Dynamical RAM for           addusdens:      18.88 MB

     Estimated static dynamical RAM per process >       8.29 MB

     Estimated max dynamical RAM per process >      28.79 MB

     Estimated total dynamical RAM >     172.72 MB

     Initial potential from superposition of free atoms

     starting charge      25.9997, renormalised to      26.0000
     Starting wfcs are   14 randomized atomic wfcs

     total cpu time spent up to now is        0.9 secs

     per-process dynamical memory:    34.8 Mb

     Self-consistent Calculation

     iteration #  1     ecut=    50.00 Ry     beta= 0.30
     Davidson diagonalization with overlap

---- Real-time Memory Report at c_bands before calling an iterative solver
            77 MiB given to the printing process from OS
            34 MiB allocation reported by mallinfo(arena+hblkhd)
          1940 MiB available memory on the node where the printing process lives
------------------
     ethr =  1.00E-02,  avg # of iterations =  2.0

     Threshold (ethr) on eigenvalues was too large:
     Diagonalizing with lowered threshold

     Davidson diagonalization with overlap

---- Real-time Memory Report at c_bands before calling an iterative solver
            80 MiB given to the printing process from OS
            36 MiB allocation reported by mallinfo(arena+hblkhd)
          1936 MiB available memory on the node where the printing process lives
------------------
     ethr =  2.02E-04,  avg # of iterations =  4.0

     total cpu time spent up to now is        1.8 secs

     total energy              =    -346.17941060 Ry
     estimated scf accuracy    <       0.05326521 Ry

     iteration #  2     ecut=    50.00 Ry     beta= 0.30
     Davidson diagonalization with overlap

---- Real-time Memory Report at c_bands before calling an iterative solver
            80 MiB given to the printing process from OS
            37 MiB allocation reported by mallinfo(arena+hblkhd)
          1934 MiB available memory on the node where the printing process lives
------------------
     ethr =  2.05E-04,  avg # of iterations =  2.3

     total cpu time spent up to now is        2.3 secs

     total energy              =    -346.18491742 Ry
     estimated scf accuracy    <       0.00619320 Ry

     iteration #  3     ecut=    50.00 Ry     beta= 0.30
     Davidson diagonalization with overlap

---- Real-time Memory Report at c_bands before calling an iterative solver
            81 MiB given to the printing process from OS
            37 MiB allocation reported by mallinfo(arena+hblkhd)
          1934 MiB available memory on the node where the printing process lives
------------------
     ethr =  2.38E-05,  avg # of iterations =  2.8

     total cpu time spent up to now is        2.8 secs

     total energy              =    -346.18587313 Ry
     estimated scf accuracy    <       0.00138248 Ry

     iteration #  4     ecut=    50.00 Ry     beta= 0.30
     Davidson diagonalization with overlap

---- Real-time Memory Report at c_bands before calling an iterative solver
            81 MiB given to the printing process from OS
            37 MiB allocation reported by mallinfo(arena+hblkhd)
          1934 MiB available memory on the node where the printing process lives
------------------
     ethr =  5.32E-06,  avg # of iterations =  1.9

     total cpu time spent up to now is        3.2 secs

     total energy              =    -346.18598742 Ry
     estimated scf accuracy    <       0.00008034 Ry

     iteration #  5     ecut=    50.00 Ry     beta= 0.30
     Davidson diagonalization with overlap

---- Real-time Memory Report at c_bands before calling an iterative solver
            81 MiB given to the printing process from OS
            37 MiB allocation reported by mallinfo(arena+hblkhd)
          1935 MiB available memory on the node where the printing process lives
------------------
     ethr =  3.09E-07,  avg # of iterations =  3.9

     total cpu time spent up to now is        3.7 secs

     total energy              =    -346.18600588 Ry
     estimated scf accuracy    <       0.00001205 Ry

     iteration #  6     ecut=    50.00 Ry     beta= 0.30
     Davidson diagonalization with overlap

---- Real-time Memory Report at c_bands before calling an iterative solver
            81 MiB given to the printing process from OS
            37 MiB allocation reported by mallinfo(arena+hblkhd)
          1935 MiB available memory on the node where the printing process lives
------------------
     ethr =  4.63E-08,  avg # of iterations =  3.7

     total cpu time spent up to now is        4.2 secs

     total energy              =    -346.18601062 Ry
     estimated scf accuracy    <       0.00000129 Ry

     iteration #  7     ecut=    50.00 Ry     beta= 0.30
     Davidson diagonalization with overlap

---- Real-time Memory Report at c_bands before calling an iterative solver
            81 MiB given to the printing process from OS
            38 MiB allocation reported by mallinfo(arena+hblkhd)
          1934 MiB available memory on the node where the printing process lives
------------------
     ethr =  4.97E-09,  avg # of iterations =  2.5

     total cpu time spent up to now is        4.7 secs

     total energy              =    -346.18601166 Ry
     estimated scf accuracy    <       0.00000108 Ry

     iteration #  8     ecut=    50.00 Ry     beta= 0.30
     Davidson diagonalization with overlap

---- Real-time Memory Report at c_bands before calling an iterative solver
            81 MiB given to the printing process from OS
            38 MiB allocation reported by mallinfo(arena+hblkhd)
          1934 MiB available memory on the node where the printing process lives
------------------
     ethr =  4.15E-09,  avg # of iterations =  2.0

     total cpu time spent up to now is        5.1 secs

     total energy              =    -346.18601239 Ry
     estimated scf accuracy    <          8.0E-09 Ry

     iteration #  9     ecut=    50.00 Ry     beta= 0.30
     Davidson diagonalization with overlap

---- Real-time Memory Report at c_bands before calling an iterative solver
            81 MiB given to the printing process from OS
            38 MiB allocation reported by mallinfo(arena+hblkhd)
          1934 MiB available memory on the node where the printing process lives
------------------
     ethr =  3.08E-11,  avg # of iterations =  5.9

     total cpu time spent up to now is        5.8 secs

     total energy              =    -346.18601264 Ry
     estimated scf accuracy    <       0.00000002 Ry

     iteration # 10     ecut=    50.00 Ry     beta= 0.30
     Davidson diagonalization with overlap

---- Real-time Memory Report at c_bands before calling an iterative solver
            81 MiB given to the printing process from OS
            38 MiB allocation reported by mallinfo(arena+hblkhd)
          1934 MiB available memory on the node where the printing process lives
------------------
     ethr =  3.08E-11,  avg # of iterations =  4.0

     total cpu time spent up to now is        6.3 secs

     total energy              =    -346.18601277 Ry
     estimated scf accuracy    <          1.1E-09 Ry

     iteration # 11     ecut=    50.00 Ry     beta= 0.30
     Davidson diagonalization with overlap

---- Real-time Memory Report at c_bands before calling an iterative solver
            81 MiB given to the printing process from OS
            38 MiB allocation reported by mallinfo(arena+hblkhd)
          1934 MiB available memory on the node where the printing process lives
------------------
     ethr =  4.15E-12,  avg # of iterations =  4.8

     total cpu time spent up to now is        6.9 secs

     total energy              =    -346.18601282 Ry
     estimated scf accuracy    <          1.8E-09 Ry

     iteration # 12     ecut=    50.00 Ry     beta= 0.30
     Davidson diagonalization with overlap

---- Real-time Memory Report at c_bands before calling an iterative solver
            81 MiB given to the printing process from OS
            38 MiB allocation reported by mallinfo(arena+hblkhd)
          1934 MiB available memory on the node where the printing process lives
------------------
     ethr =  4.15E-12,  avg # of iterations =  3.9

     total cpu time spent up to now is        7.5 secs

     End of self-consistent calculation

          k = 0.0000 0.0000 0.0000 (  2733 PWs)   bands (ev):

  -107.6682 -55.9737 -55.9737 -55.9737  -4.5600   0.0937   0.0937   0.0937
     0.6303   0.6303   6.7480   7.4644   7.4644

     occupation numbers 
     1.0000   1.0000   1.0000   1.0000   1.0000   1.0000   1.0000   1.0000
     1.0000   1.0000   1.0000   1.0000   1.0000

          k = 0.0884 0.0884-0.0884 (  2710 PWs)   bands (ev):

  -107.6682 -55.9722 -55.9722 -55.9707  -4.4819   0.1155   0.1155   0.1226
     0.6283   0.6283   5.6161   7.2878   7.2878

     occupation numbers 
     1.0000   1.0000   1.0000   1.0000   1.0000   1.0000   1.0000   1.0000
     1.0000   1.0000   1.0000   1.0000   1.0000

          k = 0.1768 0.1768-0.1768 (  2710 PWs)   bands (ev):

  -107.6681 -55.9714 -55.9714 -55.9707  -4.2839   0.1642   0.1642   0.2522
     0.6300   0.6300   4.0828   6.9159   6.9159

     occupation numbers 
     1.0000   1.0000   1.0000   1.0000   1.0000   1.0000   1.0000   1.0000
     1.0000   1.0000   1.0000   1.0000   1.0000

          k = 0.2652 0.2652-0.2652 (  2707 PWs)   bands (ev):

  -107.6681 -55.9707 -55.9707 -55.9704  -4.0719   0.2048   0.2048   0.5764
     0.6436   0.6436   2.7015   6.5930   6.5930

     occupation numbers 
     1.0000   1.0000   1.0000   1.0000   1.0000   1.0000   1.0000   1.0000
     1.0000   1.0000   1.0000   1.0000   1.0000

          k =-0.3536-0.3536 0.3536 (  2692 PWs)   bands (ev):

  -107.6681 -55.9700 -55.9700 -55.9679  -3.9796   0.2185   0.2185   0.6537
     0.6537   0.9415   1.9434   6.4688   6.4688

     occupation numbers 
     1.0000   1.0000   1.0000   1.0000   1.0000   1.0000   1.0000   1.0000
     1.0000   1.0000   1.0000   1.0000   1.0000

          k = 0.1768 0.0000 0.0000 (  2705 PWs)   bands (ev):

  -107.6682 -55.9718 -55.9718 -55.9701  -4.4556   0.1044   0.1365   0.1365
     0.6149   0.6401   5.5311   7.0013   7.0013

     occupation numbers 
     1.0000   1.0000   1.0000   1.0000   1.0000   1.0000   1.0000   1.0000
     1.0000   1.0000   1.0000   1.0000   1.0000

          k = 0.2652 0.0884-0.0884 (  2709 PWs)   bands (ev):

  -107.6681 -55.9719 -55.9718 -55.9696  -4.2967   0.1452   0.1884   0.2159
     0.6087   0.6487   4.4181   6.5837   6.5911

     occupation numbers 
     1.0000   1.0000   1.0000   1.0000   1.0000   1.0000   1.0000   1.0000
     1.0000   1.0000   1.0000   1.0000   1.0000

          k = 0.3536 0.1768-0.1768 (  2694 PWs)   bands (ev):

  -107.6681 -55.9701 -55.9700 -55.9692  -4.0867   0.1992   0.2346   0.4341
     0.6453   0.6580   3.1023   6.1037   6.2967

     occupation numbers 
     1.0000   1.0000   1.0000   1.0000   1.0000   1.0000   1.0000   1.0000
     1.0000   1.0000   1.0000   1.0000   1.0000

          k =-0.2652-0.4419 0.4419 (  2706 PWs)   bands (ev):

  -107.6681 -55.9716 -55.9706 -55.9693  -3.9517   0.2275   0.2506   0.6099
     0.6566   0.9115   2.1095   5.7521   6.2454

     occupation numbers 
     1.0000   1.0000   1.0000   1.0000   1.0000   1.0000   1.0000   1.0000
     1.0000   1.0000   1.0000   1.0000   1.0000

          k =-0.1768-0.3536 0.3536 (  2704 PWs)   bands (ev):

  -107.6681 -55.9707 -55.9706 -55.9698  -3.9827   0.2309   0.2355   0.6187
     0.6344   0.7855   2.3701   5.6568   6.4588

     occupation numbers 
     1.0000   1.0000   1.0000   1.0000   1.0000   1.0000   1.0000   1.0000
     1.0000   1.0000   1.0000   1.0000   1.0000

          k =-0.0884-0.2652 0.2652 (  2705 PWs)   bands (ev):

  -107.6681 -55.9714 -55.9704 -55.9700  -4.1580   0.1922   0.2079   0.3563
     0.6136   0.6594   3.5231   5.8897   6.8485

     occupation numbers 
     1.0000   1.0000   1.0000   1.0000   1.0000   1.0000   1.0000   1.0000
     1.0000   1.0000   1.0000   1.0000   1.0000

          k = 0.0000-0.1768 0.1768 (  2721 PWs)   bands (ev):

  -107.6682 -55.9723 -55.9722 -55.9719  -4.3632   0.1403   0.1561   0.1803
     0.6147   0.6406   4.7683   6.5071   7.2138

     occupation numbers 
     1.0000   1.0000   1.0000   1.0000   1.0000   1.0000   1.0000   1.0000
     1.0000   1.0000   1.0000   1.0000   1.0000

          k = 0.3536 0.0000 0.0000 (  2706 PWs)   bands (ev):

  -107.6681 -55.9712 -55.9712 -55.9700  -4.1894   0.1635   0.2497   0.2497
     0.6030   0.6639   4.0754   6.1373   6.1373

     occupation numbers 
     1.0000   1.0000   1.0000   1.0000   1.0000   1.0000   1.0000   1.0000
     1.0000   1.0000   1.0000   1.0000   1.0000

          k = 0.4419 0.0884-0.0884 (  2713 PWs)   bands (ev):

  -107.6681 -55.9717 -55.9709 -55.9708  -4.0176   0.2229   0.3080   0.3572
     0.6686   0.6738   3.2024   5.5957   5.8151

     occupation numbers 
     1.0000   1.0000   1.0000   1.0000   1.0000   1.0000   1.0000   1.0000
     1.0000   1.0000   1.0000   1.0000   1.0000

          k =-0.1768-0.5303 0.5303 (  2708 PWs)   bands (ev):

  -107.6681 -55.9717 -55.9708 -55.9698  -3.8816   0.2578   0.3301   0.5033
     0.6670   0.9210   2.3318   5.0116   5.7656

     occupation numbers 
     1.0000   1.0000   1.0000   1.0000   1.0000   1.0000   1.0000   1.0000
     1.0000   1.0000   1.0000   1.0000   1.0000

          k =-0.0884-0.4419 0.4419 (  2709 PWs)   bands (ev):

  -107.6681 -55.9712 -55.9711 -55.9702  -3.8683   0.2636   0.3098   0.5906
     0.6378   0.9978   2.1638   4.7144   6.0115

     occupation numbers 
     1.0000   1.0000   1.0000   1.0000   1.0000   1.0000   1.0000   1.0000
     1.0000   1.0000   1.0000   1.0000   1.0000

          k = 0.0000-0.3536 0.3536 (  2700 PWs)   bands (ev):

  -107.6681 -55.9705 -55.9704 -55.9698  -3.9857   0.2500   0.2542   0.5394
     0.6133   0.7242   2.8446   4.9573   6.4489

     occupation numbers 
     1.0000   1.0000   1.0000   1.0000   1.0000   1.0000   1.0000   1.0000
     1.0000   1.0000   1.0000   1.0000   1.0000

          k = 0.5303 0.0000 0.0000 (  2722 PWs)   bands (ev):

  -107.6681 -55.9720 -55.9720 -55.9711  -3.9015   0.2505   0.3805   0.3805
     0.6878   0.7624   2.7589   5.4383   5.4383

     occupation numbers 
     1.0000   1.0000   1.0000   1.0000   1.0000   1.0000   1.0000   1.0000
     1.0000   1.0000   1.0000   1.0000   1.0000

          k =-0.0884-0.6187 0.6187 (  2711 PWs)   bands (ev):

  -107.6681 -55.9719 -55.9710 -55.9697  -3.8076   0.2790   0.4097   0.4395
     0.6856   1.0093   2.1943   4.9839   5.3397

     occupation numbers 
     1.0000   1.0000   1.0000   1.0000   1.0000   1.0000   1.0000   1.0000
     1.0000   1.0000   1.0000   1.0000   1.0000

          k = 0.0000-0.5303 0.5303 (  2702 PWs)   bands (ev):

  -107.6681 -55.9708 -55.9704 -55.9693  -3.7945   0.2857   0.3824   0.5175
     0.6600   1.1793   1.9694   4.5291   5.5628

     occupation numbers 
     1.0000   1.0000   1.0000   1.0000   1.0000   1.0000   1.0000   1.0000
     1.0000   1.0000   1.0000   1.0000   1.0000

          k =-0.7071 0.0000 0.0000 (  2698 PWs)   bands (ev):

  -107.6681 -55.9709 -55.9709 -55.9678  -3.7756   0.2698   0.4413   0.4413
     0.6977   1.0927   2.0014   5.1734   5.1734

     occupation numbers 
     1.0000   1.0000   1.0000   1.0000   1.0000   1.0000   1.0000   1.0000
     1.0000   1.0000   1.0000   1.0000   1.0000

          k = 0.3536 0.1768 0.0000 (  2714 PWs)   bands (ev):

  -107.6681 -55.9722 -55.9711 -55.9706  -4.1303   0.1951   0.2432   0.3252
     0.6173   0.6658   3.6225   5.6729   6.4347

     occupation numbers 
     1.0000   1.0000   1.0000   1.0000   1.0000   1.0000   1.0000   1.0000
     1.0000   1.0000   1.0000   1.0000   1.0000

          k =-0.2652-0.4419 0.6187 (  2711 PWs)   bands (ev):

  -107.6681 -55.9717 -55.9709 -55.9704  -3.9553   0.2478   0.2780   0.5146
     0.6508   0.7702   2.6577   5.1495   6.0842

     occupation numbers 
     1.0000   1.0000   1.0000   1.0000   1.0000   1.0000   1.0000   1.0000
     1.0000   1.0000   1.0000   1.0000   1.0000

          k =-0.1768-0.3536 0.5303 (  2710 PWs)   bands (ev):

  -107.6681 -55.9712 -55.9707 -55.9707  -3.8803   0.2609   0.2937   0.5943
     0.6386   1.0217   2.0778   5.0077   5.9124

     occupation numbers 
     1.0000   1.0000   1.0000   1.0000   1.0000   1.0000   1.0000   1.0000
     1.0000   1.0000   1.0000   1.0000   1.0000

          k =-0.1768-0.5303 0.7071 (  2707 PWs)   bands (ev):

  -107.6681 -55.9710 -55.9709 -55.9701  -3.8830   0.2756   0.3414   0.4444
     0.6727   0.8428   2.5745   5.0861   5.5005

     occupation numbers 
     1.0000   1.0000   1.0000   1.0000   1.0000   1.0000   1.0000   1.0000
     1.0000   1.0000   1.0000   1.0000   1.0000

          k =-0.0884-0.4419 0.6187 (  2700 PWs)   bands (ev):

  -107.6681 -55.9708 -55.9702 -55.9694  -3.8077   0.2977   0.3560   0.5341
     0.6433   1.1253   2.0567   4.6780   5.3695

     occupation numbers 
     1.0000   1.0000   1.0000   1.0000   1.0000   1.0000   1.0000   1.0000
     1.0000   1.0000   1.0000   1.0000   1.0000

          k = 0.0000-0.3536 0.5303 (  2709 PWs)   bands (ev):

  -107.6681 -55.9713 -55.9707 -55.9706  -3.8386   0.2928   0.3231   0.5754
     0.6242   1.0258   2.2008   4.5940   5.6497

     occupation numbers 
     1.0000   1.0000   1.0000   1.0000   1.0000   1.0000   1.0000   1.0000
     1.0000   1.0000   1.0000   1.0000   1.0000

          k =-0.7071 0.1768 0.0000 (  2708 PWs)   bands (ev):

  -107.6681 -55.9720 -55.9701 -55.9698  -3.7763   0.2986   0.4014   0.4780
     0.6721   1.1794   1.9557   4.9673   5.0269

     occupation numbers 
     1.0000   1.0000   1.0000   1.0000   1.0000   1.0000   1.0000   1.0000
     1.0000   1.0000   1.0000   1.0000   1.0000

          k =-0.7071 0.3536 0.0000 (  2720 PWs)   bands (ev):

  -107.6681 -55.9718 -55.9717 -55.9716  -3.7770   0.3200   0.3681   0.5788
     0.5922   1.2626   1.9066   4.7775   4.8987

     occupation numbers 
     1.0000   1.0000   1.0000   1.0000   1.0000   1.0000   1.0000   1.0000
     1.0000   1.0000   1.0000   1.0000   1.0000

     highest occupied level (ev):     7.4644

!    total energy              =    -346.18601288 Ry
     estimated scf accuracy    <          3.0E-11 Ry

     The total energy is the sum of the following terms:
     one-electron contribution =    -226.95209849 Ry
     hartree contribution      =     116.20105385 Ry
     xc contribution           =     -55.72428013 Ry
     ewald contribution        =    -179.71068811 Ry

     convergence has been achieved in  12 iterations

     Writing all to output data dir /home/User/opencode_workspace/DFT/calculations/hgte/conv_scf_e50/out/pwscf.save/ :
     XML data file, charge density, pseudopotentials, collected wavefunctions

     init_run     :      0.61s CPU      0.67s WALL (       1 calls)
     electrons    :      5.63s CPU      6.60s WALL (       1 calls)

     Called by init_run:
     wfcinit      :      0.10s CPU      0.13s WALL (       1 calls)
     wfcinit:atom :      0.00s CPU      0.00s WALL (      29 calls)
     wfcinit:wfcr :      0.09s CPU      0.12s WALL (      29 calls)
     potinit      :      0.15s CPU      0.15s WALL (       1 calls)
     hinit0       :      0.29s CPU      0.30s WALL (       1 calls)

     Called by electrons:
     c_bands      :      4.09s CPU      4.89s WALL (      13 calls)
     sum_band     :      1.09s CPU      1.24s WALL (      13 calls)
     v_of_rho     :      0.09s CPU      0.09s WALL (      13 calls)
     v_h          :      0.00s CPU      0.01s WALL (      13 calls)
     v_xc         :      0.08s CPU      0.09s WALL (      13 calls)
     newd         :      0.39s CPU      0.41s WALL (      13 calls)
     mix_rho      :      0.01s CPU      0.01s WALL (      13 calls)

     Called by c_bands:
     init_us_2    :      0.09s CPU      0.11s WALL (     783 calls)
     cegterg      :      3.89s CPU      4.67s WALL (     377 calls)

     Called by sum_band:
     sum_band:wei :      0.00s CPU      0.00s WALL (      13 calls)
     sum_band:loo :      0.63s CPU      0.77s WALL (      13 calls)
     sum_band:buf :      0.00s CPU      0.00s WALL (     377 calls)
     sum_band:ini :      0.04s CPU      0.05s WALL (     377 calls)
     sum_band:cal :      0.04s CPU      0.05s WALL (     377 calls)
     sum_band:bec :      0.00s CPU      0.01s WALL (     377 calls)
     addusdens    :      0.39s CPU      0.39s WALL (      13 calls)
                                        0.00s GPU  (      13 calls)
     addusd:skk   :      0.00s CPU      0.00s WALL (      26 calls)
                                        0.00s GPU  (      26 calls)

     Called by *egterg:
     cdiaghg      :      0.23s CPU      0.26s WALL (    1616 calls)
     cegterg:over :      0.13s CPU      0.15s WALL (    1268 calls)
     cegterg:upda :      0.04s CPU      0.05s WALL (    1268 calls)
     cegterg:last :      0.07s CPU      0.08s WALL (     861 calls)
     h_psi        :      3.33s CPU      4.04s WALL (    1674 calls)
     s_psi        :      0.05s CPU      0.06s WALL (    1674 calls)
     g_psi        :      0.02s CPU      0.03s WALL (    1268 calls)

     Called by h_psi:
     h_psi:calbec :      0.15s CPU      0.18s WALL (    1674 calls)
     vloc_psi     :      3.09s CPU      3.75s WALL (    1674 calls)
                                        0.00s GPU  (    1674 calls)
     add_vuspsi   :      0.06s CPU      0.08s WALL (    1674 calls)

     General routines
     calbec       :      0.19s CPU      0.23s WALL (    2051 calls)
     fft          :      0.23s CPU      0.24s WALL (     168 calls)
     ffts         :      0.14s CPU      0.14s WALL (      26 calls)
     fftw         :      3.36s CPU      4.09s WALL (   33759 calls)
     interpolate  :      0.14s CPU      0.14s WALL (      13 calls)

     Parallel routines

     PWSCF        :      6.49s CPU      7.56s WALL


   This run was terminated on:  19:14:47  22Sep2026            

=------------------------------------------------------------------------------=
   JOB DONE.
=------------------------------------------------------------------------------=
