
     Program PWSCF v.7.5 starts on 22Sep2026 at 19: 3:45 

     This program is part of the open-source Quantum ESPRESSO suite
     for quantum simulation of materials; please cite
         "P. Giannozzi et al., J. Phys.:Condens. Matter 21 395502 (2009);
         "P. Giannozzi et al., J. Phys.:Condens. Matter 29 465901 (2017);
         "P. Giannozzi et al., J. Chem. Phys. 152 154105 (2020);
          URL http://www.quantum-espresso.org", 
     in publications or presentations arising from this work. More details at
     http://www.quantum-espresso.org/quote

     Parallel version (MPI & OpenMP), running on       6 processor cores
     Number of MPI processes:                 6
     Threads/MPI process:                     1

     MPI processes distributed on     1 nodes
     2841 MiB available memory on the printing compute node when the environment starts

     Reading input from pw.in

     Current dimensions of program PWSCF are:
     Max number of different atomic species (ntypx) = 10
     Max number of k-points (npk) =  40000
     Max angular momentum in pseudopotentials (lmaxx) =  4
     file Cd.pbe-n-rrkjus_psl.1.0.0.UPF: wavefunction(s)  4D renormalized
     file Te.pbe-n-rrkjus_psl.1.0.0.UPF: wavefunction(s)  5S renormalized
     Message from routine setup:
     using ibrav=0 with symmetry is DISCOURAGED, use correct ibrav instead

     R & G space division:  proc/nbgrp/npool/nimage =       6
     Subspace diagonalization in iterative solution of the eigenvalue problem:
     a serial algorithm will be used


     Parallelization info
     --------------------
     sticks:   dense  smooth     PW     G-vecs:    dense   smooth      PW
     Min         413     275     79                13591     7399    1122
     Max         417     276     80                13592     7401    1123
     Sum        2491    1651    475                81547    44399    6735

     Using Slab Decomposition



     bravais-lattice index     =            0
     lattice parameter (alat)  =       8.6615  a.u.
     unit-cell volume          =     459.4769 (a.u.)^3
     number of atoms/cell      =            2
     number of atomic types    =            2
     number of electrons       =        18.00
     number of Kohn-Sham states=            9
     kinetic-energy cutoff     =      80.0000  Ry
     charge density cutoff     =     480.0000  Ry
     scf convergence threshold =      1.0E-10
     mixing beta               =       0.3000
     number of iterations used =            8  plain     mixing
     Exchange-correlation= PBE
                           (   1   4   3   4   0   0   0)

     celldm(1)=   8.661496  celldm(2)=   0.000000  celldm(3)=   0.000000
     celldm(4)=   0.000000  celldm(5)=   0.000000  celldm(6)=   0.000000

     crystal axes: (cart. coord. in units of alat)
               a(1) = (   0.000000   0.707107   0.707107 )  
               a(2) = (   0.707107   0.000000   0.707107 )  
               a(3) = (   0.707107   0.707107   0.000000 )  

     reciprocal axes: (cart. coord. in units 2 pi/alat)
               b(1) = ( -0.707107  0.707107  0.707107 )  
               b(2) = (  0.707107 -0.707107  0.707107 )  
               b(3) = (  0.707107  0.707107 -0.707107 )  


     PseudoPot. # 1 for Cd read from file:
     /home/User/opencode_workspace/DFT/pseudopotentials/Cd.pbe-n-rrkjus_psl.1.0.0.UPF
     MD5 check sum: a744746c89d2344a134ead0d8ab94e7a
     Pseudo is Ultrasoft + core correction, Zval = 12.0
     Generated using &quot;atomic&quot; code by A. Dal Corso  v.6.3
     Using radial grid of 1239 points,  6 beta functions with: 
                l(1) =   0
                l(2) =   0
                l(3) =   1
                l(4) =   1
                l(5) =   2
                l(6) =   2
     Q(r) pseudized with 0 coefficients 


     PseudoPot. # 2 for Te read from file:
     /home/User/opencode_workspace/DFT/pseudopotentials/Te.pbe-n-rrkjus_psl.1.0.0.UPF
     MD5 check sum: 203a1e86ef55f0cd9de2762a27c58f54
     Pseudo is Ultrasoft + core correction, Zval =  6.0
     Generated using &quot;atomic&quot; code by A. Dal Corso  v.6.3
     Using radial grid of 1245 points,  6 beta functions with: 
                l(1) =   0
                l(2) =   0
                l(3) =   1
                l(4) =   1
                l(5) =   2
                l(6) =   2
     Q(r) pseudized with 0 coefficients 


     atomic species   valence    mass     pseudopotential
     Cd               12.00   112.41400     Cd( 1.00)
     Te                6.00   127.60000     Te( 1.00)

     24 Sym. Ops. (no inversion) found


                                    s                        frac. trans.

      isym =  1     identity                                     

 cryst.   s( 1) = (     1          0          0      )
                  (     0          1          0      )
                  (     0          0          1      )

 cart.    s( 1) = (  1.0000000  0.0000000  0.0000000 )
                  (  0.0000000  1.0000000  0.0000000 )
                  (  0.0000000  0.0000000  1.0000000 )


      isym =  2     180 deg rotation - cart. axis [0,0,1]        

 cryst.   s( 2) = (     0          1         -1      )
                  (     1          0         -1      )
                  (     0          0         -1      )

 cart.    s( 2) = ( -1.0000000  0.0000000  0.0000000 )
                  (  0.0000000 -1.0000000  0.0000000 )
                  (  0.0000000  0.0000000  1.0000000 )


      isym =  3     180 deg rotation - cart. axis [0,1,0]        

 cryst.   s( 3) = (     0         -1          1      )
                  (     0         -1          0      )
                  (     1         -1          0      )

 cart.    s( 3) = ( -1.0000000  0.0000000  0.0000000 )
                  (  0.0000000  1.0000000  0.0000000 )
                  (  0.0000000  0.0000000 -1.0000000 )


      isym =  4     180 deg rotation - cart. axis [1,0,0]        

 cryst.   s( 4) = (    -1          0          0      )
                  (    -1          0          1      )
                  (    -1          1          0      )

 cart.    s( 4) = (  1.0000000  0.0000000  0.0000000 )
                  (  0.0000000 -1.0000000  0.0000000 )
                  (  0.0000000  0.0000000 -1.0000000 )


      isym =  5     120 deg rotation - cart. axis [-1,-1,-1]     

 cryst.   s( 5) = (     0          0          1      )
                  (     1          0          0      )
                  (     0          1          0      )

 cart.    s( 5) = (  0.0000000  1.0000000  0.0000000 )
                  (  0.0000000  0.0000000  1.0000000 )
                  (  1.0000000  0.0000000  0.0000000 )


      isym =  6     120 deg rotation - cart. axis [-1,1,1]       

 cryst.   s( 6) = (     1         -1          0      )
                  (     0         -1          1      )
                  (     0         -1          0      )

 cart.    s( 6) = (  0.0000000 -1.0000000  0.0000000 )
                  (  0.0000000  0.0000000  1.0000000 )
                  ( -1.0000000  0.0000000  0.0000000 )


      isym =  7     120 deg rotation - cart. axis [1,1,-1]       

 cryst.   s( 7) = (    -1          1          0      )
                  (    -1          0          0      )
                  (    -1          0          1      )

 cart.    s( 7) = (  0.0000000  1.0000000  0.0000000 )
                  (  0.0000000  0.0000000 -1.0000000 )
                  ( -1.0000000  0.0000000  0.0000000 )


      isym =  8     120 deg rotation - cart. axis [1,-1,1]       

 cryst.   s( 8) = (     0          0         -1      )
                  (     0          1         -1      )
                  (     1          0         -1      )

 cart.    s( 8) = (  0.0000000 -1.0000000  0.0000000 )
                  (  0.0000000  0.0000000 -1.0000000 )
                  (  1.0000000  0.0000000  0.0000000 )


      isym =  9     120 deg rotation - cart. axis [1,1,1]        

 cryst.   s( 9) = (     0          1          0      )
                  (     0          0          1      )
                  (     1          0          0      )

 cart.    s( 9) = (  0.0000000  0.0000000  1.0000000 )
                  (  1.0000000  0.0000000  0.0000000 )
                  (  0.0000000  1.0000000  0.0000000 )


      isym = 10     120 deg rotation - cart. axis [-1,1,-1]      

 cryst.   s(10) = (    -1          0          1      )
                  (    -1          1          0      )
                  (    -1          0          0      )

 cart.    s(10) = (  0.0000000  0.0000000  1.0000000 )
                  ( -1.0000000  0.0000000  0.0000000 )
                  (  0.0000000 -1.0000000  0.0000000 )


      isym = 11     120 deg rotation - cart. axis [1,-1,-1]      

 cryst.   s(11) = (     1          0         -1      )
                  (     0          0         -1      )
                  (     0          1         -1      )

 cart.    s(11) = (  0.0000000  0.0000000 -1.0000000 )
                  ( -1.0000000  0.0000000  0.0000000 )
                  (  0.0000000  1.0000000  0.0000000 )


      isym = 12     120 deg rotation - cart. axis [-1,-1,1]      

 cryst.   s(12) = (     0         -1          0      )
                  (     1         -1          0      )
                  (     0         -1          1      )

 cart.    s(12) = (  0.0000000  0.0000000 -1.0000000 )
                  (  1.0000000  0.0000000  0.0000000 )
                  (  0.0000000 -1.0000000  0.0000000 )


      isym = 13     inv. 180 deg rotation - cart. axis [1,1,0]   

 cryst.   s(13) = (     1          0         -1      )
                  (     0          1         -1      )
                  (     0          0         -1      )

 cart.    s(13) = (  0.0000000 -1.0000000  0.0000000 )
                  ( -1.0000000  0.0000000  0.0000000 )
                  (  0.0000000  0.0000000  1.0000000 )


      isym = 14     inv. 180 deg rotation - cart. axis [1,-1,0]  

 cryst.   s(14) = (     0          1          0      )
                  (     1          0          0      )
                  (     0          0          1      )

 cart.    s(14) = (  0.0000000  1.0000000  0.0000000 )
                  (  1.0000000  0.0000000  0.0000000 )
                  (  0.0000000  0.0000000  1.0000000 )


      isym = 15     inv.  90 deg rotation - cart. axis [0,0,-1]  

 cryst.   s(15) = (     0         -1          0      )
                  (     0         -1          1      )
                  (     1         -1          0      )

 cart.    s(15) = (  0.0000000 -1.0000000  0.0000000 )
                  (  1.0000000  0.0000000  0.0000000 )
                  (  0.0000000  0.0000000 -1.0000000 )


      isym = 16     inv.  90 deg rotation - cart. axis [0,0,1]   

 cryst.   s(16) = (    -1          0          1      )
                  (    -1          0          0      )
                  (    -1          1          0      )

 cart.    s(16) = (  0.0000000  1.0000000  0.0000000 )
                  ( -1.0000000  0.0000000  0.0000000 )
                  (  0.0000000  0.0000000 -1.0000000 )


      isym = 17     inv. 180 deg rotation - cart. axis [1,0,1]   

 cryst.   s(17) = (     1         -1          0      )
                  (     0         -1          0      )
                  (     0         -1          1      )

 cart.    s(17) = (  0.0000000  0.0000000 -1.0000000 )
                  (  0.0000000  1.0000000  0.0000000 )
                  ( -1.0000000  0.0000000  0.0000000 )


      isym = 18     inv. 180 deg rotation - cart. axis [-1,0,1]  

 cryst.   s(18) = (     0          0          1      )
                  (     0          1          0      )
                  (     1          0          0      )

 cart.    s(18) = (  0.0000000  0.0000000  1.0000000 )
                  (  0.0000000  1.0000000  0.0000000 )
                  (  1.0000000  0.0000000  0.0000000 )


      isym = 19     inv.  90 deg rotation - cart. axis [0,1,0]   

 cryst.   s(19) = (     0          0         -1      )
                  (     1          0         -1      )
                  (     0          1         -1      )

 cart.    s(19) = (  0.0000000  0.0000000 -1.0000000 )
                  (  0.0000000 -1.0000000  0.0000000 )
                  (  1.0000000  0.0000000  0.0000000 )


      isym = 20     inv.  90 deg rotation - cart. axis [0,-1,0]  

 cryst.   s(20) = (    -1          1          0      )
                  (    -1          0          1      )
                  (    -1          0          0      )

 cart.    s(20) = (  0.0000000  0.0000000  1.0000000 )
                  (  0.0000000 -1.0000000  0.0000000 )
                  ( -1.0000000  0.0000000  0.0000000 )


      isym = 21     inv. 180 deg rotation - cart. axis [0,1,1]   

 cryst.   s(21) = (    -1          0          0      )
                  (    -1          1          0      )
                  (    -1          0          1      )

 cart.    s(21) = (  1.0000000  0.0000000  0.0000000 )
                  (  0.0000000  0.0000000 -1.0000000 )
                  (  0.0000000 -1.0000000  0.0000000 )


      isym = 22     inv. 180 deg rotation - cart. axis [0,1,-1]  

 cryst.   s(22) = (     1          0          0      )
                  (     0          0          1      )
                  (     0          1          0      )

 cart.    s(22) = (  1.0000000  0.0000000  0.0000000 )
                  (  0.0000000  0.0000000  1.0000000 )
                  (  0.0000000  1.0000000  0.0000000 )


      isym = 23     inv.  90 deg rotation - cart. axis [-1,0,0]  

 cryst.   s(23) = (     0          1         -1      )
                  (     0          0         -1      )
                  (     1          0         -1      )

 cart.    s(23) = ( -1.0000000  0.0000000  0.0000000 )
                  (  0.0000000  0.0000000 -1.0000000 )
                  (  0.0000000  1.0000000  0.0000000 )


      isym = 24     inv.  90 deg rotation - cart. axis [1,0,0]   

 cryst.   s(24) = (     0         -1          1      )
                  (     1         -1          0      )
                  (     0         -1          0      )

 cart.    s(24) = ( -1.0000000  0.0000000  0.0000000 )
                  (  0.0000000  0.0000000  1.0000000 )
                  (  0.0000000 -1.0000000  0.0000000 )


   Cartesian axes

     site n.     atom                  positions (alat units)
         1        Cd     tau(   1) = (   0.0000000   0.0000000   0.0000000  )
         2        Te     tau(   2) = (   0.3535534   0.3535534   0.3535534  )

   Crystallographic axes

     site n.     atom                  positions (cryst. coord.)
         1        Cd     tau(   1) = (  0.0000000  0.0000000  0.0000000  )
         2        Te     tau(   2) = (  0.2500000  0.2500000  0.2500000  )

     number of k points=     8
                       cart. coord. in units 2pi/alat
        k(    1) = (   0.0000000   0.0000000   0.0000000), wk =   0.0312500
        k(    2) = (   0.1767767   0.1767767  -0.1767767), wk =   0.2500000
        k(    3) = (  -0.3535534  -0.3535534   0.3535534), wk =   0.1250000
        k(    4) = (   0.3535534   0.0000000   0.0000000), wk =   0.1875000
        k(    5) = (  -0.1767767  -0.5303301   0.5303301), wk =   0.7500000
        k(    6) = (   0.0000000  -0.3535534   0.3535534), wk =   0.3750000
        k(    7) = (  -0.7071068   0.0000000   0.0000000), wk =   0.0937500
        k(    8) = (  -0.7071068   0.3535534   0.0000000), wk =   0.1875000

                       cryst. coord.
        k(    1) = (   0.0000000   0.0000000   0.0000000), wk =   0.0312500
        k(    2) = (   0.0000000   0.0000000   0.2500000), wk =   0.2500000
        k(    3) = (   0.0000000   0.0000000  -0.5000000), wk =   0.1250000
        k(    4) = (   0.0000000   0.2500000   0.2500000), wk =   0.1875000
        k(    5) = (   0.0000000   0.2500000  -0.5000000), wk =   0.7500000
        k(    6) = (   0.0000000   0.2500000  -0.2500000), wk =   0.3750000
        k(    7) = (   0.0000000  -0.5000000  -0.5000000), wk =   0.0937500
        k(    8) = (   0.2500000  -0.5000000  -0.2500000), wk =   0.1875000

     Dense  grid:    81547 G-vectors     FFT dimensions: (  64,  64,  64)

     Smooth grid:    44399 G-vectors     FFT dimensions: (  50,  50,  50)

     Dynamical RAM for                 wfc:       0.13 MB

     Dynamical RAM for     wfc (w. buffer):       1.14 MB

     Dynamical RAM for           str. fact:       0.41 MB

     Dynamical RAM for           local pot:       0.00 MB

     Dynamical RAM for          nlocal pot:       0.51 MB

     Dynamical RAM for                qrad:       3.52 MB

     Dynamical RAM for          rho,v,vnew:       1.65 MB

     Dynamical RAM for               rhoin:       0.55 MB

     Dynamical RAM for            rho*nmix:       3.32 MB

     Dynamical RAM for           G-vectors:       0.83 MB

     Dynamical RAM for          h,s,v(r/c):       0.01 MB

     Dynamical RAM for          <psi|beta>:       0.00 MB

     Dynamical RAM for                 psi:       0.25 MB

     Dynamical RAM for                hpsi:       0.25 MB

     Dynamical RAM for                spsi:       0.25 MB

     Dynamical RAM for      wfcinit/wfcrot:       0.26 MB

     Dynamical RAM for           addusdens:      38.78 MB

     Estimated static dynamical RAM per process >      10.96 MB

     Estimated max dynamical RAM per process >      53.06 MB

     Estimated total dynamical RAM >     318.36 MB

     Initial potential from superposition of free atoms

     starting charge      17.9949, renormalised to      18.0000
     Starting wfcs are   13 randomized atomic wfcs

     total cpu time spent up to now is        0.9 secs

     per-process dynamical memory:    22.6 Mb

     Self-consistent Calculation

     iteration #  1     ecut=    80.00 Ry     beta= 0.30
     Davidson diagonalization with overlap

---- Real-time Memory Report at c_bands before calling an iterative solver
            99 MiB given to the printing process from OS
            22 MiB allocation reported by mallinfo(arena+hblkhd)
          2480 MiB available memory on the node where the printing process lives
------------------
     ethr =  1.00E-02,  avg # of iterations =  1.1

     Threshold (ethr) on eigenvalues was too large:
     Diagonalizing with lowered threshold

     Davidson diagonalization with overlap

---- Real-time Memory Report at c_bands before calling an iterative solver
           101 MiB given to the printing process from OS
            24 MiB allocation reported by mallinfo(arena+hblkhd)
          2480 MiB available memory on the node where the printing process lives
------------------
     ethr =  2.11E-04,  avg # of iterations =  4.8

     total cpu time spent up to now is        1.7 secs

     total energy              =    -128.97050755 Ry
     estimated scf accuracy    <       0.04280182 Ry

     iteration #  2     ecut=    80.00 Ry     beta= 0.30
     Davidson diagonalization with overlap

---- Real-time Memory Report at c_bands before calling an iterative solver
           103 MiB given to the printing process from OS
            25 MiB allocation reported by mallinfo(arena+hblkhd)
          2479 MiB available memory on the node where the printing process lives
------------------
     ethr =  2.38E-04,  avg # of iterations =  1.5

     total cpu time spent up to now is        2.1 secs

     total energy              =    -128.96852682 Ry
     estimated scf accuracy    <       0.01310221 Ry

     iteration #  3     ecut=    80.00 Ry     beta= 0.30
     Davidson diagonalization with overlap

---- Real-time Memory Report at c_bands before calling an iterative solver
           103 MiB given to the printing process from OS
            25 MiB allocation reported by mallinfo(arena+hblkhd)
          2479 MiB available memory on the node where the printing process lives
------------------
     ethr =  7.28E-05,  avg # of iterations =  2.1

     total cpu time spent up to now is        2.5 secs

     total energy              =    -128.97191626 Ry
     estimated scf accuracy    <       0.00137301 Ry

     iteration #  4     ecut=    80.00 Ry     beta= 0.30
     Davidson diagonalization with overlap

---- Real-time Memory Report at c_bands before calling an iterative solver
           104 MiB given to the printing process from OS
            26 MiB allocation reported by mallinfo(arena+hblkhd)
          2479 MiB available memory on the node where the printing process lives
------------------
     ethr =  7.63E-06,  avg # of iterations =  5.1

     total cpu time spent up to now is        3.0 secs

     total energy              =    -128.97258545 Ry
     estimated scf accuracy    <       0.00023177 Ry

     iteration #  5     ecut=    80.00 Ry     beta= 0.30
     Davidson diagonalization with overlap

---- Real-time Memory Report at c_bands before calling an iterative solver
           104 MiB given to the printing process from OS
            26 MiB allocation reported by mallinfo(arena+hblkhd)
          2479 MiB available memory on the node where the printing process lives
------------------
     ethr =  1.29E-06,  avg # of iterations =  4.4

     total cpu time spent up to now is        3.4 secs

     total energy              =    -128.97266069 Ry
     estimated scf accuracy    <       0.00007675 Ry

     iteration #  6     ecut=    80.00 Ry     beta= 0.30
     Davidson diagonalization with overlap

---- Real-time Memory Report at c_bands before calling an iterative solver
           104 MiB given to the printing process from OS
            26 MiB allocation reported by mallinfo(arena+hblkhd)
          2479 MiB available memory on the node where the printing process lives
------------------
     ethr =  4.26E-07,  avg # of iterations =  5.0

     total cpu time spent up to now is        3.9 secs

     total energy              =    -128.97268102 Ry
     estimated scf accuracy    <       0.00003167 Ry

     iteration #  7     ecut=    80.00 Ry     beta= 0.30
     Davidson diagonalization with overlap

---- Real-time Memory Report at c_bands before calling an iterative solver
           104 MiB given to the printing process from OS
            26 MiB allocation reported by mallinfo(arena+hblkhd)
          2479 MiB available memory on the node where the printing process lives
------------------
     ethr =  1.76E-07,  avg # of iterations =  2.4

     total cpu time spent up to now is        4.3 secs

     total energy              =    -128.97267481 Ry
     estimated scf accuracy    <       0.00001223 Ry

     iteration #  8     ecut=    80.00 Ry     beta= 0.30
     Davidson diagonalization with overlap

---- Real-time Memory Report at c_bands before calling an iterative solver
           104 MiB given to the printing process from OS
            26 MiB allocation reported by mallinfo(arena+hblkhd)
          2479 MiB available memory on the node where the printing process lives
------------------
     ethr =  6.80E-08,  avg # of iterations =  8.2

     total cpu time spent up to now is        4.8 secs

     total energy              =    -128.97267811 Ry
     estimated scf accuracy    <       0.00005595 Ry

     iteration #  9     ecut=    80.00 Ry     beta= 0.30
     Davidson diagonalization with overlap

---- Real-time Memory Report at c_bands before calling an iterative solver
           105 MiB given to the printing process from OS
            27 MiB allocation reported by mallinfo(arena+hblkhd)
          2484 MiB available memory on the node where the printing process lives
------------------
     ethr =  6.80E-08,  avg # of iterations =  3.2

     total cpu time spent up to now is        5.2 secs

     total energy              =    -128.97268026 Ry
     estimated scf accuracy    <       0.00000955 Ry

     iteration # 10     ecut=    80.00 Ry     beta= 0.30
     Davidson diagonalization with overlap

---- Real-time Memory Report at c_bands before calling an iterative solver
           105 MiB given to the printing process from OS
            27 MiB allocation reported by mallinfo(arena+hblkhd)
          2483 MiB available memory on the node where the printing process lives
------------------
     ethr =  5.31E-08,  avg # of iterations =  4.0

     total cpu time spent up to now is        5.6 secs

     total energy              =    -128.97268091 Ry
     estimated scf accuracy    <       0.00000188 Ry

     iteration # 11     ecut=    80.00 Ry     beta= 0.30
     Davidson diagonalization with overlap

---- Real-time Memory Report at c_bands before calling an iterative solver
           105 MiB given to the printing process from OS
            27 MiB allocation reported by mallinfo(arena+hblkhd)
          2475 MiB available memory on the node where the printing process lives
------------------
     ethr =  1.04E-08,  avg # of iterations =  5.4

     total cpu time spent up to now is        6.1 secs

     total energy              =    -128.97268205 Ry
     estimated scf accuracy    <       0.00000042 Ry

     iteration # 12     ecut=    80.00 Ry     beta= 0.30
     Davidson diagonalization with overlap

---- Real-time Memory Report at c_bands before calling an iterative solver
           105 MiB given to the printing process from OS
            27 MiB allocation reported by mallinfo(arena+hblkhd)
          2475 MiB available memory on the node where the printing process lives
------------------
     ethr =  2.36E-09,  avg # of iterations =  4.1

     total cpu time spent up to now is        6.5 secs

     total energy              =    -128.97268196 Ry
     estimated scf accuracy    <       0.00000104 Ry

     iteration # 13     ecut=    80.00 Ry     beta= 0.30
     Davidson diagonalization with overlap

---- Real-time Memory Report at c_bands before calling an iterative solver
           105 MiB given to the printing process from OS
            27 MiB allocation reported by mallinfo(arena+hblkhd)
          2476 MiB available memory on the node where the printing process lives
------------------
     ethr =  2.36E-09,  avg # of iterations =  1.9

     total cpu time spent up to now is        6.8 secs

     total energy              =    -128.97268186 Ry
     estimated scf accuracy    <       0.00000044 Ry

     iteration # 14     ecut=    80.00 Ry     beta= 0.30
     Davidson diagonalization with overlap

---- Real-time Memory Report at c_bands before calling an iterative solver
           105 MiB given to the printing process from OS
            27 MiB allocation reported by mallinfo(arena+hblkhd)
          2471 MiB available memory on the node where the printing process lives
------------------
     ethr =  2.36E-09,  avg # of iterations =  2.0

     total cpu time spent up to now is        7.2 secs

     total energy              =    -128.97268180 Ry
     estimated scf accuracy    <       0.00000015 Ry

     iteration # 15     ecut=    80.00 Ry     beta= 0.30
     Davidson diagonalization with overlap

---- Real-time Memory Report at c_bands before calling an iterative solver
           105 MiB given to the printing process from OS
            27 MiB allocation reported by mallinfo(arena+hblkhd)
          2471 MiB available memory on the node where the printing process lives
------------------
     ethr =  8.47E-10,  avg # of iterations =  7.5

     total cpu time spent up to now is        7.7 secs

     total energy              =    -128.97268194 Ry
     estimated scf accuracy    <       0.00000008 Ry

     iteration # 16     ecut=    80.00 Ry     beta= 0.30
     Davidson diagonalization with overlap

---- Real-time Memory Report at c_bands before calling an iterative solver
           105 MiB given to the printing process from OS
            27 MiB allocation reported by mallinfo(arena+hblkhd)
          2482 MiB available memory on the node where the printing process lives
------------------
     ethr =  4.18E-10,  avg # of iterations =  1.5

     total cpu time spent up to now is        8.0 secs

     total energy              =    -128.97268192 Ry
     estimated scf accuracy    <       0.00000007 Ry

     iteration # 17     ecut=    80.00 Ry     beta= 0.30
     Davidson diagonalization with overlap

---- Real-time Memory Report at c_bands before calling an iterative solver
           105 MiB given to the printing process from OS
            27 MiB allocation reported by mallinfo(arena+hblkhd)
          2482 MiB available memory on the node where the printing process lives
------------------
     ethr =  4.10E-10,  avg # of iterations =  1.5

     total cpu time spent up to now is        8.4 secs

     total energy              =    -128.97268191 Ry
     estimated scf accuracy    <       0.00000004 Ry

     iteration # 18     ecut=    80.00 Ry     beta= 0.30
     Davidson diagonalization with overlap

---- Real-time Memory Report at c_bands before calling an iterative solver
           105 MiB given to the printing process from OS
            27 MiB allocation reported by mallinfo(arena+hblkhd)
          2482 MiB available memory on the node where the printing process lives
------------------
     ethr =  2.16E-10,  avg # of iterations =  1.6

     total cpu time spent up to now is        8.8 secs

     total energy              =    -128.97268190 Ry
     estimated scf accuracy    <       0.00000002 Ry

     iteration # 19     ecut=    80.00 Ry     beta= 0.30
     Davidson diagonalization with overlap

---- Real-time Memory Report at c_bands before calling an iterative solver
           105 MiB given to the printing process from OS
            27 MiB allocation reported by mallinfo(arena+hblkhd)
          2484 MiB available memory on the node where the printing process lives
------------------
     ethr =  1.15E-10,  avg # of iterations =  4.8

     total cpu time spent up to now is        9.2 secs

     total energy              =    -128.97268191 Ry
     estimated scf accuracy    <          3.3E-10 Ry

     iteration # 20     ecut=    80.00 Ry     beta= 0.30
     Davidson diagonalization with overlap

---- Real-time Memory Report at c_bands before calling an iterative solver
           105 MiB given to the printing process from OS
            27 MiB allocation reported by mallinfo(arena+hblkhd)
          2484 MiB available memory on the node where the printing process lives
------------------
     c_bands:  1 eigenvalues not converged
     ethr =  1.81E-12,  avg # of iterations = 11.8

     total cpu time spent up to now is        9.8 secs

     total energy              =    -128.97268191 Ry
     estimated scf accuracy    <          2.3E-09 Ry

     iteration # 21     ecut=    80.00 Ry     beta= 0.30
     Davidson diagonalization with overlap

---- Real-time Memory Report at c_bands before calling an iterative solver
           105 MiB given to the printing process from OS
            27 MiB allocation reported by mallinfo(arena+hblkhd)
          2480 MiB available memory on the node where the printing process lives
------------------
     ethr =  1.81E-12,  avg # of iterations =  1.2

     total cpu time spent up to now is       10.1 secs

     total energy              =    -128.97268191 Ry
     estimated scf accuracy    <          2.2E-09 Ry

     iteration # 22     ecut=    80.00 Ry     beta= 0.30
     Davidson diagonalization with overlap

---- Real-time Memory Report at c_bands before calling an iterative solver
           105 MiB given to the printing process from OS
            27 MiB allocation reported by mallinfo(arena+hblkhd)
          2480 MiB available memory on the node where the printing process lives
------------------
     ethr =  1.81E-12,  avg # of iterations =  1.2

     total cpu time spent up to now is       10.5 secs

     total energy              =    -128.97268191 Ry
     estimated scf accuracy    <          2.8E-09 Ry

     iteration # 23     ecut=    80.00 Ry     beta= 0.30
     Davidson diagonalization with overlap

---- Real-time Memory Report at c_bands before calling an iterative solver
           105 MiB given to the printing process from OS
            27 MiB allocation reported by mallinfo(arena+hblkhd)
          2502 MiB available memory on the node where the printing process lives
------------------
     ethr =  1.81E-12,  avg # of iterations =  5.5

     total cpu time spent up to now is       10.9 secs

     total energy              =    -128.97268191 Ry
     estimated scf accuracy    <          6.4E-09 Ry

     iteration # 24     ecut=    80.00 Ry     beta= 0.30
     Davidson diagonalization with overlap

---- Real-time Memory Report at c_bands before calling an iterative solver
           105 MiB given to the printing process from OS
            27 MiB allocation reported by mallinfo(arena+hblkhd)
          2471 MiB available memory on the node where the printing process lives
------------------
     ethr =  1.81E-12,  avg # of iterations =  1.0

     total cpu time spent up to now is       11.3 secs

     total energy              =    -128.97268191 Ry
     estimated scf accuracy    <          5.8E-09 Ry

     iteration # 25     ecut=    80.00 Ry     beta= 0.30
     Davidson diagonalization with overlap

---- Real-time Memory Report at c_bands before calling an iterative solver
           105 MiB given to the printing process from OS
            27 MiB allocation reported by mallinfo(arena+hblkhd)
          2471 MiB available memory on the node where the printing process lives
------------------
     ethr =  1.81E-12,  avg # of iterations =  1.8

     total cpu time spent up to now is       11.6 secs

     total energy              =    -128.97268191 Ry
     estimated scf accuracy    <          4.5E-09 Ry

     iteration # 26     ecut=    80.00 Ry     beta= 0.30
     Davidson diagonalization with overlap

---- Real-time Memory Report at c_bands before calling an iterative solver
           105 MiB given to the printing process from OS
            27 MiB allocation reported by mallinfo(arena+hblkhd)
          2475 MiB available memory on the node where the printing process lives
------------------
     ethr =  1.81E-12,  avg # of iterations =  1.0

     total cpu time spent up to now is       12.0 secs

     total energy              =    -128.97268191 Ry
     estimated scf accuracy    <          4.2E-09 Ry

     iteration # 27     ecut=    80.00 Ry     beta= 0.30
     Davidson diagonalization with overlap

---- Real-time Memory Report at c_bands before calling an iterative solver
           105 MiB given to the printing process from OS
            27 MiB allocation reported by mallinfo(arena+hblkhd)
          2475 MiB available memory on the node where the printing process lives
------------------
     ethr =  1.81E-12,  avg # of iterations =  2.0

     total cpu time spent up to now is       12.4 secs

     total energy              =    -128.97268191 Ry
     estimated scf accuracy    <          3.2E-09 Ry

     iteration # 28     ecut=    80.00 Ry     beta= 0.30
     Davidson diagonalization with overlap

---- Real-time Memory Report at c_bands before calling an iterative solver
           105 MiB given to the printing process from OS
            27 MiB allocation reported by mallinfo(arena+hblkhd)
          2475 MiB available memory on the node where the printing process lives
------------------
     ethr =  1.81E-12,  avg # of iterations =  1.0

     total cpu time spent up to now is       12.7 secs

     total energy              =    -128.97268191 Ry
     estimated scf accuracy    <          4.0E-09 Ry

     iteration # 29     ecut=    80.00 Ry     beta= 0.30
     Davidson diagonalization with overlap

---- Real-time Memory Report at c_bands before calling an iterative solver
           105 MiB given to the printing process from OS
            27 MiB allocation reported by mallinfo(arena+hblkhd)
          2469 MiB available memory on the node where the printing process lives
------------------
     ethr =  1.81E-12,  avg # of iterations =  1.1

     total cpu time spent up to now is       13.1 secs

     total energy              =    -128.97268191 Ry
     estimated scf accuracy    <          3.4E-09 Ry

     iteration # 30     ecut=    80.00 Ry     beta= 0.30
     Davidson diagonalization with overlap

---- Real-time Memory Report at c_bands before calling an iterative solver
           105 MiB given to the printing process from OS
            27 MiB allocation reported by mallinfo(arena+hblkhd)
          2469 MiB available memory on the node where the printing process lives
------------------
     ethr =  1.81E-12,  avg # of iterations =  1.0

     total cpu time spent up to now is       13.4 secs

     total energy              =    -128.97268191 Ry
     estimated scf accuracy    <          3.2E-09 Ry

     iteration # 31     ecut=    80.00 Ry     beta= 0.30
     Davidson diagonalization with overlap

---- Real-time Memory Report at c_bands before calling an iterative solver
           105 MiB given to the printing process from OS
            27 MiB allocation reported by mallinfo(arena+hblkhd)
          2469 MiB available memory on the node where the printing process lives
------------------
     ethr =  1.81E-12,  avg # of iterations =  8.9

     total cpu time spent up to now is       14.0 secs

     total energy              =    -128.97268191 Ry
     estimated scf accuracy    <          1.6E-09 Ry

     iteration # 32     ecut=    80.00 Ry     beta= 0.30
     Davidson diagonalization with overlap

---- Real-time Memory Report at c_bands before calling an iterative solver
           105 MiB given to the printing process from OS
            27 MiB allocation reported by mallinfo(arena+hblkhd)
          2480 MiB available memory on the node where the printing process lives
------------------
     ethr =  1.81E-12,  avg # of iterations =  1.9

     total cpu time spent up to now is       14.4 secs

     total energy              =    -128.97268191 Ry
     estimated scf accuracy    <          2.4E-09 Ry

     iteration # 33     ecut=    80.00 Ry     beta= 0.30
     Davidson diagonalization with overlap

---- Real-time Memory Report at c_bands before calling an iterative solver
           105 MiB given to the printing process from OS
            27 MiB allocation reported by mallinfo(arena+hblkhd)
          2480 MiB available memory on the node where the printing process lives
------------------
     ethr =  1.81E-12,  avg # of iterations =  6.6

     total cpu time spent up to now is       15.1 secs

     End of self-consistent calculation

          k = 0.0000 0.0000 0.0000 (  5601 PWs)   bands (ev):

    -6.0214  -3.1572  -3.1572  -3.1572  -2.8990  -2.8990   5.1510   5.1510
     5.1510

     occupation numbers 
     1.0000   1.0000   1.0000   1.0000   1.0000   1.0000   1.0000   1.0000
     1.0000

          k = 0.1768 0.1768-0.1768 (  5561 PWs)   bands (ev):

    -5.8214  -3.1216  -3.1216  -2.9577  -2.8989  -2.8989   2.4132   4.7200
     4.7200

     occupation numbers 
     1.0000   1.0000   1.0000   1.0000   1.0000   1.0000   1.0000   1.0000
     1.0000

          k =-0.3536-0.3536 0.3536 (  5564 PWs)   bands (ev):

    -5.6245  -3.0943  -3.0943  -2.8888  -2.8888  -2.5425   0.7111   4.3726
     4.3726

     occupation numbers 
     1.0000   1.0000   1.0000   1.0000   1.0000   1.0000   1.0000   1.0000
     1.0000

          k = 0.3536 0.0000 0.0000 (  5537 PWs)   bands (ev):

    -5.7567  -3.0799  -3.0799  -2.9979  -2.8827  -2.8688   2.4726   4.0591
     4.0591

     occupation numbers 
     1.0000   1.0000   1.0000   1.0000   1.0000   1.0000   1.0000   1.0000
     1.0000

          k =-0.1768-0.5303 0.5303 (  5558 PWs)   bands (ev):

    -5.5651  -3.0608  -3.0419  -2.9390  -2.8815  -2.4877   1.0580   3.0633
     3.7677

     occupation numbers 
     1.0000   1.0000   1.0000   1.0000   1.0000   1.0000   1.0000   1.0000
     1.0000

          k = 0.0000-0.3536 0.3536 (  5556 PWs)   bands (ev):

    -5.6273  -3.0773  -3.0756  -2.9061  -2.9052  -2.6200   1.4250   2.9950
     4.3408

     occupation numbers 
     1.0000   1.0000   1.0000   1.0000   1.0000   1.0000   1.0000   1.0000
     1.0000

          k =-0.7071 0.0000 0.0000 (  5514 PWs)   bands (ev):

    -5.5041  -3.0027  -2.9935  -2.9935  -2.8664  -2.4025   0.8274   3.2798
     3.2798

     occupation numbers 
     1.0000   1.0000   1.0000   1.0000   1.0000   1.0000   1.0000   1.0000
     1.0000

          k =-0.7071 0.3536 0.0000 (  5540 PWs)   bands (ev):

    -5.5058  -3.0346  -3.0288  -2.9276  -2.8971  -2.3199   0.9493   2.8188
     2.9429

     occupation numbers 
     1.0000   1.0000   1.0000   1.0000   1.0000   1.0000   1.0000   1.0000
     1.0000

     highest occupied level (ev):     5.1510

!    total energy              =    -128.97268191 Ry
     estimated scf accuracy    <          3.9E-12 Ry

     The total energy is the sum of the following terms:
     one-electron contribution =     -48.73515336 Ry
     hartree contribution      =      36.07121243 Ry
     xc contribution           =     -39.50751405 Ry
     ewald contribution        =     -76.80122694 Ry

     convergence has been achieved in  33 iterations

     Writing all to output data dir /home/User/opencode_workspace/DFT/calculations/cdte/conv_scf_k4/out/pwscf.save/ :
     XML data file, charge density, pseudopotentials, collected wavefunctions

     init_run     :      0.66s CPU      0.73s WALL (       1 calls)
     electrons    :     10.20s CPU     14.19s WALL (       1 calls)

     Called by init_run:
     wfcinit      :      0.07s CPU      0.08s WALL (       1 calls)
     wfcinit:atom :      0.00s CPU      0.00s WALL (       8 calls)
     wfcinit:wfcr :      0.06s CPU      0.07s WALL (       8 calls)
     potinit      :      0.12s CPU      0.13s WALL (       1 calls)
     hinit0       :      0.29s CPU      0.30s WALL (       1 calls)

     Called by electrons:
     c_bands      :      4.28s CPU      4.87s WALL (      34 calls)
     sum_band     :      3.12s CPU      4.86s WALL (      34 calls)
     v_of_rho     :      0.53s CPU      0.67s WALL (      34 calls)
     v_h          :      0.03s CPU      0.05s WALL (      34 calls)
     v_xc         :      0.50s CPU      0.62s WALL (      34 calls)
     newd         :      2.24s CPU      3.80s WALL (      34 calls)
     mix_rho      :      0.08s CPU      0.08s WALL (      34 calls)

     Called by c_bands:
     init_us_2    :      0.13s CPU      0.14s WALL (     552 calls)
     cegterg      :      4.02s CPU      4.59s WALL (     272 calls)

     Called by sum_band:
     sum_band:wei :      0.00s CPU      0.00s WALL (      34 calls)
     sum_band:loo :      0.63s CPU      0.73s WALL (      34 calls)
     sum_band:buf :      0.00s CPU      0.00s WALL (     272 calls)
     sum_band:ini :      0.06s CPU      0.07s WALL (     272 calls)
     sum_band:cal :      0.05s CPU      0.06s WALL (     272 calls)
     sum_band:bec :      0.00s CPU      0.00s WALL (     272 calls)
     addusdens    :      2.21s CPU      3.84s WALL (      34 calls)
                                        0.00s GPU  (      34 calls)
     addusd:skk   :      0.00s CPU      0.00s WALL (      68 calls)
                                        0.00s GPU  (      68 calls)

     Called by *egterg:
     cdiaghg      :      0.10s CPU      0.11s WALL (    1209 calls)
     cegterg:over :      0.11s CPU      0.12s WALL (     945 calls)
     cegterg:upda :      0.04s CPU      0.04s WALL (     945 calls)
     cegterg:last :      0.07s CPU      0.07s WALL (     682 calls)
     h_psi        :      3.56s CPU      4.10s WALL (    1225 calls)
     s_psi        :      0.06s CPU      0.07s WALL (    1225 calls)
     g_psi        :      0.03s CPU      0.03s WALL (     945 calls)

     Called by h_psi:
     h_psi:calbec :      0.19s CPU      0.21s WALL (    1225 calls)
     vloc_psi     :      3.28s CPU      3.78s WALL (    1225 calls)
                                        0.00s GPU  (    1225 calls)
     add_vuspsi   :      0.07s CPU      0.08s WALL (    1225 calls)

     General routines
     calbec       :      0.23s CPU      0.26s WALL (    1497 calls)
     fft          :      0.42s CPU      0.50s WALL (     441 calls)
     ffts         :      0.11s CPU      0.12s WALL (      68 calls)
     fftw         :      3.54s CPU      4.08s WALL (   17746 calls)
     interpolate  :      0.12s CPU      0.13s WALL (      34 calls)

     Parallel routines

     PWSCF        :     11.08s CPU     15.17s WALL


   This run was terminated on:  19: 4: 0  22Sep2026            

=------------------------------------------------------------------------------=
   JOB DONE.
=------------------------------------------------------------------------------=
