
     Program PWSCF v.7.5 starts on 22Sep2026 at 19: 5:18 

     This program is part of the open-source Quantum ESPRESSO suite
     for quantum simulation of materials; please cite
         "P. Giannozzi et al., J. Phys.:Condens. Matter 21 395502 (2009);
         "P. Giannozzi et al., J. Phys.:Condens. Matter 29 465901 (2017);
         "P. Giannozzi et al., J. Chem. Phys. 152 154105 (2020);
          URL http://www.quantum-espresso.org", 
     in publications or presentations arising from this work. More details at
     http://www.quantum-espresso.org/quote

     Parallel version (MPI & OpenMP), running on       6 processor cores
     Number of MPI processes:                 6
     Threads/MPI process:                     1

     MPI processes distributed on     1 nodes
     2486 MiB available memory on the printing compute node when the environment starts

     Reading input from pw.in

     Current dimensions of program PWSCF are:
     Max number of different atomic species (ntypx) = 10
     Max number of k-points (npk) =  40000
     Max angular momentum in pseudopotentials (lmaxx) =  4
     file Cd.pbe-n-rrkjus_psl.1.0.0.UPF: wavefunction(s)  4D renormalized
     file Te.pbe-n-rrkjus_psl.1.0.0.UPF: wavefunction(s)  5S renormalized
     Message from routine setup:
     using ibrav=0 with symmetry is DISCOURAGED, use correct ibrav instead

     R & G space division:  proc/nbgrp/npool/nimage =       6
     Subspace diagonalization in iterative solution of the eigenvalue problem:
     a serial algorithm will be used


     Parallelization info
     --------------------
     sticks:   dense  smooth     PW     G-vecs:    dense   smooth      PW
     Min         414     275     79                13591     7399    1142
     Max         417     276     80                13592     7402    1145
     Sum        2491    1651    475                81547    44399    6855

     Using Slab Decomposition



     bravais-lattice index     =            0
     lattice parameter (alat)  =       8.6615  a.u.
     unit-cell volume          =     459.4769 (a.u.)^3
     number of atoms/cell      =            2
     number of atomic types    =            2
     number of electrons       =        18.00
     number of Kohn-Sham states=            9
     kinetic-energy cutoff     =      80.0000  Ry
     charge density cutoff     =     480.0000  Ry
     scf convergence threshold =      1.0E-10
     mixing beta               =       0.3000
     number of iterations used =            8  plain     mixing
     Exchange-correlation= PBE
                           (   1   4   3   4   0   0   0)

     celldm(1)=   8.661496  celldm(2)=   0.000000  celldm(3)=   0.000000
     celldm(4)=   0.000000  celldm(5)=   0.000000  celldm(6)=   0.000000

     crystal axes: (cart. coord. in units of alat)
               a(1) = (   0.000000   0.707107   0.707107 )  
               a(2) = (   0.707107   0.000000   0.707107 )  
               a(3) = (   0.707107   0.707107   0.000000 )  

     reciprocal axes: (cart. coord. in units 2 pi/alat)
               b(1) = ( -0.707107  0.707107  0.707107 )  
               b(2) = (  0.707107 -0.707107  0.707107 )  
               b(3) = (  0.707107  0.707107 -0.707107 )  


     PseudoPot. # 1 for Cd read from file:
     /home/User/opencode_workspace/DFT/pseudopotentials/Cd.pbe-n-rrkjus_psl.1.0.0.UPF
     MD5 check sum: a744746c89d2344a134ead0d8ab94e7a
     Pseudo is Ultrasoft + core correction, Zval = 12.0
     Generated using &quot;atomic&quot; code by A. Dal Corso  v.6.3
     Using radial grid of 1239 points,  6 beta functions with: 
                l(1) =   0
                l(2) =   0
                l(3) =   1
                l(4) =   1
                l(5) =   2
                l(6) =   2
     Q(r) pseudized with 0 coefficients 


     PseudoPot. # 2 for Te read from file:
     /home/User/opencode_workspace/DFT/pseudopotentials/Te.pbe-n-rrkjus_psl.1.0.0.UPF
     MD5 check sum: 203a1e86ef55f0cd9de2762a27c58f54
     Pseudo is Ultrasoft + core correction, Zval =  6.0
     Generated using &quot;atomic&quot; code by A. Dal Corso  v.6.3
     Using radial grid of 1245 points,  6 beta functions with: 
                l(1) =   0
                l(2) =   0
                l(3) =   1
                l(4) =   1
                l(5) =   2
                l(6) =   2
     Q(r) pseudized with 0 coefficients 


     atomic species   valence    mass     pseudopotential
     Cd               12.00   112.41400     Cd( 1.00)
     Te                6.00   127.60000     Te( 1.00)

     24 Sym. Ops. (no inversion) found


                                    s                        frac. trans.

      isym =  1     identity                                     

 cryst.   s( 1) = (     1          0          0      )
                  (     0          1          0      )
                  (     0          0          1      )

 cart.    s( 1) = (  1.0000000  0.0000000  0.0000000 )
                  (  0.0000000  1.0000000  0.0000000 )
                  (  0.0000000  0.0000000  1.0000000 )


      isym =  2     180 deg rotation - cart. axis [0,0,1]        

 cryst.   s( 2) = (     0          1         -1      )
                  (     1          0         -1      )
                  (     0          0         -1      )

 cart.    s( 2) = ( -1.0000000  0.0000000  0.0000000 )
                  (  0.0000000 -1.0000000  0.0000000 )
                  (  0.0000000  0.0000000  1.0000000 )


      isym =  3     180 deg rotation - cart. axis [0,1,0]        

 cryst.   s( 3) = (     0         -1          1      )
                  (     0         -1          0      )
                  (     1         -1          0      )

 cart.    s( 3) = ( -1.0000000  0.0000000  0.0000000 )
                  (  0.0000000  1.0000000  0.0000000 )
                  (  0.0000000  0.0000000 -1.0000000 )


      isym =  4     180 deg rotation - cart. axis [1,0,0]        

 cryst.   s( 4) = (    -1          0          0      )
                  (    -1          0          1      )
                  (    -1          1          0      )

 cart.    s( 4) = (  1.0000000  0.0000000  0.0000000 )
                  (  0.0000000 -1.0000000  0.0000000 )
                  (  0.0000000  0.0000000 -1.0000000 )


      isym =  5     120 deg rotation - cart. axis [-1,-1,-1]     

 cryst.   s( 5) = (     0          0          1      )
                  (     1          0          0      )
                  (     0          1          0      )

 cart.    s( 5) = (  0.0000000  1.0000000  0.0000000 )
                  (  0.0000000  0.0000000  1.0000000 )
                  (  1.0000000  0.0000000  0.0000000 )


      isym =  6     120 deg rotation - cart. axis [-1,1,1]       

 cryst.   s( 6) = (     1         -1          0      )
                  (     0         -1          1      )
                  (     0         -1          0      )

 cart.    s( 6) = (  0.0000000 -1.0000000  0.0000000 )
                  (  0.0000000  0.0000000  1.0000000 )
                  ( -1.0000000  0.0000000  0.0000000 )


      isym =  7     120 deg rotation - cart. axis [1,1,-1]       

 cryst.   s( 7) = (    -1          1          0      )
                  (    -1          0          0      )
                  (    -1          0          1      )

 cart.    s( 7) = (  0.0000000  1.0000000  0.0000000 )
                  (  0.0000000  0.0000000 -1.0000000 )
                  ( -1.0000000  0.0000000  0.0000000 )


      isym =  8     120 deg rotation - cart. axis [1,-1,1]       

 cryst.   s( 8) = (     0          0         -1      )
                  (     0          1         -1      )
                  (     1          0         -1      )

 cart.    s( 8) = (  0.0000000 -1.0000000  0.0000000 )
                  (  0.0000000  0.0000000 -1.0000000 )
                  (  1.0000000  0.0000000  0.0000000 )


      isym =  9     120 deg rotation - cart. axis [1,1,1]        

 cryst.   s( 9) = (     0          1          0      )
                  (     0          0          1      )
                  (     1          0          0      )

 cart.    s( 9) = (  0.0000000  0.0000000  1.0000000 )
                  (  1.0000000  0.0000000  0.0000000 )
                  (  0.0000000  1.0000000  0.0000000 )


      isym = 10     120 deg rotation - cart. axis [-1,1,-1]      

 cryst.   s(10) = (    -1          0          1      )
                  (    -1          1          0      )
                  (    -1          0          0      )

 cart.    s(10) = (  0.0000000  0.0000000  1.0000000 )
                  ( -1.0000000  0.0000000  0.0000000 )
                  (  0.0000000 -1.0000000  0.0000000 )


      isym = 11     120 deg rotation - cart. axis [1,-1,-1]      

 cryst.   s(11) = (     1          0         -1      )
                  (     0          0         -1      )
                  (     0          1         -1      )

 cart.    s(11) = (  0.0000000  0.0000000 -1.0000000 )
                  ( -1.0000000  0.0000000  0.0000000 )
                  (  0.0000000  1.0000000  0.0000000 )


      isym = 12     120 deg rotation - cart. axis [-1,-1,1]      

 cryst.   s(12) = (     0         -1          0      )
                  (     1         -1          0      )
                  (     0         -1          1      )

 cart.    s(12) = (  0.0000000  0.0000000 -1.0000000 )
                  (  1.0000000  0.0000000  0.0000000 )
                  (  0.0000000 -1.0000000  0.0000000 )


      isym = 13     inv. 180 deg rotation - cart. axis [1,1,0]   

 cryst.   s(13) = (     1          0         -1      )
                  (     0          1         -1      )
                  (     0          0         -1      )

 cart.    s(13) = (  0.0000000 -1.0000000  0.0000000 )
                  ( -1.0000000  0.0000000  0.0000000 )
                  (  0.0000000  0.0000000  1.0000000 )


      isym = 14     inv. 180 deg rotation - cart. axis [1,-1,0]  

 cryst.   s(14) = (     0          1          0      )
                  (     1          0          0      )
                  (     0          0          1      )

 cart.    s(14) = (  0.0000000  1.0000000  0.0000000 )
                  (  1.0000000  0.0000000  0.0000000 )
                  (  0.0000000  0.0000000  1.0000000 )


      isym = 15     inv.  90 deg rotation - cart. axis [0,0,-1]  

 cryst.   s(15) = (     0         -1          0      )
                  (     0         -1          1      )
                  (     1         -1          0      )

 cart.    s(15) = (  0.0000000 -1.0000000  0.0000000 )
                  (  1.0000000  0.0000000  0.0000000 )
                  (  0.0000000  0.0000000 -1.0000000 )


      isym = 16     inv.  90 deg rotation - cart. axis [0,0,1]   

 cryst.   s(16) = (    -1          0          1      )
                  (    -1          0          0      )
                  (    -1          1          0      )

 cart.    s(16) = (  0.0000000  1.0000000  0.0000000 )
                  ( -1.0000000  0.0000000  0.0000000 )
                  (  0.0000000  0.0000000 -1.0000000 )


      isym = 17     inv. 180 deg rotation - cart. axis [1,0,1]   

 cryst.   s(17) = (     1         -1          0      )
                  (     0         -1          0      )
                  (     0         -1          1      )

 cart.    s(17) = (  0.0000000  0.0000000 -1.0000000 )
                  (  0.0000000  1.0000000  0.0000000 )
                  ( -1.0000000  0.0000000  0.0000000 )


      isym = 18     inv. 180 deg rotation - cart. axis [-1,0,1]  

 cryst.   s(18) = (     0          0          1      )
                  (     0          1          0      )
                  (     1          0          0      )

 cart.    s(18) = (  0.0000000  0.0000000  1.0000000 )
                  (  0.0000000  1.0000000  0.0000000 )
                  (  1.0000000  0.0000000  0.0000000 )


      isym = 19     inv.  90 deg rotation - cart. axis [0,1,0]   

 cryst.   s(19) = (     0          0         -1      )
                  (     1          0         -1      )
                  (     0          1         -1      )

 cart.    s(19) = (  0.0000000  0.0000000 -1.0000000 )
                  (  0.0000000 -1.0000000  0.0000000 )
                  (  1.0000000  0.0000000  0.0000000 )


      isym = 20     inv.  90 deg rotation - cart. axis [0,-1,0]  

 cryst.   s(20) = (    -1          1          0      )
                  (    -1          0          1      )
                  (    -1          0          0      )

 cart.    s(20) = (  0.0000000  0.0000000  1.0000000 )
                  (  0.0000000 -1.0000000  0.0000000 )
                  ( -1.0000000  0.0000000  0.0000000 )


      isym = 21     inv. 180 deg rotation - cart. axis [0,1,1]   

 cryst.   s(21) = (    -1          0          0      )
                  (    -1          1          0      )
                  (    -1          0          1      )

 cart.    s(21) = (  1.0000000  0.0000000  0.0000000 )
                  (  0.0000000  0.0000000 -1.0000000 )
                  (  0.0000000 -1.0000000  0.0000000 )


      isym = 22     inv. 180 deg rotation - cart. axis [0,1,-1]  

 cryst.   s(22) = (     1          0          0      )
                  (     0          0          1      )
                  (     0          1          0      )

 cart.    s(22) = (  1.0000000  0.0000000  0.0000000 )
                  (  0.0000000  0.0000000  1.0000000 )
                  (  0.0000000  1.0000000  0.0000000 )


      isym = 23     inv.  90 deg rotation - cart. axis [-1,0,0]  

 cryst.   s(23) = (     0          1         -1      )
                  (     0          0         -1      )
                  (     1          0         -1      )

 cart.    s(23) = ( -1.0000000  0.0000000  0.0000000 )
                  (  0.0000000  0.0000000 -1.0000000 )
                  (  0.0000000  1.0000000  0.0000000 )


      isym = 24     inv.  90 deg rotation - cart. axis [1,0,0]   

 cryst.   s(24) = (     0         -1          1      )
                  (     1         -1          0      )
                  (     0         -1          0      )

 cart.    s(24) = ( -1.0000000  0.0000000  0.0000000 )
                  (  0.0000000  0.0000000  1.0000000 )
                  (  0.0000000 -1.0000000  0.0000000 )


   Cartesian axes

     site n.     atom                  positions (alat units)
         1        Cd     tau(   1) = (   0.0000000   0.0000000   0.0000000  )
         2        Te     tau(   2) = (   0.3535534   0.3535534   0.3535534  )

   Crystallographic axes

     site n.     atom                  positions (cryst. coord.)
         1        Cd     tau(   1) = (  0.0000000  0.0000000  0.0000000  )
         2        Te     tau(   2) = (  0.2500000  0.2500000  0.2500000  )

     number of k points=    47
                       cart. coord. in units 2pi/alat
        k(    1) = (   0.0000000   0.0000000   0.0000000), wk =   0.0020000
        k(    2) = (   0.0707107   0.0707107  -0.0707107), wk =   0.0160000
        k(    3) = (   0.1414214   0.1414214  -0.1414214), wk =   0.0160000
        k(    4) = (   0.2121320   0.2121320  -0.2121320), wk =   0.0160000
        k(    5) = (   0.2828427   0.2828427  -0.2828427), wk =   0.0160000
        k(    6) = (  -0.3535534  -0.3535534   0.3535534), wk =   0.0080000
        k(    7) = (   0.1414214   0.0000000   0.0000000), wk =   0.0120000
        k(    8) = (   0.2121320   0.0707107  -0.0707107), wk =   0.0480000
        k(    9) = (   0.2828427   0.1414214  -0.1414214), wk =   0.0480000
        k(   10) = (   0.3535534   0.2121320  -0.2121320), wk =   0.0480000
        k(   11) = (  -0.2828427  -0.4242641   0.4242641), wk =   0.0480000
        k(   12) = (  -0.2121320  -0.3535534   0.3535534), wk =   0.0480000
        k(   13) = (  -0.1414214  -0.2828427   0.2828427), wk =   0.0480000
        k(   14) = (  -0.0707107  -0.2121320   0.2121320), wk =   0.0480000
        k(   15) = (   0.0000000  -0.1414214   0.1414214), wk =   0.0240000
        k(   16) = (   0.2828427   0.0000000   0.0000000), wk =   0.0120000
        k(   17) = (   0.3535534   0.0707107  -0.0707107), wk =   0.0480000
        k(   18) = (   0.4242641   0.1414214  -0.1414214), wk =   0.0480000
        k(   19) = (  -0.2121320  -0.4949747   0.4949747), wk =   0.0480000
        k(   20) = (  -0.1414214  -0.4242641   0.4242641), wk =   0.0480000
        k(   21) = (  -0.0707107  -0.3535534   0.3535534), wk =   0.0480000
        k(   22) = (   0.0000000  -0.2828427   0.2828427), wk =   0.0240000
        k(   23) = (   0.4242641   0.0000000   0.0000000), wk =   0.0120000
        k(   24) = (   0.4949747   0.0707107  -0.0707107), wk =   0.0480000
        k(   25) = (  -0.1414214  -0.5656854   0.5656854), wk =   0.0480000
        k(   26) = (  -0.0707107  -0.4949747   0.4949747), wk =   0.0480000
        k(   27) = (  -0.0000000  -0.4242641   0.4242641), wk =   0.0240000
        k(   28) = (   0.5656854   0.0000000   0.0000000), wk =   0.0120000
        k(   29) = (  -0.0707107  -0.6363961   0.6363961), wk =   0.0480000
        k(   30) = (   0.0000000  -0.5656854   0.5656854), wk =   0.0240000
        k(   31) = (  -0.7071068   0.0000000   0.0000000), wk =   0.0060000
        k(   32) = (   0.2828427   0.1414214   0.0000000), wk =   0.0480000
        k(   33) = (   0.3535534   0.2121320  -0.0707107), wk =   0.0960000
        k(   34) = (  -0.2828427  -0.4242641   0.5656854), wk =   0.0960000
        k(   35) = (  -0.2121320  -0.3535534   0.4949747), wk =   0.0480000
        k(   36) = (   0.4242641   0.1414214  -0.0000000), wk =   0.0480000
        k(   37) = (  -0.2121320  -0.4949747   0.6363961), wk =   0.0960000
        k(   38) = (  -0.1414214  -0.4242641   0.5656854), wk =   0.0960000
        k(   39) = (  -0.0707107  -0.3535534   0.4949747), wk =   0.0960000
        k(   40) = (   0.0000000  -0.2828427   0.4242641), wk =   0.0480000
        k(   41) = (  -0.1414214  -0.5656854   0.7071068), wk =   0.0480000
        k(   42) = (  -0.0707107  -0.4949747   0.6363961), wk =   0.0960000
        k(   43) = (  -0.0000000  -0.4242641   0.5656854), wk =   0.0480000
        k(   44) = (  -0.7071068   0.1414214   0.0000000), wk =   0.0240000
        k(   45) = (  -0.1414214  -0.4242641   0.7071068), wk =   0.0480000
        k(   46) = (  -0.0707107  -0.3535534   0.6363961), wk =   0.0480000
        k(   47) = (  -0.7071068   0.2828427   0.0000000), wk =   0.0240000

                       cryst. coord.
        k(    1) = (   0.0000000   0.0000000   0.0000000), wk =   0.0020000
        k(    2) = (   0.0000000   0.0000000   0.1000000), wk =   0.0160000
        k(    3) = (   0.0000000   0.0000000   0.2000000), wk =   0.0160000
        k(    4) = (   0.0000000   0.0000000   0.3000000), wk =   0.0160000
        k(    5) = (   0.0000000   0.0000000   0.4000000), wk =   0.0160000
        k(    6) = (   0.0000000   0.0000000  -0.5000000), wk =   0.0080000
        k(    7) = (   0.0000000   0.1000000   0.1000000), wk =   0.0120000
        k(    8) = (   0.0000000   0.1000000   0.2000000), wk =   0.0480000
        k(    9) = (   0.0000000   0.1000000   0.3000000), wk =   0.0480000
        k(   10) = (   0.0000000   0.1000000   0.4000000), wk =   0.0480000
        k(   11) = (   0.0000000   0.1000000  -0.5000000), wk =   0.0480000
        k(   12) = (   0.0000000   0.1000000  -0.4000000), wk =   0.0480000
        k(   13) = (   0.0000000   0.1000000  -0.3000000), wk =   0.0480000
        k(   14) = (   0.0000000   0.1000000  -0.2000000), wk =   0.0480000
        k(   15) = (   0.0000000   0.1000000  -0.1000000), wk =   0.0240000
        k(   16) = (   0.0000000   0.2000000   0.2000000), wk =   0.0120000
        k(   17) = (   0.0000000   0.2000000   0.3000000), wk =   0.0480000
        k(   18) = (   0.0000000   0.2000000   0.4000000), wk =   0.0480000
        k(   19) = (   0.0000000   0.2000000  -0.5000000), wk =   0.0480000
        k(   20) = (   0.0000000   0.2000000  -0.4000000), wk =   0.0480000
        k(   21) = (   0.0000000   0.2000000  -0.3000000), wk =   0.0480000
        k(   22) = (   0.0000000   0.2000000  -0.2000000), wk =   0.0240000
        k(   23) = (   0.0000000   0.3000000   0.3000000), wk =   0.0120000
        k(   24) = (   0.0000000   0.3000000   0.4000000), wk =   0.0480000
        k(   25) = (   0.0000000   0.3000000  -0.5000000), wk =   0.0480000
        k(   26) = (   0.0000000   0.3000000  -0.4000000), wk =   0.0480000
        k(   27) = (   0.0000000   0.3000000  -0.3000000), wk =   0.0240000
        k(   28) = (   0.0000000   0.4000000   0.4000000), wk =   0.0120000
        k(   29) = (   0.0000000   0.4000000  -0.5000000), wk =   0.0480000
        k(   30) = (   0.0000000   0.4000000  -0.4000000), wk =   0.0240000
        k(   31) = (   0.0000000  -0.5000000  -0.5000000), wk =   0.0060000
        k(   32) = (   0.1000000   0.2000000   0.3000000), wk =   0.0480000
        k(   33) = (   0.1000000   0.2000000   0.4000000), wk =   0.0960000
        k(   34) = (   0.1000000   0.2000000  -0.5000000), wk =   0.0960000
        k(   35) = (   0.1000000   0.2000000  -0.4000000), wk =   0.0480000
        k(   36) = (   0.1000000   0.3000000   0.4000000), wk =   0.0480000
        k(   37) = (   0.1000000   0.3000000  -0.5000000), wk =   0.0960000
        k(   38) = (   0.1000000   0.3000000  -0.4000000), wk =   0.0960000
        k(   39) = (   0.1000000   0.3000000  -0.3000000), wk =   0.0960000
        k(   40) = (   0.1000000   0.3000000  -0.2000000), wk =   0.0480000
        k(   41) = (   0.1000000   0.4000000  -0.5000000), wk =   0.0480000
        k(   42) = (   0.1000000   0.4000000  -0.4000000), wk =   0.0960000
        k(   43) = (   0.1000000   0.4000000  -0.3000000), wk =   0.0480000
        k(   44) = (   0.1000000  -0.5000000  -0.4000000), wk =   0.0240000
        k(   45) = (   0.2000000   0.4000000  -0.4000000), wk =   0.0480000
        k(   46) = (   0.2000000   0.4000000  -0.3000000), wk =   0.0480000
        k(   47) = (   0.2000000  -0.5000000  -0.3000000), wk =   0.0240000

     Dense  grid:    81547 G-vectors     FFT dimensions: (  64,  64,  64)

     Smooth grid:    44399 G-vectors     FFT dimensions: (  50,  50,  50)

     Dynamical RAM for                 wfc:       0.13 MB

     Dynamical RAM for     wfc (w. buffer):       6.10 MB

     Dynamical RAM for           str. fact:       0.41 MB

     Dynamical RAM for           local pot:       0.00 MB

     Dynamical RAM for          nlocal pot:       0.51 MB

     Dynamical RAM for                qrad:       3.52 MB

     Dynamical RAM for          rho,v,vnew:       1.65 MB

     Dynamical RAM for               rhoin:       0.55 MB

     Dynamical RAM for            rho*nmix:       3.32 MB

     Dynamical RAM for           G-vectors:       0.83 MB

     Dynamical RAM for          h,s,v(r/c):       0.01 MB

     Dynamical RAM for          <psi|beta>:       0.00 MB

     Dynamical RAM for                 psi:       0.25 MB

     Dynamical RAM for                hpsi:       0.25 MB

     Dynamical RAM for                spsi:       0.25 MB

     Dynamical RAM for      wfcinit/wfcrot:       0.26 MB

     Dynamical RAM for           addusdens:      38.78 MB

     Estimated static dynamical RAM per process >      15.92 MB

     Estimated max dynamical RAM per process >      58.01 MB

     Estimated total dynamical RAM >     348.08 MB

     Initial potential from superposition of free atoms

     starting charge      17.9949, renormalised to      18.0000
     Starting wfcs are   13 randomized atomic wfcs

     total cpu time spent up to now is        1.4 secs

     per-process dynamical memory:    27.0 Mb

     Self-consistent Calculation

     iteration #  1     ecut=    80.00 Ry     beta= 0.30
     Davidson diagonalization with overlap

---- Real-time Memory Report at c_bands before calling an iterative solver
            99 MiB given to the printing process from OS
            26 MiB allocation reported by mallinfo(arena+hblkhd)
          2171 MiB available memory on the node where the printing process lives
------------------
     ethr =  1.00E-02,  avg # of iterations =  1.1

     Threshold (ethr) on eigenvalues was too large:
     Diagonalizing with lowered threshold

     Davidson diagonalization with overlap

---- Real-time Memory Report at c_bands before calling an iterative solver
           107 MiB given to the printing process from OS
            29 MiB allocation reported by mallinfo(arena+hblkhd)
          2158 MiB available memory on the node where the printing process lives
------------------
     ethr =  2.05E-04,  avg # of iterations =  5.1

     total cpu time spent up to now is        3.7 secs

     total energy              =    -128.97495487 Ry
     estimated scf accuracy    <       0.04133124 Ry

     iteration #  2     ecut=    80.00 Ry     beta= 0.30
     Davidson diagonalization with overlap

---- Real-time Memory Report at c_bands before calling an iterative solver
           109 MiB given to the printing process from OS
            30 MiB allocation reported by mallinfo(arena+hblkhd)
          2150 MiB available memory on the node where the printing process lives
------------------
     ethr =  2.30E-04,  avg # of iterations =  1.7

     total cpu time spent up to now is        4.6 secs

     total energy              =    -128.97306574 Ry
     estimated scf accuracy    <       0.01253373 Ry

     iteration #  3     ecut=    80.00 Ry     beta= 0.30
     Davidson diagonalization with overlap

---- Real-time Memory Report at c_bands before calling an iterative solver
           109 MiB given to the printing process from OS
            31 MiB allocation reported by mallinfo(arena+hblkhd)
          2146 MiB available memory on the node where the printing process lives
------------------
     ethr =  6.96E-05,  avg # of iterations =  2.1

     total cpu time spent up to now is        5.8 secs

     total energy              =    -128.97652381 Ry
     estimated scf accuracy    <       0.00138935 Ry

     iteration #  4     ecut=    80.00 Ry     beta= 0.30
     Davidson diagonalization with overlap

---- Real-time Memory Report at c_bands before calling an iterative solver
           109 MiB given to the printing process from OS
            31 MiB allocation reported by mallinfo(arena+hblkhd)
          2145 MiB available memory on the node where the printing process lives
------------------
     ethr =  7.72E-06,  avg # of iterations =  5.2

     total cpu time spent up to now is        7.2 secs

     total energy              =    -128.97725430 Ry
     estimated scf accuracy    <       0.00021554 Ry

     iteration #  5     ecut=    80.00 Ry     beta= 0.30
     Davidson diagonalization with overlap

---- Real-time Memory Report at c_bands before calling an iterative solver
           109 MiB given to the printing process from OS
            31 MiB allocation reported by mallinfo(arena+hblkhd)
          2146 MiB available memory on the node where the printing process lives
------------------
     ethr =  1.20E-06,  avg # of iterations =  4.6

     total cpu time spent up to now is        8.6 secs

     total energy              =    -128.97733540 Ry
     estimated scf accuracy    <       0.00007042 Ry

     iteration #  6     ecut=    80.00 Ry     beta= 0.30
     Davidson diagonalization with overlap

---- Real-time Memory Report at c_bands before calling an iterative solver
           110 MiB given to the printing process from OS
            31 MiB allocation reported by mallinfo(arena+hblkhd)
          2128 MiB available memory on the node where the printing process lives
------------------
     ethr =  3.91E-07,  avg # of iterations =  5.4

     total cpu time spent up to now is       10.1 secs

     total energy              =    -128.97736209 Ry
     estimated scf accuracy    <       0.00006192 Ry

     iteration #  7     ecut=    80.00 Ry     beta= 0.30
     Davidson diagonalization with overlap

---- Real-time Memory Report at c_bands before calling an iterative solver
           110 MiB given to the printing process from OS
            32 MiB allocation reported by mallinfo(arena+hblkhd)
          2138 MiB available memory on the node where the printing process lives
------------------
     ethr =  3.44E-07,  avg # of iterations =  1.1

     total cpu time spent up to now is       11.0 secs

     total energy              =    -128.97733951 Ry
     estimated scf accuracy    <       0.00003194 Ry

     iteration #  8     ecut=    80.00 Ry     beta= 0.30
     Davidson diagonalization with overlap

---- Real-time Memory Report at c_bands before calling an iterative solver
           110 MiB given to the printing process from OS
            32 MiB allocation reported by mallinfo(arena+hblkhd)
          2143 MiB available memory on the node where the printing process lives
------------------
     ethr =  1.77E-07,  avg # of iterations =  4.0

     total cpu time spent up to now is       12.4 secs

     total energy              =    -128.97735754 Ry
     estimated scf accuracy    <       0.00000745 Ry

     iteration #  9     ecut=    80.00 Ry     beta= 0.30
     Davidson diagonalization with overlap

---- Real-time Memory Report at c_bands before calling an iterative solver
           110 MiB given to the printing process from OS
            32 MiB allocation reported by mallinfo(arena+hblkhd)
          2131 MiB available memory on the node where the printing process lives
------------------
     ethr =  4.14E-08,  avg # of iterations =  4.6

     total cpu time spent up to now is       14.0 secs

     total energy              =    -128.97735751 Ry
     estimated scf accuracy    <       0.00001129 Ry

     iteration # 10     ecut=    80.00 Ry     beta= 0.30
     Davidson diagonalization with overlap

---- Real-time Memory Report at c_bands before calling an iterative solver
           111 MiB given to the printing process from OS
            32 MiB allocation reported by mallinfo(arena+hblkhd)
          2131 MiB available memory on the node where the printing process lives
------------------
     ethr =  4.14E-08,  avg # of iterations =  1.6

     total cpu time spent up to now is       15.2 secs

     total energy              =    -128.97735624 Ry
     estimated scf accuracy    <       0.00000656 Ry

     iteration # 11     ecut=    80.00 Ry     beta= 0.30
     Davidson diagonalization with overlap

---- Real-time Memory Report at c_bands before calling an iterative solver
           111 MiB given to the printing process from OS
            32 MiB allocation reported by mallinfo(arena+hblkhd)
          2135 MiB available memory on the node where the printing process lives
------------------
     ethr =  3.65E-08,  avg # of iterations =  1.3

     total cpu time spent up to now is       16.1 secs

     total energy              =    -128.97735365 Ry
     estimated scf accuracy    <       0.00000343 Ry

     iteration # 12     ecut=    80.00 Ry     beta= 0.30
     Davidson diagonalization with overlap

---- Real-time Memory Report at c_bands before calling an iterative solver
           111 MiB given to the printing process from OS
            32 MiB allocation reported by mallinfo(arena+hblkhd)
          2136 MiB available memory on the node where the printing process lives
------------------
     ethr =  1.91E-08,  avg # of iterations =  7.8

     total cpu time spent up to now is       17.9 secs

     total energy              =    -128.97735500 Ry
     estimated scf accuracy    <       0.00000700 Ry

     iteration # 13     ecut=    80.00 Ry     beta= 0.30
     Davidson diagonalization with overlap

---- Real-time Memory Report at c_bands before calling an iterative solver
           111 MiB given to the printing process from OS
            32 MiB allocation reported by mallinfo(arena+hblkhd)
          2138 MiB available memory on the node where the printing process lives
------------------
     ethr =  1.91E-08,  avg # of iterations =  2.1

     total cpu time spent up to now is       19.0 secs

     total energy              =    -128.97735668 Ry
     estimated scf accuracy    <       0.00000109 Ry

     iteration # 14     ecut=    80.00 Ry     beta= 0.30
     Davidson diagonalization with overlap

---- Real-time Memory Report at c_bands before calling an iterative solver
           111 MiB given to the printing process from OS
            32 MiB allocation reported by mallinfo(arena+hblkhd)
          2134 MiB available memory on the node where the printing process lives
------------------
     ethr =  6.05E-09,  avg # of iterations =  1.6

     total cpu time spent up to now is       20.0 secs

     total energy              =    -128.97735641 Ry
     estimated scf accuracy    <       0.00000258 Ry

     iteration # 15     ecut=    80.00 Ry     beta= 0.30
     Davidson diagonalization with overlap

---- Real-time Memory Report at c_bands before calling an iterative solver
           111 MiB given to the printing process from OS
            32 MiB allocation reported by mallinfo(arena+hblkhd)
          2232 MiB available memory on the node where the printing process lives
------------------
     ethr =  6.05E-09,  avg # of iterations =  1.3

     total cpu time spent up to now is       21.0 secs

     total energy              =    -128.97735468 Ry
     estimated scf accuracy    <       0.00000205 Ry

     iteration # 16     ecut=    80.00 Ry     beta= 0.30
     Davidson diagonalization with overlap

---- Real-time Memory Report at c_bands before calling an iterative solver
           111 MiB given to the printing process from OS
            32 MiB allocation reported by mallinfo(arena+hblkhd)
          2231 MiB available memory on the node where the printing process lives
------------------
     ethr =  6.05E-09,  avg # of iterations =  7.8

     total cpu time spent up to now is       22.8 secs

     total energy              =    -128.97735680 Ry
     estimated scf accuracy    <       0.00000151 Ry

     iteration # 17     ecut=    80.00 Ry     beta= 0.30
     Davidson diagonalization with overlap

---- Real-time Memory Report at c_bands before calling an iterative solver
           111 MiB given to the printing process from OS
            32 MiB allocation reported by mallinfo(arena+hblkhd)
          2223 MiB available memory on the node where the printing process lives
------------------
     ethr =  6.05E-09,  avg # of iterations =  1.9

     total cpu time spent up to now is       23.8 secs

     total energy              =    -128.97735473 Ry
     estimated scf accuracy    <       0.00000251 Ry

     iteration # 18     ecut=    80.00 Ry     beta= 0.30
     Davidson diagonalization with overlap

---- Real-time Memory Report at c_bands before calling an iterative solver
           111 MiB given to the printing process from OS
            32 MiB allocation reported by mallinfo(arena+hblkhd)
          2233 MiB available memory on the node where the printing process lives
------------------
     ethr =  6.05E-09,  avg # of iterations =  8.3

     total cpu time spent up to now is       25.8 secs

     total energy              =    -128.97735546 Ry
     estimated scf accuracy    <       0.00000171 Ry

     iteration # 19     ecut=    80.00 Ry     beta= 0.30
     Davidson diagonalization with overlap

---- Real-time Memory Report at c_bands before calling an iterative solver
           111 MiB given to the printing process from OS
            32 MiB allocation reported by mallinfo(arena+hblkhd)
          2230 MiB available memory on the node where the printing process lives
------------------
     ethr =  6.05E-09,  avg # of iterations =  3.5

     total cpu time spent up to now is       27.2 secs

     total energy              =    -128.97735566 Ry
     estimated scf accuracy    <       0.00000009 Ry

     iteration # 20     ecut=    80.00 Ry     beta= 0.30
     Davidson diagonalization with overlap

---- Real-time Memory Report at c_bands before calling an iterative solver
           111 MiB given to the printing process from OS
            32 MiB allocation reported by mallinfo(arena+hblkhd)
          2230 MiB available memory on the node where the printing process lives
------------------
     ethr =  4.76E-10,  avg # of iterations =  8.2

     total cpu time spent up to now is       29.3 secs

     total energy              =    -128.97735586 Ry
     estimated scf accuracy    <       0.00000007 Ry

     iteration # 21     ecut=    80.00 Ry     beta= 0.30
     Davidson diagonalization with overlap

---- Real-time Memory Report at c_bands before calling an iterative solver
           111 MiB given to the printing process from OS
            32 MiB allocation reported by mallinfo(arena+hblkhd)
          2239 MiB available memory on the node where the printing process lives
------------------
     ethr =  3.72E-10,  avg # of iterations =  2.3

     total cpu time spent up to now is       30.7 secs

     total energy              =    -128.97735591 Ry
     estimated scf accuracy    <       0.00000016 Ry

     iteration # 22     ecut=    80.00 Ry     beta= 0.30
     Davidson diagonalization with overlap

---- Real-time Memory Report at c_bands before calling an iterative solver
           111 MiB given to the printing process from OS
            32 MiB allocation reported by mallinfo(arena+hblkhd)
          2217 MiB available memory on the node where the printing process lives
------------------
     ethr =  3.72E-10,  avg # of iterations =  3.1

     total cpu time spent up to now is       31.9 secs

     total energy              =    -128.97735577 Ry
     estimated scf accuracy    <       0.00000030 Ry

     iteration # 23     ecut=    80.00 Ry     beta= 0.30
     Davidson diagonalization with overlap

---- Real-time Memory Report at c_bands before calling an iterative solver
           111 MiB given to the printing process from OS
            32 MiB allocation reported by mallinfo(arena+hblkhd)
          2234 MiB available memory on the node where the printing process lives
------------------
     ethr =  3.72E-10,  avg # of iterations =  4.0

     total cpu time spent up to now is       33.5 secs

     total energy              =    -128.97735579 Ry
     estimated scf accuracy    <       0.00000004 Ry

     iteration # 24     ecut=    80.00 Ry     beta= 0.30
     Davidson diagonalization with overlap

---- Real-time Memory Report at c_bands before calling an iterative solver
           111 MiB given to the printing process from OS
            32 MiB allocation reported by mallinfo(arena+hblkhd)
          2221 MiB available memory on the node where the printing process lives
------------------
     ethr =  2.27E-10,  avg # of iterations =  2.4

     total cpu time spent up to now is       34.5 secs

     total energy              =    -128.97735579 Ry
     estimated scf accuracy    <       0.00000003 Ry

     iteration # 25     ecut=    80.00 Ry     beta= 0.30
     Davidson diagonalization with overlap

---- Real-time Memory Report at c_bands before calling an iterative solver
           111 MiB given to the printing process from OS
            32 MiB allocation reported by mallinfo(arena+hblkhd)
          2216 MiB available memory on the node where the printing process lives
------------------
     ethr =  1.61E-10,  avg # of iterations =  2.7

     total cpu time spent up to now is       35.6 secs

     total energy              =    -128.97735579 Ry
     estimated scf accuracy    <       0.00000001 Ry

     iteration # 26     ecut=    80.00 Ry     beta= 0.30
     Davidson diagonalization with overlap

---- Real-time Memory Report at c_bands before calling an iterative solver
           111 MiB given to the printing process from OS
            32 MiB allocation reported by mallinfo(arena+hblkhd)
          2236 MiB available memory on the node where the printing process lives
------------------
     ethr =  6.92E-11,  avg # of iterations =  3.0

     total cpu time spent up to now is       36.7 secs

     total energy              =    -128.97735579 Ry
     estimated scf accuracy    <          5.7E-09 Ry

     iteration # 27     ecut=    80.00 Ry     beta= 0.30
     Davidson diagonalization with overlap

---- Real-time Memory Report at c_bands before calling an iterative solver
           111 MiB given to the printing process from OS
            32 MiB allocation reported by mallinfo(arena+hblkhd)
          2235 MiB available memory on the node where the printing process lives
------------------
     ethr =  3.19E-11,  avg # of iterations =  2.9

     total cpu time spent up to now is       37.7 secs

     total energy              =    -128.97735579 Ry
     estimated scf accuracy    <          2.4E-09 Ry

     iteration # 28     ecut=    80.00 Ry     beta= 0.30
     Davidson diagonalization with overlap

---- Real-time Memory Report at c_bands before calling an iterative solver
           111 MiB given to the printing process from OS
            32 MiB allocation reported by mallinfo(arena+hblkhd)
          2235 MiB available memory on the node where the printing process lives
------------------
     ethr =  1.35E-11,  avg # of iterations =  3.8

     total cpu time spent up to now is       38.9 secs

     total energy              =    -128.97735580 Ry
     estimated scf accuracy    <          8.3E-10 Ry

     iteration # 29     ecut=    80.00 Ry     beta= 0.30
     Davidson diagonalization with overlap

---- Real-time Memory Report at c_bands before calling an iterative solver
           111 MiB given to the printing process from OS
            32 MiB allocation reported by mallinfo(arena+hblkhd)
          2232 MiB available memory on the node where the printing process lives
------------------
     ethr =  4.63E-12,  avg # of iterations =  2.2

     total cpu time spent up to now is       39.9 secs

     total energy              =    -128.97735579 Ry
     estimated scf accuracy    <          9.0E-10 Ry

     iteration # 30     ecut=    80.00 Ry     beta= 0.30
     Davidson diagonalization with overlap

---- Real-time Memory Report at c_bands before calling an iterative solver
           111 MiB given to the printing process from OS
            32 MiB allocation reported by mallinfo(arena+hblkhd)
          2237 MiB available memory on the node where the printing process lives
------------------
     ethr =  4.63E-12,  avg # of iterations =  6.0

     total cpu time spent up to now is       42.3 secs

     total energy              =    -128.97735579 Ry
     estimated scf accuracy    <          3.8E-10 Ry

     iteration # 31     ecut=    80.00 Ry     beta= 0.30
     Davidson diagonalization with overlap

---- Real-time Memory Report at c_bands before calling an iterative solver
           111 MiB given to the printing process from OS
            32 MiB allocation reported by mallinfo(arena+hblkhd)
          2244 MiB available memory on the node where the printing process lives
------------------
     ethr =  2.13E-12,  avg # of iterations =  2.1

     total cpu time spent up to now is       44.3 secs

     End of self-consistent calculation

          k = 0.0000 0.0000 0.0000 (  5601 PWs)   bands (ev):

    -6.0544  -3.1525  -3.1525  -3.1525  -2.8917  -2.8917   5.1232   5.1232
     5.1232

     occupation numbers 
     1.0000   1.0000   1.0000   1.0000   1.0000   1.0000   1.0000   1.0000
     1.0000

          k = 0.0707 0.0707-0.0707 (  5591 PWs)   bands (ev):

    -6.0164  -3.1452  -3.1452  -3.1237  -2.8923  -2.8923   4.2050   5.0320
     5.0320

     occupation numbers 
     1.0000   1.0000   1.0000   1.0000   1.0000   1.0000   1.0000   1.0000
     1.0000

          k = 0.1414 0.1414-0.1414 (  5549 PWs)   bands (ev):

    -5.9163  -3.1270  -3.1270  -3.0296  -2.8926  -2.8926   2.9783   4.8153
     4.8153

     occupation numbers 
     1.0000   1.0000   1.0000   1.0000   1.0000   1.0000   1.0000   1.0000
     1.0000

          k = 0.2121 0.2121-0.2121 (  5558 PWs)   bands (ev):

    -5.7928  -3.1071  -3.1071  -2.8899  -2.8899  -2.8599   1.8591   4.5802
     4.5802

     occupation numbers 
     1.0000   1.0000   1.0000   1.0000   1.0000   1.0000   1.0000   1.0000
     1.0000

          k = 0.2828 0.2828-0.2828 (  5570 PWs)   bands (ev):

    -5.6941  -3.0936  -3.0936  -2.8846  -2.8846  -2.6500   1.0230   4.4092
     4.4092

     occupation numbers 
     1.0000   1.0000   1.0000   1.0000   1.0000   1.0000   1.0000   1.0000
     1.0000

          k =-0.3536-0.3536 0.3536 (  5564 PWs)   bands (ev):

    -5.6570  -3.0891  -3.0891  -2.8817  -2.8817  -2.5406   0.6954   4.3474
     4.3474

     occupation numbers 
     1.0000   1.0000   1.0000   1.0000   1.0000   1.0000   1.0000   1.0000
     1.0000

          k = 0.1414 0.0000 0.0000 (  5593 PWs)   bands (ev):

    -6.0037  -3.1383  -3.1383  -3.1233  -2.8962  -2.8886   4.1675   4.8705
     4.8705

     occupation numbers 
     1.0000   1.0000   1.0000   1.0000   1.0000   1.0000   1.0000   1.0000
     1.0000

          k = 0.2121 0.0707-0.0707 (  5564 PWs)   bands (ev):

    -5.9245  -3.1252  -3.1198  -3.0548  -2.8983  -2.8860   3.2487   4.6141
     4.6754

     occupation numbers 
     1.0000   1.0000   1.0000   1.0000   1.0000   1.0000   1.0000   1.0000
     1.0000

          k = 0.2828 0.1414-0.1414 (  5563 PWs)   bands (ev):

    -5.8090  -3.1078  -3.0987  -2.9335  -2.8829  -2.8725   2.1797   4.3764
     4.4055

     occupation numbers 
     1.0000   1.0000   1.0000   1.0000   1.0000   1.0000   1.0000   1.0000
     1.0000

          k = 0.3536 0.2121-0.2121 (  5547 PWs)   bands (ev):

    -5.7027  -3.0925  -3.0839  -2.9027  -2.8799  -2.6909   1.2796   4.1274
     4.2329

     occupation numbers 
     1.0000   1.0000   1.0000   1.0000   1.0000   1.0000   1.0000   1.0000
     1.0000

          k =-0.2828-0.4243 0.4243 (  5546 PWs)   bands (ev):

    -5.6458  -3.0842  -3.0790  -2.8915  -2.8807  -2.5317   0.7808   3.9308
     4.2190

     occupation numbers 
     1.0000   1.0000   1.0000   1.0000   1.0000   1.0000   1.0000   1.0000
     1.0000

          k =-0.2121-0.3536 0.3536 (  5546 PWs)   bands (ev):

    -5.6580  -3.0836  -3.0834  -2.8874  -2.8865  -2.5686   0.8892   3.8647
     4.3364

     occupation numbers 
     1.0000   1.0000   1.0000   1.0000   1.0000   1.0000   1.0000   1.0000
     1.0000

          k =-0.1414-0.2828 0.2828 (  5545 PWs)   bands (ev):

    -5.7353  -3.0975  -3.0907  -2.8955  -2.8909  -2.7584   1.5497   3.9518
     4.5555

     occupation numbers 
     1.0000   1.0000   1.0000   1.0000   1.0000   1.0000   1.0000   1.0000
     1.0000

          k =-0.0707-0.2121 0.2121 (  5563 PWs)   bands (ev):

    -5.8500  -3.1180  -3.1065  -2.9638  -2.8989  -2.8799   2.5166   4.1976
     4.8123

     occupation numbers 
     1.0000   1.0000   1.0000   1.0000   1.0000   1.0000   1.0000   1.0000
     1.0000

          k = 0.0000-0.1414 0.1414 (  5563 PWs)   bands (ev):

    -5.9577  -3.1371  -3.1274  -3.0774  -2.8967  -2.8885   3.5220   4.6026
     5.0061

     occupation numbers 
     1.0000   1.0000   1.0000   1.0000   1.0000   1.0000   1.0000   1.0000
     1.0000

          k = 0.2828 0.0000 0.0000 (  5557 PWs)   bands (ev):

    -5.8711  -3.0997  -3.0997  -3.0358  -2.8963  -2.8805   3.0003   4.3223
     4.3223

     occupation numbers 
     1.0000   1.0000   1.0000   1.0000   1.0000   1.0000   1.0000   1.0000
     1.0000

          k = 0.3536 0.0707-0.0707 (  5550 PWs)   bands (ev):

    -5.7770  -3.0831  -3.0761  -2.9692  -2.8762  -2.8483   2.2798   4.0021
     4.0629

     occupation numbers 
     1.0000   1.0000   1.0000   1.0000   1.0000   1.0000   1.0000   1.0000
     1.0000

          k = 0.4243 0.1414-0.1414 (  5555 PWs)   bands (ev):

    -5.6795  -3.0729  -3.0588  -2.9363  -2.8740  -2.6849   1.5088   3.6092
     3.9149

     occupation numbers 
     1.0000   1.0000   1.0000   1.0000   1.0000   1.0000   1.0000   1.0000
     1.0000

          k =-0.2121-0.4950 0.4950 (  5549 PWs)   bands (ev):

    -5.6160  -3.0679  -3.0527  -2.9168  -2.8771  -2.5056   0.9720   3.2672
     3.9146

     occupation numbers 
     1.0000   1.0000   1.0000   1.0000   1.0000   1.0000   1.0000   1.0000
     1.0000

          k =-0.1414-0.4243 0.4243 (  5537 PWs)   bands (ev):

    -5.6086  -3.0676  -3.0579  -2.9017  -2.8867  -2.4695   0.8983   3.0790
     4.0615

     occupation numbers 
     1.0000   1.0000   1.0000   1.0000   1.0000   1.0000   1.0000   1.0000
     1.0000

          k =-0.0707-0.3536 0.3536 (  5543 PWs)   bands (ev):

    -5.6596  -3.0740  -3.0724  -2.8972  -2.8962  -2.6111   1.3091   3.1199
     4.3188

     occupation numbers 
     1.0000   1.0000   1.0000   1.0000   1.0000   1.0000   1.0000   1.0000
     1.0000

          k = 0.0000-0.2828 0.2828 (  5536 PWs)   bands (ev):

    -5.7515  -3.0971  -3.0851  -2.9044  -2.9016  -2.7944   1.9415   3.4862
     4.6087

     occupation numbers 
     1.0000   1.0000   1.0000   1.0000   1.0000   1.0000   1.0000   1.0000
     1.0000

          k = 0.4243 0.0000 0.0000 (  5558 PWs)   bands (ev):

    -5.7093  -3.0491  -3.0491  -2.9809  -2.8704  -2.7776   1.9501   3.7747
     3.7747

     occupation numbers 
     1.0000   1.0000   1.0000   1.0000   1.0000   1.0000   1.0000   1.0000
     1.0000

          k = 0.4950 0.0707-0.0707 (  5548 PWs)   bands (ev):

    -5.6333  -3.0374  -3.0285  -2.9692  -2.8674  -2.6338   1.4448   3.4224
     3.6009

     occupation numbers 
     1.0000   1.0000   1.0000   1.0000   1.0000   1.0000   1.0000   1.0000
     1.0000

          k =-0.1414-0.5657 0.5657 (  5565 PWs)   bands (ev):

    -5.5786  -3.0411  -3.0208  -2.9476  -2.8708  -2.4651   1.0520   2.9502
     3.5847

     occupation numbers 
     1.0000   1.0000   1.0000   1.0000   1.0000   1.0000   1.0000   1.0000
     1.0000

          k =-0.0707-0.4950 0.4950 (  5534 PWs)   bands (ev):

    -5.5644  -3.0488  -3.0272  -2.9247  -2.8811  -2.3856   0.9387   2.6074
     3.7298

     occupation numbers 
     1.0000   1.0000   1.0000   1.0000   1.0000   1.0000   1.0000   1.0000
     1.0000

          k =-0.0000-0.4243 0.4243 (  5550 PWs)   bands (ev):

    -5.5949  -3.0587  -3.0468  -2.9068  -2.8922  -2.4572   1.0909   2.6155
     4.0011

     occupation numbers 
     1.0000   1.0000   1.0000   1.0000   1.0000   1.0000   1.0000   1.0000
     1.0000

          k = 0.5657 0.0000 0.0000 (  5550 PWs)   bands (ev):

    -5.5827  -3.0054  -3.0054  -2.9900  -2.8623  -2.5361   1.1419   3.3930
     3.3930

     occupation numbers 
     1.0000   1.0000   1.0000   1.0000   1.0000   1.0000   1.0000   1.0000
     1.0000

          k =-0.0707-0.6364 0.6364 (  5548 PWs)   bands (ev):

    -5.5479  -3.0129  -2.9966  -2.9735  -2.8630  -2.4225   0.9103   3.1006
     3.3443

     occupation numbers 
     1.0000   1.0000   1.0000   1.0000   1.0000   1.0000   1.0000   1.0000
     1.0000

          k = 0.0000-0.5657 0.5657 (  5554 PWs)   bands (ev):

    -5.5413  -3.0296  -3.0043  -2.9501  -2.8712  -2.3606   0.8835   2.6958
     3.4662

     occupation numbers 
     1.0000   1.0000   1.0000   1.0000   1.0000   1.0000   1.0000   1.0000
     1.0000

          k =-0.7071 0.0000 0.0000 (  5514 PWs)   bands (ev):

    -5.5360  -2.9964  -2.9879  -2.9879  -2.8592  -2.4029   0.8140   3.2574
     3.2574

     occupation numbers 
     1.0000   1.0000   1.0000   1.0000   1.0000   1.0000   1.0000   1.0000
     1.0000

          k = 0.2828 0.1414 0.0000 (  5548 PWs)   bands (ev):

    -5.8377  -3.1084  -3.0967  -2.9785  -2.8925  -2.8769   2.5996   4.0423
     4.5683

     occupation numbers 
     1.0000   1.0000   1.0000   1.0000   1.0000   1.0000   1.0000   1.0000
     1.0000

          k = 0.3536 0.2121-0.0707 (  5552 PWs)   bands (ev):

    -5.7314  -3.0895  -3.0778  -2.9237  -2.8828  -2.7686   1.7931   3.6187
     4.3417

     occupation numbers 
     1.0000   1.0000   1.0000   1.0000   1.0000   1.0000   1.0000   1.0000
     1.0000

          k =-0.2828-0.4243 0.5657 (  5546 PWs)   bands (ev):

    -5.6471  -3.0760  -3.0667  -2.9083  -2.8816  -2.5763   1.1076   3.4057
     4.1177

     occupation numbers 
     1.0000   1.0000   1.0000   1.0000   1.0000   1.0000   1.0000   1.0000
     1.0000

          k =-0.2121-0.3536 0.4950 (  5546 PWs)   bands (ev):

    -5.6155  -3.0719  -3.0627  -2.8999  -2.8839  -2.4771   0.8296   3.3448
     4.0258

     occupation numbers 
     1.0000   1.0000   1.0000   1.0000   1.0000   1.0000   1.0000   1.0000
     1.0000

          k = 0.4243 0.1414-0.0000 (  5546 PWs)   bands (ev):

    -5.6921  -3.0633  -3.0546  -2.9536  -2.8734  -2.7290   1.7582   3.5093
     3.9031

     occupation numbers 
     1.0000   1.0000   1.0000   1.0000   1.0000   1.0000   1.0000   1.0000
     1.0000

          k =-0.2121-0.4950 0.6364 (  5560 PWs)   bands (ev):

    -5.6167  -3.0536  -3.0416  -2.9371  -2.8748  -2.5507   1.2426   3.1118
     3.7037

     occupation numbers 
     1.0000   1.0000   1.0000   1.0000   1.0000   1.0000   1.0000   1.0000
     1.0000

          k =-0.1414-0.4243 0.5657 (  5560 PWs)   bands (ev):

    -5.5786  -3.0532  -3.0371  -2.9194  -2.8823  -2.4189   0.9470   2.8408
     3.6606

     occupation numbers 
     1.0000   1.0000   1.0000   1.0000   1.0000   1.0000   1.0000   1.0000
     1.0000

          k =-0.0707-0.3536 0.4950 (  5558 PWs)   bands (ev):

    -5.5904  -3.0568  -3.0448  -2.9113  -2.8880  -2.4464   1.0276   2.7631
     3.8151

     occupation numbers 
     1.0000   1.0000   1.0000   1.0000   1.0000   1.0000   1.0000   1.0000
     1.0000

          k = 0.0000-0.2828 0.4243 (  5561 PWs)   bands (ev):

    -5.6480  -3.0676  -3.0608  -2.9178  -2.8847  -2.6025   1.3866   3.0022
     4.0894

     occupation numbers 
     1.0000   1.0000   1.0000   1.0000   1.0000   1.0000   1.0000   1.0000
     1.0000

          k =-0.1414-0.5657 0.7071 (  5559 PWs)   bands (ev):

    -5.5786  -3.0235  -3.0192  -2.9618  -2.8673  -2.4941   1.1130   3.1695
     3.3691

     occupation numbers 
     1.0000   1.0000   1.0000   1.0000   1.0000   1.0000   1.0000   1.0000
     1.0000

          k =-0.0707-0.4950 0.6364 (  5551 PWs)   bands (ev):

    -5.5485  -3.0302  -3.0154  -2.9425  -2.8746  -2.3757   0.9368   2.7909
     3.3168

     occupation numbers 
     1.0000   1.0000   1.0000   1.0000   1.0000   1.0000   1.0000   1.0000
     1.0000

          k =-0.0000-0.4243 0.5657 (  5544 PWs)   bands (ev):

    -5.5532  -3.0424  -3.0239  -2.9228  -2.8853  -2.3584   0.9540   2.5508
     3.5017

     occupation numbers 
     1.0000   1.0000   1.0000   1.0000   1.0000   1.0000   1.0000   1.0000
     1.0000

          k =-0.7071 0.1414 0.0000 (  5564 PWs)   bands (ev):

    -5.5366  -3.0128  -3.0032  -2.9615  -2.8660  -2.3735   0.8524   3.0914
     3.1326

     occupation numbers 
     1.0000   1.0000   1.0000   1.0000   1.0000   1.0000   1.0000   1.0000
     1.0000

          k =-0.1414-0.4243 0.7071 (  5562 PWs)   bands (ev):

    -5.5674  -3.0397  -3.0319  -2.9274  -2.8823  -2.4108   1.0378   2.7670
     3.3945

     occupation numbers 
     1.0000   1.0000   1.0000   1.0000   1.0000   1.0000   1.0000   1.0000
     1.0000

          k =-0.0707-0.3536 0.6364 (  5552 PWs)   bands (ev):

    -5.5490  -3.0378  -3.0257  -2.9193  -2.8890  -2.3476   0.9525   2.6672
     3.2409

     occupation numbers 
     1.0000   1.0000   1.0000   1.0000   1.0000   1.0000   1.0000   1.0000
     1.0000

          k =-0.7071 0.2828 0.0000 (  5544 PWs)   bands (ev):

    -5.5375  -3.0254  -3.0222  -2.9288  -2.8840  -2.3279   0.9227   2.8392
     2.9510

     occupation numbers 
     1.0000   1.0000   1.0000   1.0000   1.0000   1.0000   1.0000   1.0000
     1.0000

     highest occupied level (ev):     5.1232

!    total energy              =    -128.97735579 Ry
     estimated scf accuracy    <          6.1E-11 Ry

     The total energy is the sum of the following terms:
     one-electron contribution =     -48.73589347 Ry
     hartree contribution      =      36.05960328 Ry
     xc contribution           =     -39.49983867 Ry
     ewald contribution        =     -76.80122694 Ry

     convergence has been achieved in  31 iterations

     Writing all to output data dir /home/User/opencode_workspace/DFT/calculations/cdte/conv_scf_k10/out/pwscf.save/ :
     XML data file, charge density, pseudopotentials, collected wavefunctions

     init_run     :      1.05s CPU      1.17s WALL (       1 calls)
     electrons    :     35.66s CPU     42.90s WALL (       1 calls)

     Called by init_run:
     wfcinit      :      0.42s CPU      0.46s WALL (       1 calls)
     wfcinit:atom :      0.01s CPU      0.01s WALL (      47 calls)
     wfcinit:wfcr :      0.37s CPU      0.41s WALL (      47 calls)
     potinit      :      0.12s CPU      0.13s WALL (       1 calls)
     hinit0       :      0.33s CPU      0.34s WALL (       1 calls)

     Called by electrons:
     c_bands      :     26.02s CPU     29.44s WALL (      32 calls)
     sum_band     :      6.87s CPU      9.04s WALL (      32 calls)
     v_of_rho     :      0.53s CPU      0.66s WALL (      32 calls)
     v_h          :      0.03s CPU      0.04s WALL (      32 calls)
     v_xc         :      0.50s CPU      0.62s WALL (      32 calls)
     newd         :      2.20s CPU      3.75s WALL (      32 calls)
     mix_rho      :      0.08s CPU      0.08s WALL (      32 calls)

     Called by c_bands:
     init_us_2    :      0.78s CPU      0.85s WALL (    3055 calls)
     cegterg      :     24.42s CPU     27.75s WALL (    1504 calls)

     Called by sum_band:
     sum_band:wei :      0.00s CPU      0.00s WALL (      32 calls)
     sum_band:loo :      4.39s CPU      4.96s WALL (      32 calls)
     sum_band:buf :      0.02s CPU      0.02s WALL (    1504 calls)
     sum_band:ini :      0.38s CPU      0.42s WALL (    1504 calls)
     sum_band:cal :      0.39s CPU      0.44s WALL (    1504 calls)
     sum_band:bec :      0.02s CPU      0.02s WALL (    1504 calls)
     addusdens    :      2.23s CPU      3.80s WALL (      32 calls)
                                        0.00s GPU  (      32 calls)
     addusd:skk   :      0.00s CPU      0.00s WALL (      64 calls)
                                        0.00s GPU  (      64 calls)

     Called by *egterg:
     cdiaghg      :      0.65s CPU      0.71s WALL (    6848 calls)
     cegterg:over :      0.76s CPU      0.84s WALL (    5391 calls)
     cegterg:upda :      0.21s CPU      0.23s WALL (    5391 calls)
     cegterg:last :      0.40s CPU      0.43s WALL (    3865 calls)
     h_psi        :     21.47s CPU     24.55s WALL (    6942 calls)
     s_psi        :      0.36s CPU      0.41s WALL (    6942 calls)
     g_psi        :      0.15s CPU      0.16s WALL (    5391 calls)

     Called by h_psi:
     h_psi:calbec :      1.20s CPU      1.36s WALL (    6942 calls)
     vloc_psi     :     19.72s CPU     22.58s WALL (    6942 calls)
                                        0.00s GPU  (    6942 calls)
     add_vuspsi   :      0.44s CPU      0.50s WALL (    6942 calls)

     General routines
     calbec       :      1.56s CPU      1.76s WALL (    8446 calls)
     fft          :      0.42s CPU      0.50s WALL (     415 calls)
     ffts         :      0.11s CPU      0.12s WALL (      64 calls)
     fftw         :     21.76s CPU     24.91s WALL (   98634 calls)
     interpolate  :      0.12s CPU      0.13s WALL (      32 calls)

     Parallel routines

     PWSCF        :     36.99s CPU     44.43s WALL


   This run was terminated on:  19: 6: 3  22Sep2026            

=------------------------------------------------------------------------------=
   JOB DONE.
=------------------------------------------------------------------------------=
