
     Program PWSCF v.7.5 starts on 22Sep2026 at 19: 6:27 

     This program is part of the open-source Quantum ESPRESSO suite
     for quantum simulation of materials; please cite
         "P. Giannozzi et al., J. Phys.:Condens. Matter 21 395502 (2009);
         "P. Giannozzi et al., J. Phys.:Condens. Matter 29 465901 (2017);
         "P. Giannozzi et al., J. Chem. Phys. 152 154105 (2020);
          URL http://www.quantum-espresso.org", 
     in publications or presentations arising from this work. More details at
     http://www.quantum-espresso.org/quote

     Parallel version (MPI & OpenMP), running on       6 processor cores
     Number of MPI processes:                 6
     Threads/MPI process:                     1

     MPI processes distributed on     1 nodes
     2462 MiB available memory on the printing compute node when the environment starts

     Reading input from pw.in

     Current dimensions of program PWSCF are:
     Max number of different atomic species (ntypx) = 10
     Max number of k-points (npk) =  40000
     Max angular momentum in pseudopotentials (lmaxx) =  4
     file Cd.pbe-n-rrkjus_psl.1.0.0.UPF: wavefunction(s)  4D renormalized
     file Te.pbe-n-rrkjus_psl.1.0.0.UPF: wavefunction(s)  5S renormalized
     Message from routine setup:
     using ibrav=0 with symmetry is DISCOURAGED, use correct ibrav instead

     R & G space division:  proc/nbgrp/npool/nimage =       6
     Subspace diagonalization in iterative solution of the eigenvalue problem:
     a serial algorithm will be used


     Parallelization info
     --------------------
     sticks:   dense  smooth     PW     G-vecs:    dense   smooth      PW
     Min         414     275     79                13591     7399    1142
     Max         417     276     80                13592     7402    1145
     Sum        2491    1651    475                81547    44399    6855

     Using Slab Decomposition



     bravais-lattice index     =            0
     lattice parameter (alat)  =       8.6615  a.u.
     unit-cell volume          =     459.4769 (a.u.)^3
     number of atoms/cell      =            2
     number of atomic types    =            2
     number of electrons       =        18.00
     number of Kohn-Sham states=            9
     kinetic-energy cutoff     =      80.0000  Ry
     charge density cutoff     =     480.0000  Ry
     scf convergence threshold =      1.0E-10
     mixing beta               =       0.3000
     number of iterations used =            8  plain     mixing
     Exchange-correlation= PBE
                           (   1   4   3   4   0   0   0)

     celldm(1)=   8.661496  celldm(2)=   0.000000  celldm(3)=   0.000000
     celldm(4)=   0.000000  celldm(5)=   0.000000  celldm(6)=   0.000000

     crystal axes: (cart. coord. in units of alat)
               a(1) = (   0.000000   0.707107   0.707107 )  
               a(2) = (   0.707107   0.000000   0.707107 )  
               a(3) = (   0.707107   0.707107   0.000000 )  

     reciprocal axes: (cart. coord. in units 2 pi/alat)
               b(1) = ( -0.707107  0.707107  0.707107 )  
               b(2) = (  0.707107 -0.707107  0.707107 )  
               b(3) = (  0.707107  0.707107 -0.707107 )  


     PseudoPot. # 1 for Cd read from file:
     /home/User/opencode_workspace/DFT/pseudopotentials/Cd.pbe-n-rrkjus_psl.1.0.0.UPF
     MD5 check sum: a744746c89d2344a134ead0d8ab94e7a
     Pseudo is Ultrasoft + core correction, Zval = 12.0
     Generated using &quot;atomic&quot; code by A. Dal Corso  v.6.3
     Using radial grid of 1239 points,  6 beta functions with: 
                l(1) =   0
                l(2) =   0
                l(3) =   1
                l(4) =   1
                l(5) =   2
                l(6) =   2
     Q(r) pseudized with 0 coefficients 


     PseudoPot. # 2 for Te read from file:
     /home/User/opencode_workspace/DFT/pseudopotentials/Te.pbe-n-rrkjus_psl.1.0.0.UPF
     MD5 check sum: 203a1e86ef55f0cd9de2762a27c58f54
     Pseudo is Ultrasoft + core correction, Zval =  6.0
     Generated using &quot;atomic&quot; code by A. Dal Corso  v.6.3
     Using radial grid of 1245 points,  6 beta functions with: 
                l(1) =   0
                l(2) =   0
                l(3) =   1
                l(4) =   1
                l(5) =   2
                l(6) =   2
     Q(r) pseudized with 0 coefficients 


     atomic species   valence    mass     pseudopotential
     Cd               12.00   112.41400     Cd( 1.00)
     Te                6.00   127.60000     Te( 1.00)

     24 Sym. Ops. (no inversion) found


                                    s                        frac. trans.

      isym =  1     identity                                     

 cryst.   s( 1) = (     1          0          0      )
                  (     0          1          0      )
                  (     0          0          1      )

 cart.    s( 1) = (  1.0000000  0.0000000  0.0000000 )
                  (  0.0000000  1.0000000  0.0000000 )
                  (  0.0000000  0.0000000  1.0000000 )


      isym =  2     180 deg rotation - cart. axis [0,0,1]        

 cryst.   s( 2) = (     0          1         -1      )
                  (     1          0         -1      )
                  (     0          0         -1      )

 cart.    s( 2) = ( -1.0000000  0.0000000  0.0000000 )
                  (  0.0000000 -1.0000000  0.0000000 )
                  (  0.0000000  0.0000000  1.0000000 )


      isym =  3     180 deg rotation - cart. axis [0,1,0]        

 cryst.   s( 3) = (     0         -1          1      )
                  (     0         -1          0      )
                  (     1         -1          0      )

 cart.    s( 3) = ( -1.0000000  0.0000000  0.0000000 )
                  (  0.0000000  1.0000000  0.0000000 )
                  (  0.0000000  0.0000000 -1.0000000 )


      isym =  4     180 deg rotation - cart. axis [1,0,0]        

 cryst.   s( 4) = (    -1          0          0      )
                  (    -1          0          1      )
                  (    -1          1          0      )

 cart.    s( 4) = (  1.0000000  0.0000000  0.0000000 )
                  (  0.0000000 -1.0000000  0.0000000 )
                  (  0.0000000  0.0000000 -1.0000000 )


      isym =  5     120 deg rotation - cart. axis [-1,-1,-1]     

 cryst.   s( 5) = (     0          0          1      )
                  (     1          0          0      )
                  (     0          1          0      )

 cart.    s( 5) = (  0.0000000  1.0000000  0.0000000 )
                  (  0.0000000  0.0000000  1.0000000 )
                  (  1.0000000  0.0000000  0.0000000 )


      isym =  6     120 deg rotation - cart. axis [-1,1,1]       

 cryst.   s( 6) = (     1         -1          0      )
                  (     0         -1          1      )
                  (     0         -1          0      )

 cart.    s( 6) = (  0.0000000 -1.0000000  0.0000000 )
                  (  0.0000000  0.0000000  1.0000000 )
                  ( -1.0000000  0.0000000  0.0000000 )


      isym =  7     120 deg rotation - cart. axis [1,1,-1]       

 cryst.   s( 7) = (    -1          1          0      )
                  (    -1          0          0      )
                  (    -1          0          1      )

 cart.    s( 7) = (  0.0000000  1.0000000  0.0000000 )
                  (  0.0000000  0.0000000 -1.0000000 )
                  ( -1.0000000  0.0000000  0.0000000 )


      isym =  8     120 deg rotation - cart. axis [1,-1,1]       

 cryst.   s( 8) = (     0          0         -1      )
                  (     0          1         -1      )
                  (     1          0         -1      )

 cart.    s( 8) = (  0.0000000 -1.0000000  0.0000000 )
                  (  0.0000000  0.0000000 -1.0000000 )
                  (  1.0000000  0.0000000  0.0000000 )


      isym =  9     120 deg rotation - cart. axis [1,1,1]        

 cryst.   s( 9) = (     0          1          0      )
                  (     0          0          1      )
                  (     1          0          0      )

 cart.    s( 9) = (  0.0000000  0.0000000  1.0000000 )
                  (  1.0000000  0.0000000  0.0000000 )
                  (  0.0000000  1.0000000  0.0000000 )


      isym = 10     120 deg rotation - cart. axis [-1,1,-1]      

 cryst.   s(10) = (    -1          0          1      )
                  (    -1          1          0      )
                  (    -1          0          0      )

 cart.    s(10) = (  0.0000000  0.0000000  1.0000000 )
                  ( -1.0000000  0.0000000  0.0000000 )
                  (  0.0000000 -1.0000000  0.0000000 )


      isym = 11     120 deg rotation - cart. axis [1,-1,-1]      

 cryst.   s(11) = (     1          0         -1      )
                  (     0          0         -1      )
                  (     0          1         -1      )

 cart.    s(11) = (  0.0000000  0.0000000 -1.0000000 )
                  ( -1.0000000  0.0000000  0.0000000 )
                  (  0.0000000  1.0000000  0.0000000 )


      isym = 12     120 deg rotation - cart. axis [-1,-1,1]      

 cryst.   s(12) = (     0         -1          0      )
                  (     1         -1          0      )
                  (     0         -1          1      )

 cart.    s(12) = (  0.0000000  0.0000000 -1.0000000 )
                  (  1.0000000  0.0000000  0.0000000 )
                  (  0.0000000 -1.0000000  0.0000000 )


      isym = 13     inv. 180 deg rotation - cart. axis [1,1,0]   

 cryst.   s(13) = (     1          0         -1      )
                  (     0          1         -1      )
                  (     0          0         -1      )

 cart.    s(13) = (  0.0000000 -1.0000000  0.0000000 )
                  ( -1.0000000  0.0000000  0.0000000 )
                  (  0.0000000  0.0000000  1.0000000 )


      isym = 14     inv. 180 deg rotation - cart. axis [1,-1,0]  

 cryst.   s(14) = (     0          1          0      )
                  (     1          0          0      )
                  (     0          0          1      )

 cart.    s(14) = (  0.0000000  1.0000000  0.0000000 )
                  (  1.0000000  0.0000000  0.0000000 )
                  (  0.0000000  0.0000000  1.0000000 )


      isym = 15     inv.  90 deg rotation - cart. axis [0,0,-1]  

 cryst.   s(15) = (     0         -1          0      )
                  (     0         -1          1      )
                  (     1         -1          0      )

 cart.    s(15) = (  0.0000000 -1.0000000  0.0000000 )
                  (  1.0000000  0.0000000  0.0000000 )
                  (  0.0000000  0.0000000 -1.0000000 )


      isym = 16     inv.  90 deg rotation - cart. axis [0,0,1]   

 cryst.   s(16) = (    -1          0          1      )
                  (    -1          0          0      )
                  (    -1          1          0      )

 cart.    s(16) = (  0.0000000  1.0000000  0.0000000 )
                  ( -1.0000000  0.0000000  0.0000000 )
                  (  0.0000000  0.0000000 -1.0000000 )


      isym = 17     inv. 180 deg rotation - cart. axis [1,0,1]   

 cryst.   s(17) = (     1         -1          0      )
                  (     0         -1          0      )
                  (     0         -1          1      )

 cart.    s(17) = (  0.0000000  0.0000000 -1.0000000 )
                  (  0.0000000  1.0000000  0.0000000 )
                  ( -1.0000000  0.0000000  0.0000000 )


      isym = 18     inv. 180 deg rotation - cart. axis [-1,0,1]  

 cryst.   s(18) = (     0          0          1      )
                  (     0          1          0      )
                  (     1          0          0      )

 cart.    s(18) = (  0.0000000  0.0000000  1.0000000 )
                  (  0.0000000  1.0000000  0.0000000 )
                  (  1.0000000  0.0000000  0.0000000 )


      isym = 19     inv.  90 deg rotation - cart. axis [0,1,0]   

 cryst.   s(19) = (     0          0         -1      )
                  (     1          0         -1      )
                  (     0          1         -1      )

 cart.    s(19) = (  0.0000000  0.0000000 -1.0000000 )
                  (  0.0000000 -1.0000000  0.0000000 )
                  (  1.0000000  0.0000000  0.0000000 )


      isym = 20     inv.  90 deg rotation - cart. axis [0,-1,0]  

 cryst.   s(20) = (    -1          1          0      )
                  (    -1          0          1      )
                  (    -1          0          0      )

 cart.    s(20) = (  0.0000000  0.0000000  1.0000000 )
                  (  0.0000000 -1.0000000  0.0000000 )
                  ( -1.0000000  0.0000000  0.0000000 )


      isym = 21     inv. 180 deg rotation - cart. axis [0,1,1]   

 cryst.   s(21) = (    -1          0          0      )
                  (    -1          1          0      )
                  (    -1          0          1      )

 cart.    s(21) = (  1.0000000  0.0000000  0.0000000 )
                  (  0.0000000  0.0000000 -1.0000000 )
                  (  0.0000000 -1.0000000  0.0000000 )


      isym = 22     inv. 180 deg rotation - cart. axis [0,1,-1]  

 cryst.   s(22) = (     1          0          0      )
                  (     0          0          1      )
                  (     0          1          0      )

 cart.    s(22) = (  1.0000000  0.0000000  0.0000000 )
                  (  0.0000000  0.0000000  1.0000000 )
                  (  0.0000000  1.0000000  0.0000000 )


      isym = 23     inv.  90 deg rotation - cart. axis [-1,0,0]  

 cryst.   s(23) = (     0          1         -1      )
                  (     0          0         -1      )
                  (     1          0         -1      )

 cart.    s(23) = ( -1.0000000  0.0000000  0.0000000 )
                  (  0.0000000  0.0000000 -1.0000000 )
                  (  0.0000000  1.0000000  0.0000000 )


      isym = 24     inv.  90 deg rotation - cart. axis [1,0,0]   

 cryst.   s(24) = (     0         -1          1      )
                  (     1         -1          0      )
                  (     0         -1          0      )

 cart.    s(24) = ( -1.0000000  0.0000000  0.0000000 )
                  (  0.0000000  0.0000000  1.0000000 )
                  (  0.0000000 -1.0000000  0.0000000 )


   Cartesian axes

     site n.     atom                  positions (alat units)
         1        Cd     tau(   1) = (   0.0000000   0.0000000   0.0000000  )
         2        Te     tau(   2) = (   0.3535534   0.3535534   0.3535534  )

   Crystallographic axes

     site n.     atom                  positions (cryst. coord.)
         1        Cd     tau(   1) = (  0.0000000  0.0000000  0.0000000  )
         2        Te     tau(   2) = (  0.2500000  0.2500000  0.2500000  )

     number of k points=    72
                       cart. coord. in units 2pi/alat
        k(    1) = (   0.0000000   0.0000000   0.0000000), wk =   0.0011574
        k(    2) = (   0.0589256   0.0589256  -0.0589256), wk =   0.0092593
        k(    3) = (   0.1178511   0.1178511  -0.1178511), wk =   0.0092593
        k(    4) = (   0.1767767   0.1767767  -0.1767767), wk =   0.0092593
        k(    5) = (   0.2357023   0.2357023  -0.2357023), wk =   0.0092593
        k(    6) = (   0.2946278   0.2946278  -0.2946278), wk =   0.0092593
        k(    7) = (  -0.3535534  -0.3535534   0.3535534), wk =   0.0046296
        k(    8) = (   0.1178511   0.0000000   0.0000000), wk =   0.0069444
        k(    9) = (   0.1767767   0.0589256  -0.0589256), wk =   0.0277778
        k(   10) = (   0.2357023   0.1178511  -0.1178511), wk =   0.0277778
        k(   11) = (   0.2946278   0.1767767  -0.1767767), wk =   0.0277778
        k(   12) = (   0.3535534   0.2357023  -0.2357023), wk =   0.0277778
        k(   13) = (  -0.2946278  -0.4124790   0.4124790), wk =   0.0277778
        k(   14) = (  -0.2357023  -0.3535534   0.3535534), wk =   0.0277778
        k(   15) = (  -0.1767767  -0.2946278   0.2946278), wk =   0.0277778
        k(   16) = (  -0.1178511  -0.2357023   0.2357023), wk =   0.0277778
        k(   17) = (  -0.0589256  -0.1767767   0.1767767), wk =   0.0277778
        k(   18) = (  -0.0000000  -0.1178511   0.1178511), wk =   0.0138889
        k(   19) = (   0.2357023   0.0000000   0.0000000), wk =   0.0069444
        k(   20) = (   0.2946278   0.0589256  -0.0589256), wk =   0.0277778
        k(   21) = (   0.3535534   0.1178511  -0.1178511), wk =   0.0277778
        k(   22) = (   0.4124790   0.1767767  -0.1767767), wk =   0.0277778
        k(   23) = (  -0.2357023  -0.4714045   0.4714045), wk =   0.0277778
        k(   24) = (  -0.1767767  -0.4124790   0.4124790), wk =   0.0277778
        k(   25) = (  -0.1178511  -0.3535534   0.3535534), wk =   0.0277778
        k(   26) = (  -0.0589256  -0.2946278   0.2946278), wk =   0.0277778
        k(   27) = (   0.0000000  -0.2357023   0.2357023), wk =   0.0138889
        k(   28) = (   0.3535534   0.0000000   0.0000000), wk =   0.0069444
        k(   29) = (   0.4124790   0.0589256  -0.0589256), wk =   0.0277778
        k(   30) = (   0.4714045   0.1178511  -0.1178511), wk =   0.0277778
        k(   31) = (  -0.1767767  -0.5303301   0.5303301), wk =   0.0277778
        k(   32) = (  -0.1178511  -0.4714045   0.4714045), wk =   0.0277778
        k(   33) = (  -0.0589256  -0.4124790   0.4124790), wk =   0.0277778
        k(   34) = (   0.0000000  -0.3535534   0.3535534), wk =   0.0138889
        k(   35) = (   0.4714045   0.0000000   0.0000000), wk =   0.0069444
        k(   36) = (   0.5303301   0.0589256  -0.0589256), wk =   0.0277778
        k(   37) = (  -0.1178511  -0.5892557   0.5892557), wk =   0.0277778
        k(   38) = (  -0.0589256  -0.5303301   0.5303301), wk =   0.0277778
        k(   39) = (  -0.0000000  -0.4714045   0.4714045), wk =   0.0138889
        k(   40) = (   0.5892557   0.0000000   0.0000000), wk =   0.0069444
        k(   41) = (  -0.0589256  -0.6481812   0.6481812), wk =   0.0277778
        k(   42) = (   0.0000000  -0.5892557   0.5892557), wk =   0.0138889
        k(   43) = (  -0.7071068   0.0000000   0.0000000), wk =   0.0034722
        k(   44) = (   0.2357023   0.1178511  -0.0000000), wk =   0.0277778
        k(   45) = (   0.2946278   0.1767767  -0.0589256), wk =   0.0555556
        k(   46) = (   0.3535534   0.2357023  -0.1178511), wk =   0.0555556
        k(   47) = (  -0.2946278  -0.4124790   0.5303301), wk =   0.0555556
        k(   48) = (  -0.2357023  -0.3535534   0.4714045), wk =   0.0277778
        k(   49) = (   0.3535534   0.1178511   0.0000000), wk =   0.0277778
        k(   50) = (   0.4124790   0.1767767  -0.0589256), wk =   0.0555556
        k(   51) = (  -0.2357023  -0.4714045   0.5892557), wk =   0.0555556
        k(   52) = (  -0.1767767  -0.4124790   0.5303301), wk =   0.0555556
        k(   53) = (  -0.1178511  -0.3535534   0.4714045), wk =   0.0555556
        k(   54) = (  -0.0589256  -0.2946278   0.4124790), wk =   0.0555556
        k(   55) = (   0.0000000  -0.2357023   0.3535534), wk =   0.0277778
        k(   56) = (   0.4714045   0.1178511   0.0000000), wk =   0.0277778
        k(   57) = (  -0.1767767  -0.5303301   0.6481812), wk =   0.0555556
        k(   58) = (  -0.1178511  -0.4714045   0.5892557), wk =   0.0555556
        k(   59) = (  -0.0589256  -0.4124790   0.5303301), wk =   0.0555556
        k(   60) = (  -0.0000000  -0.3535534   0.4714045), wk =   0.0277778
        k(   61) = (  -0.1178511  -0.5892557   0.7071068), wk =   0.0277778
        k(   62) = (  -0.0589256  -0.5303301   0.6481812), wk =   0.0555556
        k(   63) = (  -0.0000000  -0.4714045   0.5892557), wk =   0.0277778
        k(   64) = (  -0.7071068   0.1178511   0.0000000), wk =   0.0138889
        k(   65) = (  -0.2357023  -0.4714045   0.7071068), wk =   0.0277778
        k(   66) = (  -0.1767767  -0.4124790   0.6481812), wk =   0.0555556
        k(   67) = (  -0.1178511  -0.3535534   0.5892557), wk =   0.0277778
        k(   68) = (  -0.1178511  -0.4714045   0.7071068), wk =   0.0277778
        k(   69) = (  -0.0589256  -0.4124790   0.6481812), wk =   0.0555556
        k(   70) = (   0.0000000  -0.3535534   0.5892557), wk =   0.0277778
        k(   71) = (  -0.7071068   0.2357023   0.0000000), wk =   0.0138889
        k(   72) = (  -0.7071068   0.3535534   0.0000000), wk =   0.0069444

                       cryst. coord.
        k(    1) = (   0.0000000   0.0000000   0.0000000), wk =   0.0011574
        k(    2) = (   0.0000000   0.0000000   0.0833333), wk =   0.0092593
        k(    3) = (   0.0000000   0.0000000   0.1666667), wk =   0.0092593
        k(    4) = (   0.0000000   0.0000000   0.2500000), wk =   0.0092593
        k(    5) = (   0.0000000   0.0000000   0.3333333), wk =   0.0092593
        k(    6) = (   0.0000000   0.0000000   0.4166667), wk =   0.0092593
        k(    7) = (   0.0000000   0.0000000  -0.5000000), wk =   0.0046296
        k(    8) = (   0.0000000   0.0833333   0.0833333), wk =   0.0069444
        k(    9) = (   0.0000000   0.0833333   0.1666667), wk =   0.0277778
        k(   10) = (   0.0000000   0.0833333   0.2500000), wk =   0.0277778
        k(   11) = (   0.0000000   0.0833333   0.3333333), wk =   0.0277778
        k(   12) = (   0.0000000   0.0833333   0.4166667), wk =   0.0277778
        k(   13) = (   0.0000000   0.0833333  -0.5000000), wk =   0.0277778
        k(   14) = (   0.0000000   0.0833333  -0.4166667), wk =   0.0277778
        k(   15) = (   0.0000000   0.0833333  -0.3333333), wk =   0.0277778
        k(   16) = (   0.0000000   0.0833333  -0.2500000), wk =   0.0277778
        k(   17) = (   0.0000000   0.0833333  -0.1666667), wk =   0.0277778
        k(   18) = (   0.0000000   0.0833333  -0.0833333), wk =   0.0138889
        k(   19) = (   0.0000000   0.1666667   0.1666667), wk =   0.0069444
        k(   20) = (   0.0000000   0.1666667   0.2500000), wk =   0.0277778
        k(   21) = (   0.0000000   0.1666667   0.3333333), wk =   0.0277778
        k(   22) = (   0.0000000   0.1666667   0.4166667), wk =   0.0277778
        k(   23) = (   0.0000000   0.1666667  -0.5000000), wk =   0.0277778
        k(   24) = (   0.0000000   0.1666667  -0.4166667), wk =   0.0277778
        k(   25) = (   0.0000000   0.1666667  -0.3333333), wk =   0.0277778
        k(   26) = (   0.0000000   0.1666667  -0.2500000), wk =   0.0277778
        k(   27) = (   0.0000000   0.1666667  -0.1666667), wk =   0.0138889
        k(   28) = (   0.0000000   0.2500000   0.2500000), wk =   0.0069444
        k(   29) = (   0.0000000   0.2500000   0.3333333), wk =   0.0277778
        k(   30) = (   0.0000000   0.2500000   0.4166667), wk =   0.0277778
        k(   31) = (   0.0000000   0.2500000  -0.5000000), wk =   0.0277778
        k(   32) = (   0.0000000   0.2500000  -0.4166667), wk =   0.0277778
        k(   33) = (   0.0000000   0.2500000  -0.3333333), wk =   0.0277778
        k(   34) = (   0.0000000   0.2500000  -0.2500000), wk =   0.0138889
        k(   35) = (   0.0000000   0.3333333   0.3333333), wk =   0.0069444
        k(   36) = (   0.0000000   0.3333333   0.4166667), wk =   0.0277778
        k(   37) = (   0.0000000   0.3333333  -0.5000000), wk =   0.0277778
        k(   38) = (   0.0000000   0.3333333  -0.4166667), wk =   0.0277778
        k(   39) = (   0.0000000   0.3333333  -0.3333333), wk =   0.0138889
        k(   40) = (   0.0000000   0.4166667   0.4166667), wk =   0.0069444
        k(   41) = (   0.0000000   0.4166667  -0.5000000), wk =   0.0277778
        k(   42) = (   0.0000000   0.4166667  -0.4166667), wk =   0.0138889
        k(   43) = (   0.0000000  -0.5000000  -0.5000000), wk =   0.0034722
        k(   44) = (   0.0833333   0.1666667   0.2500000), wk =   0.0277778
        k(   45) = (   0.0833333   0.1666667   0.3333333), wk =   0.0555556
        k(   46) = (   0.0833333   0.1666667   0.4166667), wk =   0.0555556
        k(   47) = (   0.0833333   0.1666667  -0.5000000), wk =   0.0555556
        k(   48) = (   0.0833333   0.1666667  -0.4166667), wk =   0.0277778
        k(   49) = (   0.0833333   0.2500000   0.3333333), wk =   0.0277778
        k(   50) = (   0.0833333   0.2500000   0.4166667), wk =   0.0555556
        k(   51) = (   0.0833333   0.2500000  -0.5000000), wk =   0.0555556
        k(   52) = (   0.0833333   0.2500000  -0.4166667), wk =   0.0555556
        k(   53) = (   0.0833333   0.2500000  -0.3333333), wk =   0.0555556
        k(   54) = (   0.0833333   0.2500000  -0.2500000), wk =   0.0555556
        k(   55) = (   0.0833333   0.2500000  -0.1666667), wk =   0.0277778
        k(   56) = (   0.0833333   0.3333333   0.4166667), wk =   0.0277778
        k(   57) = (   0.0833333   0.3333333  -0.5000000), wk =   0.0555556
        k(   58) = (   0.0833333   0.3333333  -0.4166667), wk =   0.0555556
        k(   59) = (   0.0833333   0.3333333  -0.3333333), wk =   0.0555556
        k(   60) = (   0.0833333   0.3333333  -0.2500000), wk =   0.0277778
        k(   61) = (   0.0833333   0.4166667  -0.5000000), wk =   0.0277778
        k(   62) = (   0.0833333   0.4166667  -0.4166667), wk =   0.0555556
        k(   63) = (   0.0833333   0.4166667  -0.3333333), wk =   0.0277778
        k(   64) = (   0.0833333  -0.5000000  -0.4166667), wk =   0.0138889
        k(   65) = (   0.1666667   0.3333333  -0.5000000), wk =   0.0277778
        k(   66) = (   0.1666667   0.3333333  -0.4166667), wk =   0.0555556
        k(   67) = (   0.1666667   0.3333333  -0.3333333), wk =   0.0277778
        k(   68) = (   0.1666667   0.4166667  -0.4166667), wk =   0.0277778
        k(   69) = (   0.1666667   0.4166667  -0.3333333), wk =   0.0555556
        k(   70) = (   0.1666667   0.4166667  -0.2500000), wk =   0.0277778
        k(   71) = (   0.1666667  -0.5000000  -0.3333333), wk =   0.0138889
        k(   72) = (   0.2500000  -0.5000000  -0.2500000), wk =   0.0069444

     Dense  grid:    81547 G-vectors     FFT dimensions: (  64,  64,  64)

     Smooth grid:    44399 G-vectors     FFT dimensions: (  50,  50,  50)

     Dynamical RAM for                 wfc:       0.13 MB

     Dynamical RAM for     wfc (w. buffer):       9.27 MB

     Dynamical RAM for           str. fact:       0.41 MB

     Dynamical RAM for           local pot:       0.00 MB

     Dynamical RAM for          nlocal pot:       0.51 MB

     Dynamical RAM for                qrad:       3.52 MB

     Dynamical RAM for          rho,v,vnew:       1.65 MB

     Dynamical RAM for               rhoin:       0.55 MB

     Dynamical RAM for            rho*nmix:       3.32 MB

     Dynamical RAM for           G-vectors:       0.83 MB

     Dynamical RAM for          h,s,v(r/c):       0.01 MB

     Dynamical RAM for          <psi|beta>:       0.00 MB

     Dynamical RAM for                 psi:       0.25 MB

     Dynamical RAM for                hpsi:       0.25 MB

     Dynamical RAM for                spsi:       0.25 MB

     Dynamical RAM for      wfcinit/wfcrot:       0.26 MB

     Dynamical RAM for           addusdens:      38.78 MB

     Estimated static dynamical RAM per process >      19.09 MB

     Estimated max dynamical RAM per process >      61.19 MB

     Estimated total dynamical RAM >     367.14 MB

     Initial potential from superposition of free atoms

     starting charge      17.9949, renormalised to      18.0000
     Starting wfcs are   13 randomized atomic wfcs

     total cpu time spent up to now is        1.6 secs

     per-process dynamical memory:    30.3 Mb

     Self-consistent Calculation

     iteration #  1     ecut=    80.00 Ry     beta= 0.30
     Davidson diagonalization with overlap

---- Real-time Memory Report at c_bands before calling an iterative solver
           100 MiB given to the printing process from OS
            29 MiB allocation reported by mallinfo(arena+hblkhd)
          2095 MiB available memory on the node where the printing process lives
------------------
     ethr =  1.00E-02,  avg # of iterations =  1.1

     Threshold (ethr) on eigenvalues was too large:
     Diagonalizing with lowered threshold

     Davidson diagonalization with overlap

---- Real-time Memory Report at c_bands before calling an iterative solver
           110 MiB given to the printing process from OS
            32 MiB allocation reported by mallinfo(arena+hblkhd)
          2054 MiB available memory on the node where the printing process lives
------------------
     ethr =  2.05E-04,  avg # of iterations =  5.1

     total cpu time spent up to now is        5.4 secs

     total energy              =    -128.97496335 Ry
     estimated scf accuracy    <       0.04138097 Ry

     iteration #  2     ecut=    80.00 Ry     beta= 0.30
     Davidson diagonalization with overlap

---- Real-time Memory Report at c_bands before calling an iterative solver
           112 MiB given to the printing process from OS
            34 MiB allocation reported by mallinfo(arena+hblkhd)
          2058 MiB available memory on the node where the printing process lives
------------------
     ethr =  2.30E-04,  avg # of iterations =  1.8

     total cpu time spent up to now is        7.1 secs

     total energy              =    -128.97311508 Ry
     estimated scf accuracy    <       0.01251381 Ry

     iteration #  3     ecut=    80.00 Ry     beta= 0.30
     Davidson diagonalization with overlap

---- Real-time Memory Report at c_bands before calling an iterative solver
           113 MiB given to the printing process from OS
            35 MiB allocation reported by mallinfo(arena+hblkhd)
          2048 MiB available memory on the node where the printing process lives
------------------
     ethr =  6.95E-05,  avg # of iterations =  2.3

     total cpu time spent up to now is        9.0 secs

     total energy              =    -128.97655556 Ry
     estimated scf accuracy    <       0.00135367 Ry

     iteration #  4     ecut=    80.00 Ry     beta= 0.30
     Davidson diagonalization with overlap

---- Real-time Memory Report at c_bands before calling an iterative solver
           113 MiB given to the printing process from OS
            35 MiB allocation reported by mallinfo(arena+hblkhd)
          2033 MiB available memory on the node where the printing process lives
------------------
     ethr =  7.52E-06,  avg # of iterations =  5.0

     total cpu time spent up to now is       11.7 secs

     total energy              =    -128.97725675 Ry
     estimated scf accuracy    <       0.00021555 Ry

     iteration #  5     ecut=    80.00 Ry     beta= 0.30
     Davidson diagonalization with overlap

---- Real-time Memory Report at c_bands before calling an iterative solver
           113 MiB given to the printing process from OS
            35 MiB allocation reported by mallinfo(arena+hblkhd)
          2013 MiB available memory on the node where the printing process lives
------------------
     ethr =  1.20E-06,  avg # of iterations =  4.7

     total cpu time spent up to now is       14.2 secs

     total energy              =    -128.97734478 Ry
     estimated scf accuracy    <       0.00006736 Ry

     iteration #  6     ecut=    80.00 Ry     beta= 0.30
     Davidson diagonalization with overlap

---- Real-time Memory Report at c_bands before calling an iterative solver
           113 MiB given to the printing process from OS
            35 MiB allocation reported by mallinfo(arena+hblkhd)
          2010 MiB available memory on the node where the printing process lives
------------------
     ethr =  3.74E-07,  avg # of iterations =  5.6

     total cpu time spent up to now is       16.9 secs

     total energy              =    -128.97737413 Ry
     estimated scf accuracy    <       0.00005615 Ry

     iteration #  7     ecut=    80.00 Ry     beta= 0.30
     Davidson diagonalization with overlap

---- Real-time Memory Report at c_bands before calling an iterative solver
           114 MiB given to the printing process from OS
            36 MiB allocation reported by mallinfo(arena+hblkhd)
          2045 MiB available memory on the node where the printing process lives
------------------
     ethr =  3.12E-07,  avg # of iterations =  1.1

     total cpu time spent up to now is       18.4 secs

     total energy              =    -128.97735343 Ry
     estimated scf accuracy    <       0.00003220 Ry

     iteration #  8     ecut=    80.00 Ry     beta= 0.30
     Davidson diagonalization with overlap

---- Real-time Memory Report at c_bands before calling an iterative solver
           114 MiB given to the printing process from OS
            36 MiB allocation reported by mallinfo(arena+hblkhd)
          2026 MiB available memory on the node where the printing process lives
------------------
     ethr =  1.79E-07,  avg # of iterations =  3.0

     total cpu time spent up to now is       20.4 secs

     total energy              =    -128.97736647 Ry
     estimated scf accuracy    <       0.00000205 Ry

     iteration #  9     ecut=    80.00 Ry     beta= 0.30
     Davidson diagonalization with overlap

---- Real-time Memory Report at c_bands before calling an iterative solver
           114 MiB given to the printing process from OS
            36 MiB allocation reported by mallinfo(arena+hblkhd)
          2028 MiB available memory on the node where the printing process lives
------------------
     ethr =  1.14E-08,  avg # of iterations =  9.8

     total cpu time spent up to now is       23.9 secs

     total energy              =    -128.97736944 Ry
     estimated scf accuracy    <       0.00001837 Ry

     iteration # 10     ecut=    80.00 Ry     beta= 0.30
     Davidson diagonalization with overlap

---- Real-time Memory Report at c_bands before calling an iterative solver
           114 MiB given to the printing process from OS
            36 MiB allocation reported by mallinfo(arena+hblkhd)
          2049 MiB available memory on the node where the printing process lives
------------------
     ethr =  1.14E-08,  avg # of iterations =  4.4

     total cpu time spent up to now is       25.6 secs

     total energy              =    -128.97736903 Ry
     estimated scf accuracy    <       0.00001031 Ry

     iteration # 11     ecut=    80.00 Ry     beta= 0.30
     Davidson diagonalization with overlap

---- Real-time Memory Report at c_bands before calling an iterative solver
           114 MiB given to the printing process from OS
            36 MiB allocation reported by mallinfo(arena+hblkhd)
          2030 MiB available memory on the node where the printing process lives
------------------
     ethr =  1.14E-08,  avg # of iterations =  1.1

     total cpu time spent up to now is       26.8 secs

     total energy              =    -128.97737154 Ry
     estimated scf accuracy    <       0.00000784 Ry

     iteration # 12     ecut=    80.00 Ry     beta= 0.30
     Davidson diagonalization with overlap

---- Real-time Memory Report at c_bands before calling an iterative solver
           114 MiB given to the printing process from OS
            36 MiB allocation reported by mallinfo(arena+hblkhd)
          2058 MiB available memory on the node where the printing process lives
------------------
     ethr =  1.14E-08,  avg # of iterations = 13.6

     total cpu time spent up to now is       30.9 secs

     total energy              =    -128.97734862 Ry
     estimated scf accuracy    <       0.00011201 Ry

     iteration # 13     ecut=    80.00 Ry     beta= 0.30
     Davidson diagonalization with overlap

---- Real-time Memory Report at c_bands before calling an iterative solver
           114 MiB given to the printing process from OS
            36 MiB allocation reported by mallinfo(arena+hblkhd)
          2072 MiB available memory on the node where the printing process lives
------------------
     ethr =  1.14E-08,  avg # of iterations = 10.8

     total cpu time spent up to now is       35.1 secs

     total energy              =    -128.97736622 Ry
     estimated scf accuracy    <       0.00000170 Ry

     iteration # 14     ecut=    80.00 Ry     beta= 0.30
     Davidson diagonalization with overlap

---- Real-time Memory Report at c_bands before calling an iterative solver
           114 MiB given to the printing process from OS
            36 MiB allocation reported by mallinfo(arena+hblkhd)
          2057 MiB available memory on the node where the printing process lives
------------------
     ethr =  9.44E-09,  avg # of iterations =  2.4

     total cpu time spent up to now is       36.7 secs

     total energy              =    -128.97736651 Ry
     estimated scf accuracy    <       0.00000032 Ry

     iteration # 15     ecut=    80.00 Ry     beta= 0.30
     Davidson diagonalization with overlap

---- Real-time Memory Report at c_bands before calling an iterative solver
           114 MiB given to the printing process from OS
            36 MiB allocation reported by mallinfo(arena+hblkhd)
          2055 MiB available memory on the node where the printing process lives
------------------
     ethr =  1.79E-09,  avg # of iterations =  4.8

     total cpu time spent up to now is       38.5 secs

     total energy              =    -128.97736650 Ry
     estimated scf accuracy    <       0.00000016 Ry

     iteration # 16     ecut=    80.00 Ry     beta= 0.30
     Davidson diagonalization with overlap

---- Real-time Memory Report at c_bands before calling an iterative solver
           114 MiB given to the printing process from OS
            36 MiB allocation reported by mallinfo(arena+hblkhd)
          2056 MiB available memory on the node where the printing process lives
------------------
     ethr =  8.75E-10,  avg # of iterations =  4.5

     total cpu time spent up to now is       40.6 secs

     total energy              =    -128.97736662 Ry
     estimated scf accuracy    <       0.00000002 Ry

     iteration # 17     ecut=    80.00 Ry     beta= 0.30
     Davidson diagonalization with overlap

---- Real-time Memory Report at c_bands before calling an iterative solver
           114 MiB given to the printing process from OS
            36 MiB allocation reported by mallinfo(arena+hblkhd)
          2051 MiB available memory on the node where the printing process lives
------------------
     ethr =  1.22E-10,  avg # of iterations =  7.3

     total cpu time spent up to now is       43.3 secs

     total energy              =    -128.97736658 Ry
     estimated scf accuracy    <       0.00000015 Ry

     iteration # 18     ecut=    80.00 Ry     beta= 0.30
     Davidson diagonalization with overlap

---- Real-time Memory Report at c_bands before calling an iterative solver
           114 MiB given to the printing process from OS
            36 MiB allocation reported by mallinfo(arena+hblkhd)
          2053 MiB available memory on the node where the printing process lives
------------------
     ethr =  1.22E-10,  avg # of iterations =  3.0

     total cpu time spent up to now is       45.2 secs

     total energy              =    -128.97736661 Ry
     estimated scf accuracy    <       0.00000004 Ry

     iteration # 19     ecut=    80.00 Ry     beta= 0.30
     Davidson diagonalization with overlap

---- Real-time Memory Report at c_bands before calling an iterative solver
           114 MiB given to the printing process from OS
            36 MiB allocation reported by mallinfo(arena+hblkhd)
          2046 MiB available memory on the node where the printing process lives
------------------
     ethr =  1.22E-10,  avg # of iterations =  2.0

     total cpu time spent up to now is       46.7 secs

     total energy              =    -128.97736664 Ry
     estimated scf accuracy    <       0.00000006 Ry

     iteration # 20     ecut=    80.00 Ry     beta= 0.30
     Davidson diagonalization with overlap

---- Real-time Memory Report at c_bands before calling an iterative solver
           114 MiB given to the printing process from OS
            36 MiB allocation reported by mallinfo(arena+hblkhd)
          2057 MiB available memory on the node where the printing process lives
------------------
     ethr =  1.22E-10,  avg # of iterations =  3.3

     total cpu time spent up to now is       48.2 secs

     total energy              =    -128.97736672 Ry
     estimated scf accuracy    <       0.00000014 Ry

     iteration # 21     ecut=    80.00 Ry     beta= 0.30
     Davidson diagonalization with overlap

---- Real-time Memory Report at c_bands before calling an iterative solver
           114 MiB given to the printing process from OS
            36 MiB allocation reported by mallinfo(arena+hblkhd)
          2049 MiB available memory on the node where the printing process lives
------------------
     ethr =  1.22E-10,  avg # of iterations =  6.4

     total cpu time spent up to now is       50.5 secs

     total energy              =    -128.97736682 Ry
     estimated scf accuracy    <       0.00000039 Ry

     iteration # 22     ecut=    80.00 Ry     beta= 0.30
     Davidson diagonalization with overlap

---- Real-time Memory Report at c_bands before calling an iterative solver
           114 MiB given to the printing process from OS
            36 MiB allocation reported by mallinfo(arena+hblkhd)
          2043 MiB available memory on the node where the printing process lives
------------------
     ethr =  1.22E-10,  avg # of iterations =  3.2

     total cpu time spent up to now is       52.3 secs

     total energy              =    -128.97736672 Ry
     estimated scf accuracy    <       0.00000058 Ry

     iteration # 23     ecut=    80.00 Ry     beta= 0.30
     Davidson diagonalization with overlap

---- Real-time Memory Report at c_bands before calling an iterative solver
           114 MiB given to the printing process from OS
            36 MiB allocation reported by mallinfo(arena+hblkhd)
          2054 MiB available memory on the node where the printing process lives
------------------
     ethr =  1.22E-10,  avg # of iterations =  2.2

     total cpu time spent up to now is       53.9 secs

     total energy              =    -128.97736652 Ry
     estimated scf accuracy    <       0.00000040 Ry

     iteration # 24     ecut=    80.00 Ry     beta= 0.30
     Davidson diagonalization with overlap

---- Real-time Memory Report at c_bands before calling an iterative solver
           114 MiB given to the printing process from OS
            36 MiB allocation reported by mallinfo(arena+hblkhd)
          2061 MiB available memory on the node where the printing process lives
------------------
     ethr =  1.22E-10,  avg # of iterations =  7.9

     total cpu time spent up to now is       56.4 secs

     total energy              =    -128.97736659 Ry
     estimated scf accuracy    <          5.8E-09 Ry

     iteration # 25     ecut=    80.00 Ry     beta= 0.30
     Davidson diagonalization with overlap

---- Real-time Memory Report at c_bands before calling an iterative solver
           114 MiB given to the printing process from OS
            36 MiB allocation reported by mallinfo(arena+hblkhd)
          2053 MiB available memory on the node where the printing process lives
------------------
     ethr =  3.25E-11,  avg # of iterations =  2.3

     total cpu time spent up to now is       58.0 secs

     total energy              =    -128.97736659 Ry
     estimated scf accuracy    <       0.00000001 Ry

     iteration # 26     ecut=    80.00 Ry     beta= 0.30
     Davidson diagonalization with overlap

---- Real-time Memory Report at c_bands before calling an iterative solver
           114 MiB given to the printing process from OS
            36 MiB allocation reported by mallinfo(arena+hblkhd)
          2053 MiB available memory on the node where the printing process lives
------------------
     ethr =  3.25E-11,  avg # of iterations =  2.3

     total cpu time spent up to now is       59.6 secs

     total energy              =    -128.97736658 Ry
     estimated scf accuracy    <          3.4E-09 Ry

     iteration # 27     ecut=    80.00 Ry     beta= 0.30
     Davidson diagonalization with overlap

---- Real-time Memory Report at c_bands before calling an iterative solver
           114 MiB given to the printing process from OS
            36 MiB allocation reported by mallinfo(arena+hblkhd)
          2054 MiB available memory on the node where the printing process lives
------------------
     ethr =  1.90E-11,  avg # of iterations =  6.7

     total cpu time spent up to now is       61.8 secs

     total energy              =    -128.97736659 Ry
     estimated scf accuracy    <          2.2E-09 Ry

     iteration # 28     ecut=    80.00 Ry     beta= 0.30
     Davidson diagonalization with overlap

---- Real-time Memory Report at c_bands before calling an iterative solver
           114 MiB given to the printing process from OS
            36 MiB allocation reported by mallinfo(arena+hblkhd)
          2058 MiB available memory on the node where the printing process lives
------------------
     ethr =  1.22E-11,  avg # of iterations =  2.0

     total cpu time spent up to now is       63.4 secs

     total energy              =    -128.97736659 Ry
     estimated scf accuracy    <          1.4E-10 Ry

     iteration # 29     ecut=    80.00 Ry     beta= 0.30
     Davidson diagonalization with overlap

---- Real-time Memory Report at c_bands before calling an iterative solver
           114 MiB given to the printing process from OS
            36 MiB allocation reported by mallinfo(arena+hblkhd)
          2054 MiB available memory on the node where the printing process lives
------------------
     ethr =  8.05E-13,  avg # of iterations =  8.1

     total cpu time spent up to now is       66.1 secs

     total energy              =    -128.97736659 Ry
     estimated scf accuracy    <          3.5E-10 Ry

     iteration # 30     ecut=    80.00 Ry     beta= 0.30
     Davidson diagonalization with overlap

---- Real-time Memory Report at c_bands before calling an iterative solver
           114 MiB given to the printing process from OS
            36 MiB allocation reported by mallinfo(arena+hblkhd)
          2050 MiB available memory on the node where the printing process lives
------------------
     ethr =  8.05E-13,  avg # of iterations =  3.2

     total cpu time spent up to now is       67.7 secs

     End of self-consistent calculation

          k = 0.0000 0.0000 0.0000 (  5601 PWs)   bands (ev):

    -6.0546  -3.1524  -3.1524  -3.1524  -2.8917  -2.8917   5.1230   5.1230
     5.1230

     occupation numbers 
     1.0000   1.0000   1.0000   1.0000   1.0000   1.0000   1.0000   1.0000
     1.0000

          k = 0.0589 0.0589-0.0589 (  5609 PWs)   bands (ev):

    -6.0279  -3.1473  -3.1473  -3.1326  -2.8921  -2.8921   4.4055   5.0585
     5.0585

     occupation numbers 
     1.0000   1.0000   1.0000   1.0000   1.0000   1.0000   1.0000   1.0000
     1.0000

          k = 0.1179 0.1179-0.1179 (  5564 PWs)   bands (ev):

    -5.9548  -3.1337  -3.1337  -3.0691  -2.8926  -2.8926   3.3837   4.8946
     4.8946

     occupation numbers 
     1.0000   1.0000   1.0000   1.0000   1.0000   1.0000   1.0000   1.0000
     1.0000

          k = 0.1768 0.1768-0.1768 (  5561 PWs)   bands (ev):

    -5.8546  -3.1166  -3.1166  -2.9539  -2.8916  -2.8916   2.3948   4.6938
     4.6938

     occupation numbers 
     1.0000   1.0000   1.0000   1.0000   1.0000   1.0000   1.0000   1.0000
     1.0000

          k = 0.2357 0.2357-0.2357 (  5546 PWs)   bands (ev):

    -5.7550  -3.1015  -3.1015  -2.8881  -2.8881  -2.7899   1.5390   4.5130
     4.5130

     occupation numbers 
     1.0000   1.0000   1.0000   1.0000   1.0000   1.0000   1.0000   1.0000
     1.0000

          k = 0.2946 0.2946-0.2946 (  5564 PWs)   bands (ev):

    -5.6831  -3.0921  -3.0921  -2.8837  -2.8837  -2.6195   0.9263   4.3904
     4.3904

     occupation numbers 
     1.0000   1.0000   1.0000   1.0000   1.0000   1.0000   1.0000   1.0000
     1.0000

          k =-0.3536-0.3536 0.3536 (  5564 PWs)   bands (ev):

    -5.6572  -3.0890  -3.0890  -2.8817  -2.8817  -2.5405   0.6954   4.3473
     4.3473

     occupation numbers 
     1.0000   1.0000   1.0000   1.0000   1.0000   1.0000   1.0000   1.0000
     1.0000

          k = 0.1179 0.0000 0.0000 (  5609 PWs)   bands (ev):

    -6.0190  -3.1425  -3.1425  -3.1322  -2.8949  -2.8895   4.3657   4.9424
     4.9424

     occupation numbers 
     1.0000   1.0000   1.0000   1.0000   1.0000   1.0000   1.0000   1.0000
     1.0000

          k = 0.1768 0.0589-0.0589 (  5574 PWs)   bands (ev):

    -5.9614  -3.1329  -3.1289  -3.0854  -2.8973  -2.8877   3.5991   4.7442
     4.8069

     occupation numbers 
     1.0000   1.0000   1.0000   1.0000   1.0000   1.0000   1.0000   1.0000
     1.0000

          k = 0.2357 0.1179-0.1179 (  5558 PWs)   bands (ev):

    -5.8704  -3.1187  -3.1113  -2.9903  -2.8949  -2.8856   2.6694   4.5323
     4.6129

     occupation numbers 
     1.0000   1.0000   1.0000   1.0000   1.0000   1.0000   1.0000   1.0000
     1.0000

          k = 0.2946 0.1768-0.1768 (  5552 PWs)   bands (ev):

    -5.7708  -3.1034  -3.0954  -2.9084  -2.8828  -2.8237   1.8005   4.3609
     4.3827

     occupation numbers 
     1.0000   1.0000   1.0000   1.0000   1.0000   1.0000   1.0000   1.0000
     1.0000

          k = 0.3536 0.2357-0.2357 (  5544 PWs)   bands (ev):

    -5.6902  -3.0918  -3.0853  -2.8963  -2.8803  -2.6536   1.1169   4.1781
     4.2637

     occupation numbers 
     1.0000   1.0000   1.0000   1.0000   1.0000   1.0000   1.0000   1.0000
     1.0000

          k =-0.2946-0.4125 0.4125 (  5550 PWs)   bands (ev):

    -5.6493  -3.0856  -3.0819  -2.8885  -2.8809  -2.5344   0.7557   4.0399
     4.2564

     occupation numbers 
     1.0000   1.0000   1.0000   1.0000   1.0000   1.0000   1.0000   1.0000
     1.0000

          k =-0.2357-0.3536 0.3536 (  5549 PWs)   bands (ev):

    -5.6579  -3.0851  -3.0850  -2.8857  -2.8850  -2.5609   0.8324   3.9913
     4.3393

     occupation numbers 
     1.0000   1.0000   1.0000   1.0000   1.0000   1.0000   1.0000   1.0000
     1.0000

          k =-0.1768-0.2946 0.2946 (  5546 PWs)   bands (ev):

    -5.7140  -3.0946  -3.0900  -2.8924  -2.8872  -2.7097   1.3181   4.0428
     4.4981

     occupation numbers 
     1.0000   1.0000   1.0000   1.0000   1.0000   1.0000   1.0000   1.0000
     1.0000

          k =-0.1179-0.2357 0.2357 (  5556 PWs)   bands (ev):

    -5.8039  -3.1099  -3.1012  -2.9091  -2.8971  -2.8636   2.0747   4.1938
     4.7028

     occupation numbers 
     1.0000   1.0000   1.0000   1.0000   1.0000   1.0000   1.0000   1.0000
     1.0000

          k =-0.0589-0.1768 0.1768 (  5567 PWs)   bands (ev):

    -5.9036  -3.1274  -3.1171  -3.0227  -2.8977  -2.8863   2.9638   4.4348
     4.9057

     occupation numbers 
     1.0000   1.0000   1.0000   1.0000   1.0000   1.0000   1.0000   1.0000
     1.0000

          k =-0.0000-0.1179 0.1179 (  5571 PWs)   bands (ev):

    -5.9857  -3.1416  -3.1342  -3.1012  -2.8953  -2.8897   3.8293   4.7531
     5.0432

     occupation numbers 
     1.0000   1.0000   1.0000   1.0000   1.0000   1.0000   1.0000   1.0000
     1.0000

          k = 0.2357 0.0000 0.0000 (  5569 PWs)   bands (ev):

    -5.9218  -3.1146  -3.1146  -3.0700  -2.8998  -2.8835   3.3806   4.5167
     4.5167

     occupation numbers 
     1.0000   1.0000   1.0000   1.0000   1.0000   1.0000   1.0000   1.0000
     1.0000

          k = 0.2946 0.0589-0.0589 (  5559 PWs)   bands (ev):

    -5.8466  -3.1009  -3.0957  -3.0042  -2.8905  -2.8801   2.7416   4.2814
     4.2861

     occupation numbers 
     1.0000   1.0000   1.0000   1.0000   1.0000   1.0000   1.0000   1.0000
     1.0000

          k = 0.3536 0.1179-0.1179 (  5539 PWs)   bands (ev):

    -5.7565  -3.0894  -3.0781  -2.9419  -2.8772  -2.8159   1.9949   3.9970
     4.1081

     occupation numbers 
     1.0000   1.0000   1.0000   1.0000   1.0000   1.0000   1.0000   1.0000
     1.0000

          k = 0.4125 0.1768-0.1768 (  5551 PWs)   bands (ev):

    -5.6765  -3.0800  -3.0666  -2.9212  -2.8759  -2.6581   1.3336   3.7051
     4.0165

     occupation numbers 
     1.0000   1.0000   1.0000   1.0000   1.0000   1.0000   1.0000   1.0000
     1.0000

          k =-0.2357-0.4714 0.4714 (  5550 PWs)   bands (ev):

    -5.6276  -3.0746  -3.0626  -2.9071  -2.8785  -2.5161   0.9067   3.4713
     4.0260

     occupation numbers 
     1.0000   1.0000   1.0000   1.0000   1.0000   1.0000   1.0000   1.0000
     1.0000

          k =-0.1768-0.4125 0.4125 (  5555 PWs)   bands (ev):

    -5.6214  -3.0731  -3.0661  -2.8968  -2.8856  -2.4898   0.8464   3.3381
     4.1346

     occupation numbers 
     1.0000   1.0000   1.0000   1.0000   1.0000   1.0000   1.0000   1.0000
     1.0000

          k =-0.1179-0.3536 0.3536 (  5554 PWs)   bands (ev):

    -5.6593  -3.0767  -3.0757  -2.8943  -2.8931  -2.5997   1.1715   3.3361
     4.3235

     occupation numbers 
     1.0000   1.0000   1.0000   1.0000   1.0000   1.0000   1.0000   1.0000
     1.0000

          k =-0.0589-0.2946 0.2946 (  5547 PWs)   bands (ev):

    -5.7324  -3.0933  -3.0835  -2.9002  -2.8988  -2.7611   1.7525   3.4983
     4.5557

     occupation numbers 
     1.0000   1.0000   1.0000   1.0000   1.0000   1.0000   1.0000   1.0000
     1.0000

          k = 0.0000-0.2357 0.2357 (  5558 PWs)   bands (ev):

    -5.8220  -3.1123  -3.0978  -2.9416  -2.9010  -2.8674   2.4033   3.8696
     4.7738

     occupation numbers 
     1.0000   1.0000   1.0000   1.0000   1.0000   1.0000   1.0000   1.0000
     1.0000

          k = 0.3536 0.0000 0.0000 (  5537 PWs)   bands (ev):

    -5.7898  -3.0748  -3.0748  -2.9930  -2.8754  -2.8635   2.4548   4.0353
     4.0353

     occupation numbers 
     1.0000   1.0000   1.0000   1.0000   1.0000   1.0000   1.0000   1.0000
     1.0000

          k = 0.4125 0.0589-0.0589 (  5555 PWs)   bands (ev):

    -5.7159  -3.0606  -3.0549  -2.9689  -2.8718  -2.7785   1.9461   3.7559
     3.8402

     occupation numbers 
     1.0000   1.0000   1.0000   1.0000   1.0000   1.0000   1.0000   1.0000
     1.0000

          k = 0.4714 0.1179-0.1179 (  5549 PWs)   bands (ev):

    -5.6456  -3.0557  -3.0414  -2.9500  -2.8707  -2.6337   1.4265   3.3900
     3.7376

     occupation numbers 
     1.0000   1.0000   1.0000   1.0000   1.0000   1.0000   1.0000   1.0000
     1.0000

          k =-0.1768-0.5303 0.5303 (  5558 PWs)   bands (ev):

    -5.5975  -3.0553  -3.0365  -2.9321  -2.8742  -2.4867   1.0431   3.0421
     3.7443

     occupation numbers 
     1.0000   1.0000   1.0000   1.0000   1.0000   1.0000   1.0000   1.0000
     1.0000

          k =-0.1179-0.4714 0.4714 (  5549 PWs)   bands (ev):

    -5.5833  -3.0577  -3.0404  -2.9154  -2.8825  -2.4209   0.9161   2.8069
     3.8591

     occupation numbers 
     1.0000   1.0000   1.0000   1.0000   1.0000   1.0000   1.0000   1.0000
     1.0000

          k =-0.0589-0.4125 0.4125 (  5548 PWs)   bands (ev):

    -5.6059  -3.0622  -3.0529  -2.9034  -2.8923  -2.4803   1.0779   2.7570
     4.0627

     occupation numbers 
     1.0000   1.0000   1.0000   1.0000   1.0000   1.0000   1.0000   1.0000
     1.0000

          k = 0.0000-0.3536 0.3536 (  5556 PWs)   bands (ev):

    -5.6600  -3.0721  -3.0702  -2.8989  -2.8982  -2.6180   1.4091   2.9740
     4.3157

     occupation numbers 
     1.0000   1.0000   1.0000   1.0000   1.0000   1.0000   1.0000   1.0000
     1.0000

          k = 0.4714 0.0000 0.0000 (  5558 PWs)   bands (ev):

    -5.6605  -3.0326  -3.0326  -2.9823  -2.8672  -2.7004   1.6446   3.6237
     3.6237

     occupation numbers 
     1.0000   1.0000   1.0000   1.0000   1.0000   1.0000   1.0000   1.0000
     1.0000

          k = 0.5303 0.0589-0.0589 (  5545 PWs)   bands (ev):

    -5.6059  -3.0251  -3.0171  -2.9752  -2.8652  -2.5794   1.2854   3.3552
     3.5002

     occupation numbers 
     1.0000   1.0000   1.0000   1.0000   1.0000   1.0000   1.0000   1.0000
     1.0000

          k =-0.1179-0.5893 0.5893 (  5542 PWs)   bands (ev):

    -5.5670  -3.0311  -3.0113  -2.9571  -2.8681  -2.4500   1.0198   2.9636
     3.4904

     occupation numbers 
     1.0000   1.0000   1.0000   1.0000   1.0000   1.0000   1.0000   1.0000
     1.0000

          k =-0.0589-0.5303 0.5303 (  5538 PWs)   bands (ev):

    -5.5533  -3.0402  -3.0159  -2.9370  -2.8761  -2.3730   0.9256   2.6229
     3.5959

     occupation numbers 
     1.0000   1.0000   1.0000   1.0000   1.0000   1.0000   1.0000   1.0000
     1.0000

          k =-0.0000-0.4714 0.4714 (  5526 PWs)   bands (ev):

    -5.5674  -3.0505  -3.0306  -2.9184  -2.8856  -2.3888   0.9836   2.5081
     3.7994

     occupation numbers 
     1.0000   1.0000   1.0000   1.0000   1.0000   1.0000   1.0000   1.0000
     1.0000

          k = 0.5893 0.0000 0.0000 (  5550 PWs)   bands (ev):

    -5.5688  -3.0001  -3.0001  -2.9918  -2.8613  -2.4993   1.0460   3.3519
     3.3519

     occupation numbers 
     1.0000   1.0000   1.0000   1.0000   1.0000   1.0000   1.0000   1.0000
     1.0000

          k =-0.0589-0.6482 0.6482 (  5548 PWs)   bands (ev):

    -5.5445  -3.0089  -2.9939  -2.9768  -2.8618  -2.4168   0.8835   3.1413
     3.3180

     occupation numbers 
     1.0000   1.0000   1.0000   1.0000   1.0000   1.0000   1.0000   1.0000
     1.0000

          k = 0.0000-0.5893 0.5893 (  5546 PWs)   bands (ev):

    -5.5390  -3.0233  -2.9993  -2.9581  -2.8678  -2.3682   0.8650   2.8112
     3.4040

     occupation numbers 
     1.0000   1.0000   1.0000   1.0000   1.0000   1.0000   1.0000   1.0000
     1.0000

          k =-0.7071 0.0000 0.0000 (  5514 PWs)   bands (ev):

    -5.5362  -2.9963  -2.9879  -2.9879  -2.8591  -2.4028   0.8139   3.2573
     3.2573

     occupation numbers 
     1.0000   1.0000   1.0000   1.0000   1.0000   1.0000   1.0000   1.0000
     1.0000

          k = 0.2357 0.1179-0.0000 (  5556 PWs)   bands (ev):

    -5.8950  -3.1206  -3.1106  -3.0284  -2.8983  -2.8836   3.0226   4.3162
     4.7230

     occupation numbers 
     1.0000   1.0000   1.0000   1.0000   1.0000   1.0000   1.0000   1.0000
     1.0000

          k = 0.2946 0.1768-0.0589 (  5544 PWs)   bands (ev):

    -5.8044  -3.1051  -3.0928  -2.9418  -2.8889  -2.8618   2.2765   3.9539
     4.5553

     occupation numbers 
     1.0000   1.0000   1.0000   1.0000   1.0000   1.0000   1.0000   1.0000
     1.0000

          k = 0.3536 0.2357-0.1179 (  5539 PWs)   bands (ev):

    -5.7148  -3.0899  -3.0799  -2.9121  -2.8826  -2.7292   1.5472   3.7210
     4.3489

     occupation numbers 
     1.0000   1.0000   1.0000   1.0000   1.0000   1.0000   1.0000   1.0000
     1.0000

          k =-0.2946-0.4125 0.5303 (  5543 PWs)   bands (ev):

    -5.6504  -3.0800  -3.0724  -2.9011  -2.8817  -2.5692   1.0014   3.5976
     4.1846

     occupation numbers 
     1.0000   1.0000   1.0000   1.0000   1.0000   1.0000   1.0000   1.0000
     1.0000

          k =-0.2357-0.3536 0.4714 (  5544 PWs)   bands (ev):

    -5.6271  -3.0768  -3.0699  -2.8952  -2.8831  -2.4955   0.7933   3.5605
     4.1219

     occupation numbers 
     1.0000   1.0000   1.0000   1.0000   1.0000   1.0000   1.0000   1.0000
     1.0000

          k = 0.3536 0.1179 0.0000 (  5552 PWs)   bands (ev):

    -5.7720  -3.0848  -3.0758  -2.9624  -2.8778  -2.8405   2.2405   3.8359
     4.1862

     occupation numbers 
     1.0000   1.0000   1.0000   1.0000   1.0000   1.0000   1.0000   1.0000
     1.0000

          k = 0.4125 0.1768-0.0589 (  5545 PWs)   bands (ev):

    -5.6920  -3.0722  -3.0606  -2.9397  -2.8758  -2.7142   1.6681   3.4805
     4.0078

     occupation numbers 
     1.0000   1.0000   1.0000   1.0000   1.0000   1.0000   1.0000   1.0000
     1.0000

          k =-0.2357-0.4714 0.5893 (  5552 PWs)   bands (ev):

    -5.6284  -3.0649  -3.0514  -2.9246  -2.8770  -2.5562   1.1717   3.2223
     3.8663

     occupation numbers 
     1.0000   1.0000   1.0000   1.0000   1.0000   1.0000   1.0000   1.0000
     1.0000

          k =-0.1768-0.4125 0.5303 (  5549 PWs)   bands (ev):

    -5.5972  -3.0628  -3.0489  -2.9112  -2.8823  -2.4510   0.9047   3.0505
     3.8456

     occupation numbers 
     1.0000   1.0000   1.0000   1.0000   1.0000   1.0000   1.0000   1.0000
     1.0000

          k =-0.1179-0.3536 0.4714 (  5546 PWs)   bands (ev):

    -5.6056  -3.0641  -3.0538  -2.9060  -2.8868  -2.4726   0.9709   2.9882
     3.9545

     occupation numbers 
     1.0000   1.0000   1.0000   1.0000   1.0000   1.0000   1.0000   1.0000
     1.0000

          k =-0.0589-0.2946 0.4125 (  5550 PWs)   bands (ev):

    -5.6515  -3.0711  -3.0642  -2.9124  -2.8858  -2.6022   1.3286   3.0851
     4.1559

     occupation numbers 
     1.0000   1.0000   1.0000   1.0000   1.0000   1.0000   1.0000   1.0000
     1.0000

          k = 0.0000-0.2357 0.3536 (  5555 PWs)   bands (ev):

    -5.7241  -3.0873  -3.0760  -2.9213  -2.8862  -2.7558   1.8145   3.4032
     4.3860

     occupation numbers 
     1.0000   1.0000   1.0000   1.0000   1.0000   1.0000   1.0000   1.0000
     1.0000

          k = 0.4714 0.1179 0.0000 (  5555 PWs)   bands (ev):

    -5.6519  -3.0449  -3.0389  -2.9630  -2.8695  -2.6651   1.5511   3.4397
     3.6781

     occupation numbers 
     1.0000   1.0000   1.0000   1.0000   1.0000   1.0000   1.0000   1.0000
     1.0000

          k =-0.1768-0.5303 0.6482 (  5561 PWs)   bands (ev):

    -5.5978  -3.0408  -3.0293  -2.9490  -2.8711  -2.5223   1.1911   3.0992
     3.5417

     occupation numbers 
     1.0000   1.0000   1.0000   1.0000   1.0000   1.0000   1.0000   1.0000
     1.0000

          k =-0.1179-0.4714 0.5893 (  5548 PWs)   bands (ev):

    -5.5673  -3.0441  -3.0261  -2.9320  -2.8776  -2.4085   0.9732   2.7838
     3.5397

     occupation numbers 
     1.0000   1.0000   1.0000   1.0000   1.0000   1.0000   1.0000   1.0000
     1.0000

          k =-0.0589-0.4125 0.5303 (  5545 PWs)   bands (ev):

    -5.5674  -3.0496  -3.0322  -2.9169  -2.8864  -2.3884   0.9646   2.6088
     3.6720

     occupation numbers 
     1.0000   1.0000   1.0000   1.0000   1.0000   1.0000   1.0000   1.0000
     1.0000

          k =-0.0000-0.3536 0.4714 (  5550 PWs)   bands (ev):

    -5.5979  -3.0572  -3.0470  -2.9109  -2.8895  -2.4705   1.1222   2.6872
     3.8986

     occupation numbers 
     1.0000   1.0000   1.0000   1.0000   1.0000   1.0000   1.0000   1.0000
     1.0000

          k =-0.1179-0.5893 0.7071 (  5554 PWs)   bands (ev):

    -5.5669  -3.0166  -3.0108  -2.9680  -2.8651  -2.4713   1.0397   3.1969
     3.3163

     occupation numbers 
     1.0000   1.0000   1.0000   1.0000   1.0000   1.0000   1.0000   1.0000
     1.0000

          k =-0.0589-0.5303 0.6482 (  5548 PWs)   bands (ev):

    -5.5451  -3.0239  -3.0093  -2.9516  -2.8703  -2.3803   0.9133   2.8759
     3.2923

     occupation numbers 
     1.0000   1.0000   1.0000   1.0000   1.0000   1.0000   1.0000   1.0000
     1.0000

          k =-0.0000-0.4714 0.5893 (  5545 PWs)   bands (ev):

    -5.5454  -3.0361  -3.0157  -2.9338  -2.8792  -2.3493   0.9200   2.5982
     3.4314

     occupation numbers 
     1.0000   1.0000   1.0000   1.0000   1.0000   1.0000   1.0000   1.0000
     1.0000

          k =-0.7071 0.1179 0.0000 (  5550 PWs)   bands (ev):

    -5.5366  -3.0102  -2.9990  -2.9669  -2.8638  -2.3814   0.8414   3.1361
     3.1659

     occupation numbers 
     1.0000   1.0000   1.0000   1.0000   1.0000   1.0000   1.0000   1.0000
     1.0000

          k =-0.2357-0.4714 0.7071 (  5554 PWs)   bands (ev):

    -5.6289  -3.0564  -3.0486  -2.9326  -2.8778  -2.5759   1.3365   3.0483
     3.8044

     occupation numbers 
     1.0000   1.0000   1.0000   1.0000   1.0000   1.0000   1.0000   1.0000
     1.0000

          k =-0.1768-0.4125 0.6482 (  5557 PWs)   bands (ev):

    -5.5837  -3.0496  -3.0385  -2.9220  -2.8830  -2.4445   1.0595   2.8058
     3.6035

     occupation numbers 
     1.0000   1.0000   1.0000   1.0000   1.0000   1.0000   1.0000   1.0000
     1.0000

          k =-0.1179-0.3536 0.5893 (  5548 PWs)   bands (ev):

    -5.5674  -3.0485  -3.0339  -2.9155  -2.8873  -2.3880   0.9466   2.7338
     3.5215

     occupation numbers 
     1.0000   1.0000   1.0000   1.0000   1.0000   1.0000   1.0000   1.0000
     1.0000

          k =-0.1179-0.4714 0.7071 (  5547 PWs)   bands (ev):

    -5.5615  -3.0303  -3.0270  -2.9384  -2.8765  -2.4102   1.0168   2.8783
     3.2818

     occupation numbers 
     1.0000   1.0000   1.0000   1.0000   1.0000   1.0000   1.0000   1.0000
     1.0000

          k =-0.0589-0.4125 0.6482 (  5557 PWs)   bands (ev):

    -5.5457  -3.0338  -3.0229  -2.9255  -2.8850  -2.3450   0.9444   2.6999
     3.1910

     occupation numbers 
     1.0000   1.0000   1.0000   1.0000   1.0000   1.0000   1.0000   1.0000
     1.0000

          k = 0.0000-0.3536 0.5893 (  5556 PWs)   bands (ev):

    -5.5537  -3.0399  -3.0273  -2.9187  -2.8889  -2.3603   0.9756   2.6292
     3.3353

     occupation numbers 
     1.0000   1.0000   1.0000   1.0000   1.0000   1.0000   1.0000   1.0000
     1.0000

          k =-0.7071 0.2357 0.0000 (  5542 PWs)   bands (ev):

    -5.5374  -3.0201  -3.0195  -2.9389  -2.8772  -2.3402   0.9020   2.9074
     2.9990

     occupation numbers 
     1.0000   1.0000   1.0000   1.0000   1.0000   1.0000   1.0000   1.0000
     1.0000

          k =-0.7071 0.3536 0.0000 (  5540 PWs)   bands (ev):

    -5.5378  -3.0289  -3.0233  -2.9207  -2.8899  -2.3202   0.9359   2.7972
     2.9220

     occupation numbers 
     1.0000   1.0000   1.0000   1.0000   1.0000   1.0000   1.0000   1.0000
     1.0000

     highest occupied level (ev):     5.1230

!    total energy              =    -128.97736659 Ry
     estimated scf accuracy    <          9.6E-11 Ry

     The total energy is the sum of the following terms:
     one-electron contribution =     -48.73595984 Ry
     hartree contribution      =      36.05961249 Ry
     xc contribution           =     -39.49979230 Ry
     ewald contribution        =     -76.80122694 Ry

     convergence has been achieved in  30 iterations

     Writing all to output data dir /home/User/opencode_workspace/DFT/calculations/cdte/conv_scf_k12/out/pwscf.save/ :
     XML data file, charge density, pseudopotentials, collected wavefunctions

     init_run     :      1.20s CPU      1.35s WALL (       1 calls)
     electrons    :     56.63s CPU     66.17s WALL (       1 calls)

     Called by init_run:
     wfcinit      :      0.60s CPU      0.68s WALL (       1 calls)
     wfcinit:atom :      0.01s CPU      0.01s WALL (      72 calls)
     wfcinit:wfcr :      0.53s CPU      0.61s WALL (      72 calls)
     potinit      :      0.12s CPU      0.13s WALL (       1 calls)
     hinit0       :      0.29s CPU      0.31s WALL (       1 calls)

     Called by electrons:
     c_bands      :     45.53s CPU     51.24s WALL (      31 calls)
     sum_band     :      8.37s CPU     10.66s WALL (      31 calls)
     v_of_rho     :      0.51s CPU      0.64s WALL (      31 calls)
     v_h          :      0.03s CPU      0.05s WALL (      31 calls)
     v_xc         :      0.48s CPU      0.59s WALL (      31 calls)
     newd         :      2.20s CPU      3.63s WALL (      31 calls)
     mix_rho      :      0.07s CPU      0.08s WALL (      31 calls)

     Called by c_bands:
     init_us_2    :      1.12s CPU      1.22s WALL (    4536 calls)
     cegterg      :     43.21s CPU     48.81s WALL (    2232 calls)

     Called by sum_band:
     sum_band:wei :      0.00s CPU      0.00s WALL (      31 calls)
     sum_band:loo :      5.90s CPU      6.75s WALL (      31 calls)
     sum_band:buf :      0.03s CPU      0.03s WALL (    2232 calls)
     sum_band:ini :      0.54s CPU      0.59s WALL (    2232 calls)
     sum_band:cal :      0.50s CPU      0.56s WALL (    2232 calls)
     sum_band:bec :      0.03s CPU      0.03s WALL (    2232 calls)
     addusdens    :      2.06s CPU      3.49s WALL (      31 calls)
                                        0.00s GPU  (      31 calls)
     addusd:skk   :      0.00s CPU      0.00s WALL (      62 calls)
                                        0.00s GPU  (      62 calls)

     Called by *egterg:
     cdiaghg      :      1.17s CPU      1.27s WALL (   12307 calls)
     cegterg:over :      1.35s CPU      1.48s WALL (   10147 calls)
     cegterg:upda :      0.41s CPU      0.45s WALL (   10147 calls)
     cegterg:last :      0.80s CPU      0.86s WALL (    7115 calls)
     h_psi        :     37.88s CPU     43.04s WALL (   12451 calls)
     s_psi        :      0.66s CPU      0.74s WALL (   12451 calls)
     g_psi        :      0.28s CPU      0.30s WALL (   10147 calls)

     Called by h_psi:
     h_psi:calbec :      2.00s CPU      2.25s WALL (   12451 calls)
     vloc_psi     :     34.87s CPU     39.66s WALL (   12451 calls)
                                        0.00s GPU  (   12451 calls)
     add_vuspsi   :      0.80s CPU      0.90s WALL (   12451 calls)

     General routines
     calbec       :      2.45s CPU      2.76s WALL (   14683 calls)
     fft          :      0.42s CPU      0.51s WALL (     402 calls)
     ffts         :      0.11s CPU      0.12s WALL (      62 calls)
     fftw         :     37.10s CPU     42.28s WALL (  171436 calls)
     interpolate  :      0.12s CPU      0.13s WALL (      31 calls)

     Parallel routines

     PWSCF        :     58.13s CPU   1m 7.91s WALL


   This run was terminated on:  19: 7:35  22Sep2026            

=------------------------------------------------------------------------------=
   JOB DONE.
=------------------------------------------------------------------------------=
