
     Program PWSCF v.7.5 starts on 22Sep2026 at 19:15:11 

     This program is part of the open-source Quantum ESPRESSO suite
     for quantum simulation of materials; please cite
         "P. Giannozzi et al., J. Phys.:Condens. Matter 21 395502 (2009);
         "P. Giannozzi et al., J. Phys.:Condens. Matter 29 465901 (2017);
         "P. Giannozzi et al., J. Chem. Phys. 152 154105 (2020);
          URL http://www.quantum-espresso.org", 
     in publications or presentations arising from this work. More details at
     http://www.quantum-espresso.org/quote

     Parallel version (MPI & OpenMP), running on       6 processor cores
     Number of MPI processes:                 6
     Threads/MPI process:                     1

     MPI processes distributed on     1 nodes
     2017 MiB available memory on the printing compute node when the environment starts

     Reading input from pw.in

     Current dimensions of program PWSCF are:
     Max number of different atomic species (ntypx) = 10
     Max number of k-points (npk) =  40000
     Max angular momentum in pseudopotentials (lmaxx) =  4
     file Hg.pbe-spn-rrkjus_psl.1.0.0.UPF: wavefunction(s)  5P renormalized
     file Te.pbe-n-rrkjus_psl.1.0.0.UPF: wavefunction(s)  5S renormalized

     Atomic positions and unit cell read from directory:
     /home/User/opencode_workspace/DFT/calculations/hgte/conv_nscf_e60/out/pwscf.save/

     Message from routine setup:
     using ibrav=0 with symmetry is DISCOURAGED, use correct ibrav instead

     R & G space division:  proc/nbgrp/npool/nimage =       6
     Subspace diagonalization in iterative solution of the eigenvalue problem:
     a serial algorithm will be used


     Parallelization info
     --------------------
     sticks:   dense  smooth     PW     G-vecs:    dense   smooth      PW
     Min         306     206     60                 8723     4761     761
     Max         308     207     61                 8725     4764     764
     Sum        1843    1237    361                52345    28571    4573

     Using Slab Decomposition



     bravais-lattice index     =            0
     lattice parameter (alat)  =       8.6227  a.u.
     unit-cell volume          =     453.3375 (a.u.)^3
     number of atoms/cell      =            2
     number of atomic types    =            2
     number of electrons       =        26.00
     number of Kohn-Sham states=           17
     kinetic-energy cutoff     =      60.0000  Ry
     charge density cutoff     =     360.0000  Ry
     Exchange-correlation= PBE
                           (   1   4   3   4   0   0   0)

     celldm(1)=   8.622745  celldm(2)=   0.000000  celldm(3)=   0.000000
     celldm(4)=   0.000000  celldm(5)=   0.000000  celldm(6)=   0.000000

     crystal axes: (cart. coord. in units of alat)
               a(1) = (   0.000000   0.707107   0.707107 )  
               a(2) = (   0.707107   0.000000   0.707107 )  
               a(3) = (   0.707107   0.707107   0.000000 )  

     reciprocal axes: (cart. coord. in units 2 pi/alat)
               b(1) = ( -0.707107  0.707107  0.707107 )  
               b(2) = (  0.707107 -0.707107  0.707107 )  
               b(3) = (  0.707107  0.707107 -0.707107 )  


     PseudoPot. # 1 for Hg read from file:
     /home/User/opencode_workspace/DFT/pseudopotentials/Hg.pbe-spn-rrkjus_psl.1.0.0.UPF
     MD5 check sum: f568566075d917e14d67c96ef6763253
     Pseudo is Ultrasoft + core correction, Zval = 20.0
     Generated using &quot;atomic&quot; code by A. Dal Corso  v.6.3
     Using radial grid of 1279 points,  6 beta functions with: 
                l(1) =   0
                l(2) =   0
                l(3) =   1
                l(4) =   1
                l(5) =   2
                l(6) =   2
     Q(r) pseudized with 0 coefficients 


     PseudoPot. # 2 for Te read from file:
     /home/User/opencode_workspace/DFT/pseudopotentials/Te.pbe-n-rrkjus_psl.1.0.0.UPF
     MD5 check sum: 203a1e86ef55f0cd9de2762a27c58f54
     Pseudo is Ultrasoft + core correction, Zval =  6.0
     Generated using &quot;atomic&quot; code by A. Dal Corso  v.6.3
     Using radial grid of 1245 points,  6 beta functions with: 
                l(1) =   0
                l(2) =   0
                l(3) =   1
                l(4) =   1
                l(5) =   2
                l(6) =   2
     Q(r) pseudized with 0 coefficients 


     atomic species   valence    mass     pseudopotential
     Hg               20.00   200.59200     Hg( 1.00)
     Te                6.00   127.60000     Te( 1.00)

     24 Sym. Ops. (no inversion) found


                                    s                        frac. trans.

      isym =  1     identity                                     

 cryst.   s( 1) = (     1          0          0      )
                  (     0          1          0      )
                  (     0          0          1      )

 cart.    s( 1) = (  1.0000000  0.0000000  0.0000000 )
                  (  0.0000000  1.0000000  0.0000000 )
                  (  0.0000000  0.0000000  1.0000000 )


      isym =  2     180 deg rotation - cart. axis [0,0,1]        

 cryst.   s( 2) = (     0          1         -1      )
                  (     1          0         -1      )
                  (     0          0         -1      )

 cart.    s( 2) = ( -1.0000000  0.0000000  0.0000000 )
                  (  0.0000000 -1.0000000  0.0000000 )
                  (  0.0000000  0.0000000  1.0000000 )


      isym =  3     180 deg rotation - cart. axis [0,1,0]        

 cryst.   s( 3) = (     0         -1          1      )
                  (     0         -1          0      )
                  (     1         -1          0      )

 cart.    s( 3) = ( -1.0000000  0.0000000  0.0000000 )
                  (  0.0000000  1.0000000  0.0000000 )
                  (  0.0000000  0.0000000 -1.0000000 )


      isym =  4     180 deg rotation - cart. axis [1,0,0]        

 cryst.   s( 4) = (    -1          0          0      )
                  (    -1          0          1      )
                  (    -1          1          0      )

 cart.    s( 4) = (  1.0000000  0.0000000  0.0000000 )
                  (  0.0000000 -1.0000000  0.0000000 )
                  (  0.0000000  0.0000000 -1.0000000 )


      isym =  5     120 deg rotation - cart. axis [-1,-1,-1]     

 cryst.   s( 5) = (     0          0          1      )
                  (     1          0          0      )
                  (     0          1          0      )

 cart.    s( 5) = (  0.0000000  1.0000000  0.0000000 )
                  (  0.0000000  0.0000000  1.0000000 )
                  (  1.0000000  0.0000000  0.0000000 )


      isym =  6     120 deg rotation - cart. axis [-1,1,1]       

 cryst.   s( 6) = (     1         -1          0      )
                  (     0         -1          1      )
                  (     0         -1          0      )

 cart.    s( 6) = (  0.0000000 -1.0000000  0.0000000 )
                  (  0.0000000  0.0000000  1.0000000 )
                  ( -1.0000000  0.0000000  0.0000000 )


      isym =  7     120 deg rotation - cart. axis [1,1,-1]       

 cryst.   s( 7) = (    -1          1          0      )
                  (    -1          0          0      )
                  (    -1          0          1      )

 cart.    s( 7) = (  0.0000000  1.0000000  0.0000000 )
                  (  0.0000000  0.0000000 -1.0000000 )
                  ( -1.0000000  0.0000000  0.0000000 )


      isym =  8     120 deg rotation - cart. axis [1,-1,1]       

 cryst.   s( 8) = (     0          0         -1      )
                  (     0          1         -1      )
                  (     1          0         -1      )

 cart.    s( 8) = (  0.0000000 -1.0000000  0.0000000 )
                  (  0.0000000  0.0000000 -1.0000000 )
                  (  1.0000000  0.0000000  0.0000000 )


      isym =  9     120 deg rotation - cart. axis [1,1,1]        

 cryst.   s( 9) = (     0          1          0      )
                  (     0          0          1      )
                  (     1          0          0      )

 cart.    s( 9) = (  0.0000000  0.0000000  1.0000000 )
                  (  1.0000000  0.0000000  0.0000000 )
                  (  0.0000000  1.0000000  0.0000000 )


      isym = 10     120 deg rotation - cart. axis [-1,1,-1]      

 cryst.   s(10) = (    -1          0          1      )
                  (    -1          1          0      )
                  (    -1          0          0      )

 cart.    s(10) = (  0.0000000  0.0000000  1.0000000 )
                  ( -1.0000000  0.0000000  0.0000000 )
                  (  0.0000000 -1.0000000  0.0000000 )


      isym = 11     120 deg rotation - cart. axis [1,-1,-1]      

 cryst.   s(11) = (     1          0         -1      )
                  (     0          0         -1      )
                  (     0          1         -1      )

 cart.    s(11) = (  0.0000000  0.0000000 -1.0000000 )
                  ( -1.0000000  0.0000000  0.0000000 )
                  (  0.0000000  1.0000000  0.0000000 )


      isym = 12     120 deg rotation - cart. axis [-1,-1,1]      

 cryst.   s(12) = (     0         -1          0      )
                  (     1         -1          0      )
                  (     0         -1          1      )

 cart.    s(12) = (  0.0000000  0.0000000 -1.0000000 )
                  (  1.0000000  0.0000000  0.0000000 )
                  (  0.0000000 -1.0000000  0.0000000 )


      isym = 13     inv. 180 deg rotation - cart. axis [1,1,0]   

 cryst.   s(13) = (     1          0         -1      )
                  (     0          1         -1      )
                  (     0          0         -1      )

 cart.    s(13) = (  0.0000000 -1.0000000  0.0000000 )
                  ( -1.0000000  0.0000000  0.0000000 )
                  (  0.0000000  0.0000000  1.0000000 )


      isym = 14     inv. 180 deg rotation - cart. axis [1,-1,0]  

 cryst.   s(14) = (     0          1          0      )
                  (     1          0          0      )
                  (     0          0          1      )

 cart.    s(14) = (  0.0000000  1.0000000  0.0000000 )
                  (  1.0000000  0.0000000  0.0000000 )
                  (  0.0000000  0.0000000  1.0000000 )


      isym = 15     inv.  90 deg rotation - cart. axis [0,0,-1]  

 cryst.   s(15) = (     0         -1          0      )
                  (     0         -1          1      )
                  (     1         -1          0      )

 cart.    s(15) = (  0.0000000 -1.0000000  0.0000000 )
                  (  1.0000000  0.0000000  0.0000000 )
                  (  0.0000000  0.0000000 -1.0000000 )


      isym = 16     inv.  90 deg rotation - cart. axis [0,0,1]   

 cryst.   s(16) = (    -1          0          1      )
                  (    -1          0          0      )
                  (    -1          1          0      )

 cart.    s(16) = (  0.0000000  1.0000000  0.0000000 )
                  ( -1.0000000  0.0000000  0.0000000 )
                  (  0.0000000  0.0000000 -1.0000000 )


      isym = 17     inv. 180 deg rotation - cart. axis [1,0,1]   

 cryst.   s(17) = (     1         -1          0      )
                  (     0         -1          0      )
                  (     0         -1          1      )

 cart.    s(17) = (  0.0000000  0.0000000 -1.0000000 )
                  (  0.0000000  1.0000000  0.0000000 )
                  ( -1.0000000  0.0000000  0.0000000 )


      isym = 18     inv. 180 deg rotation - cart. axis [-1,0,1]  

 cryst.   s(18) = (     0          0          1      )
                  (     0          1          0      )
                  (     1          0          0      )

 cart.    s(18) = (  0.0000000  0.0000000  1.0000000 )
                  (  0.0000000  1.0000000  0.0000000 )
                  (  1.0000000  0.0000000  0.0000000 )


      isym = 19     inv.  90 deg rotation - cart. axis [0,1,0]   

 cryst.   s(19) = (     0          0         -1      )
                  (     1          0         -1      )
                  (     0          1         -1      )

 cart.    s(19) = (  0.0000000  0.0000000 -1.0000000 )
                  (  0.0000000 -1.0000000  0.0000000 )
                  (  1.0000000  0.0000000  0.0000000 )


      isym = 20     inv.  90 deg rotation - cart. axis [0,-1,0]  

 cryst.   s(20) = (    -1          1          0      )
                  (    -1          0          1      )
                  (    -1          0          0      )

 cart.    s(20) = (  0.0000000  0.0000000  1.0000000 )
                  (  0.0000000 -1.0000000  0.0000000 )
                  ( -1.0000000  0.0000000  0.0000000 )


      isym = 21     inv. 180 deg rotation - cart. axis [0,1,1]   

 cryst.   s(21) = (    -1          0          0      )
                  (    -1          1          0      )
                  (    -1          0          1      )

 cart.    s(21) = (  1.0000000  0.0000000  0.0000000 )
                  (  0.0000000  0.0000000 -1.0000000 )
                  (  0.0000000 -1.0000000  0.0000000 )


      isym = 22     inv. 180 deg rotation - cart. axis [0,1,-1]  

 cryst.   s(22) = (     1          0          0      )
                  (     0          0          1      )
                  (     0          1          0      )

 cart.    s(22) = (  1.0000000  0.0000000  0.0000000 )
                  (  0.0000000  0.0000000  1.0000000 )
                  (  0.0000000  1.0000000  0.0000000 )


      isym = 23     inv.  90 deg rotation - cart. axis [-1,0,0]  

 cryst.   s(23) = (     0          1         -1      )
                  (     0          0         -1      )
                  (     1          0         -1      )

 cart.    s(23) = ( -1.0000000  0.0000000  0.0000000 )
                  (  0.0000000  0.0000000 -1.0000000 )
                  (  0.0000000  1.0000000  0.0000000 )


      isym = 24     inv.  90 deg rotation - cart. axis [1,0,0]   

 cryst.   s(24) = (     0         -1          1      )
                  (     1         -1          0      )
                  (     0         -1          0      )

 cart.    s(24) = ( -1.0000000  0.0000000  0.0000000 )
                  (  0.0000000  0.0000000  1.0000000 )
                  (  0.0000000 -1.0000000  0.0000000 )


   Cartesian axes

     site n.     atom                  positions (alat units)
         1        Hg     tau(   1) = (   0.0000000   0.0000000   0.0000000  )
         2        Te     tau(   2) = (   0.3535534   0.3535534   0.3535534  )

   Crystallographic axes

     site n.     atom                  positions (cryst. coord.)
         1        Hg     tau(   1) = (  0.0000000  0.0000000  0.0000000  )
         2        Te     tau(   2) = (  0.2500000  0.2500000  0.2500000  )

     number of k points=    29 (tetrahedron method)
                       cart. coord. in units 2pi/alat
        k(    1) = (   0.0000000   0.0000000   0.0000000), wk =   0.0039062
        k(    2) = (   0.0883883   0.0883883  -0.0883883), wk =   0.0312500
        k(    3) = (   0.1767767   0.1767767  -0.1767767), wk =   0.0312500
        k(    4) = (   0.2651650   0.2651650  -0.2651650), wk =   0.0312500
        k(    5) = (  -0.3535534  -0.3535534   0.3535534), wk =   0.0156250
        k(    6) = (   0.1767767   0.0000000   0.0000000), wk =   0.0234375
        k(    7) = (   0.2651650   0.0883883  -0.0883883), wk =   0.0937500
        k(    8) = (   0.3535534   0.1767767  -0.1767767), wk =   0.0937500
        k(    9) = (  -0.2651650  -0.4419417   0.4419417), wk =   0.0937500
        k(   10) = (  -0.1767767  -0.3535534   0.3535534), wk =   0.0937500
        k(   11) = (  -0.0883883  -0.2651650   0.2651650), wk =   0.0937500
        k(   12) = (   0.0000000  -0.1767767   0.1767767), wk =   0.0468750
        k(   13) = (   0.3535534   0.0000000   0.0000000), wk =   0.0234375
        k(   14) = (   0.4419417   0.0883883  -0.0883883), wk =   0.0937500
        k(   15) = (  -0.1767767  -0.5303301   0.5303301), wk =   0.0937500
        k(   16) = (  -0.0883883  -0.4419417   0.4419417), wk =   0.0937500
        k(   17) = (   0.0000000  -0.3535534   0.3535534), wk =   0.0468750
        k(   18) = (   0.5303301   0.0000000   0.0000000), wk =   0.0234375
        k(   19) = (  -0.0883883  -0.6187184   0.6187184), wk =   0.0937500
        k(   20) = (   0.0000000  -0.5303301   0.5303301), wk =   0.0468750
        k(   21) = (  -0.7071068   0.0000000   0.0000000), wk =   0.0117188
        k(   22) = (   0.3535534   0.1767767   0.0000000), wk =   0.0937500
        k(   23) = (  -0.2651650  -0.4419417   0.6187184), wk =   0.1875000
        k(   24) = (  -0.1767767  -0.3535534   0.5303301), wk =   0.0937500
        k(   25) = (  -0.1767767  -0.5303301   0.7071068), wk =   0.0937500
        k(   26) = (  -0.0883883  -0.4419417   0.6187184), wk =   0.1875000
        k(   27) = (   0.0000000  -0.3535534   0.5303301), wk =   0.0937500
        k(   28) = (  -0.7071068   0.1767767   0.0000000), wk =   0.0468750
        k(   29) = (  -0.7071068   0.3535534   0.0000000), wk =   0.0234375

                       cryst. coord.
        k(    1) = (   0.0000000   0.0000000   0.0000000), wk =   0.0039062
        k(    2) = (   0.0000000   0.0000000   0.1250000), wk =   0.0312500
        k(    3) = (   0.0000000   0.0000000   0.2500000), wk =   0.0312500
        k(    4) = (   0.0000000   0.0000000   0.3750000), wk =   0.0312500
        k(    5) = (   0.0000000   0.0000000  -0.5000000), wk =   0.0156250
        k(    6) = (   0.0000000   0.1250000   0.1250000), wk =   0.0234375
        k(    7) = (   0.0000000   0.1250000   0.2500000), wk =   0.0937500
        k(    8) = (   0.0000000   0.1250000   0.3750000), wk =   0.0937500
        k(    9) = (   0.0000000   0.1250000  -0.5000000), wk =   0.0937500
        k(   10) = (   0.0000000   0.1250000  -0.3750000), wk =   0.0937500
        k(   11) = (   0.0000000   0.1250000  -0.2500000), wk =   0.0937500
        k(   12) = (   0.0000000   0.1250000  -0.1250000), wk =   0.0468750
        k(   13) = (   0.0000000   0.2500000   0.2500000), wk =   0.0234375
        k(   14) = (   0.0000000   0.2500000   0.3750000), wk =   0.0937500
        k(   15) = (   0.0000000   0.2500000  -0.5000000), wk =   0.0937500
        k(   16) = (   0.0000000   0.2500000  -0.3750000), wk =   0.0937500
        k(   17) = (   0.0000000   0.2500000  -0.2500000), wk =   0.0468750
        k(   18) = (   0.0000000   0.3750000   0.3750000), wk =   0.0234375
        k(   19) = (   0.0000000   0.3750000  -0.5000000), wk =   0.0937500
        k(   20) = (   0.0000000   0.3750000  -0.3750000), wk =   0.0468750
        k(   21) = (   0.0000000  -0.5000000  -0.5000000), wk =   0.0117188
        k(   22) = (   0.1250000   0.2500000   0.3750000), wk =   0.0937500
        k(   23) = (   0.1250000   0.2500000  -0.5000000), wk =   0.1875000
        k(   24) = (   0.1250000   0.2500000  -0.3750000), wk =   0.0937500
        k(   25) = (   0.1250000   0.3750000  -0.5000000), wk =   0.0937500
        k(   26) = (   0.1250000   0.3750000  -0.3750000), wk =   0.1875000
        k(   27) = (   0.1250000   0.3750000  -0.2500000), wk =   0.0937500
        k(   28) = (   0.1250000  -0.5000000  -0.3750000), wk =   0.0468750
        k(   29) = (   0.2500000  -0.5000000  -0.2500000), wk =   0.0234375

     Dense  grid:    52345 G-vectors     FFT dimensions: (  54,  54,  54)

     Smooth grid:    28571 G-vectors     FFT dimensions: (  45,  45,  45)

     Dynamical RAM for                 wfc:       0.15 MB

     Dynamical RAM for     wfc (w. buffer):       0.15 MB

     Dynamical RAM for           str. fact:       0.27 MB

     Dynamical RAM for           local pot:       0.00 MB

     Dynamical RAM for          nlocal pot:       0.33 MB

     Dynamical RAM for                qrad:       3.05 MB

     Dynamical RAM for          rho,v,vnew:       1.00 MB

     Dynamical RAM for           G-vectors:       0.54 MB

     Dynamical RAM for          h,s,v(r/c):       0.05 MB

     Dynamical RAM for          <psi|beta>:       0.01 MB

     Dynamical RAM for                 psi:       0.31 MB

     Dynamical RAM for                hpsi:       0.31 MB

     Dynamical RAM for                spsi:       0.31 MB

     Dynamical RAM for      wfcinit/wfcrot:       0.31 MB

     Dynamical RAM for           addusdens:      24.90 MB

     Estimated static dynamical RAM per process >       6.73 MB

     Estimated max dynamical RAM per process >      31.62 MB

     Estimated total dynamical RAM >     189.74 MB

     The potential is recalculated from file :
     /home/User/opencode_workspace/DFT/calculations/hgte/conv_nscf_e60/out/pwscf.save/charge-density

     Starting wfcs are   14 randomized atomic wfcs +    3 random wfcs

     Band Structure Calculation
     Davidson diagonalization with overlap

     Computing kpt #:     1  of    29
     total cpu time spent up to now is        0.9 secs

     Computing kpt #:     2  of    29
     total cpu time spent up to now is        1.1 secs

     Computing kpt #:     3  of    29
     total cpu time spent up to now is        1.3 secs

     Computing kpt #:     4  of    29
     total cpu time spent up to now is        1.6 secs

     Computing kpt #:     5  of    29
     total cpu time spent up to now is        1.8 secs

     Computing kpt #:     6  of    29
     total cpu time spent up to now is        2.1 secs

     Computing kpt #:     7  of    29
     total cpu time spent up to now is        2.3 secs

     Computing kpt #:     8  of    29
     total cpu time spent up to now is        2.5 secs

     Computing kpt #:     9  of    29
     total cpu time spent up to now is        2.8 secs

     Computing kpt #:    10  of    29
     total cpu time spent up to now is        3.0 secs

     Computing kpt #:    11  of    29
     total cpu time spent up to now is        3.2 secs

     Computing kpt #:    12  of    29
     total cpu time spent up to now is        3.5 secs

     Computing kpt #:    13  of    29
     total cpu time spent up to now is        3.7 secs

     Computing kpt #:    14  of    29
     total cpu time spent up to now is        3.9 secs

     Computing kpt #:    15  of    29
     total cpu time spent up to now is        4.2 secs

     Computing kpt #:    16  of    29
     total cpu time spent up to now is        4.4 secs

     Computing kpt #:    17  of    29
     total cpu time spent up to now is        4.6 secs

     Computing kpt #:    18  of    29
     total cpu time spent up to now is        4.9 secs

     Computing kpt #:    19  of    29
     total cpu time spent up to now is        5.1 secs

     Computing kpt #:    20  of    29
     total cpu time spent up to now is        5.4 secs

     Computing kpt #:    21  of    29
     total cpu time spent up to now is        5.6 secs

     Computing kpt #:    22  of    29
     total cpu time spent up to now is        5.9 secs

     Computing kpt #:    23  of    29
     total cpu time spent up to now is        6.2 secs

     Computing kpt #:    24  of    29
     total cpu time spent up to now is        6.5 secs

     Computing kpt #:    25  of    29
     total cpu time spent up to now is        6.8 secs

     Computing kpt #:    26  of    29
     total cpu time spent up to now is        7.0 secs

     Computing kpt #:    27  of    29
     total cpu time spent up to now is        7.3 secs

     Computing kpt #:    28  of    29
     total cpu time spent up to now is        7.5 secs

     Computing kpt #:    29  of    29
     total cpu time spent up to now is        7.7 secs

     ethr =  3.85E-13,  avg # of iterations = 39.3

     total cpu time spent up to now is        7.7 secs

     End of band structure calculation

          k = 0.0000 0.0000 0.0000 (  3527 PWs)   bands (ev):

  -107.6580 -55.9862 -55.9862 -55.9862  -4.5613   0.0924   0.0924   0.0924
     0.6291   0.6291   6.7478   7.4628   7.4628   7.4628  11.6951  11.6951
    11.6951

     occupation numbers 
     1.0000   1.0000   1.0000   1.0000   1.0000   1.0000   1.0000   1.0000
     1.0000   1.0000   1.0000   1.0000   1.0000   0.0000   0.0000   0.0000
     0.0000

          k = 0.0884 0.0884-0.0884 (  3575 PWs)   bands (ev):

  -107.6580 -55.9867 -55.9865 -55.9865  -4.4832   0.1140   0.1140   0.1210
     0.6269   0.6269   5.6152   7.2861   7.2861   8.1301  11.6213  11.9306
    11.9306

     occupation numbers 
     1.0000   1.0000   1.0000   1.0000   1.0000   1.0000   1.0000   1.0000
     1.0000   1.0000   1.0000   1.0000   1.0000   0.0000   0.0000   0.0000
     0.0000

          k = 0.1768 0.1768-0.1768 (  3584 PWs)   bands (ev):

  -107.6580 -55.9867 -55.9867 -55.9866  -4.2853   0.1626   0.1626   0.2507
     0.6285   0.6285   4.0817   6.9141   6.9141   8.3353  12.3389  12.3389
    12.3750

     occupation numbers 
     1.0000   1.0000   1.0000   1.0000   1.0000   1.0000   1.0000   1.0000
     1.0000   1.0000   1.0000   1.0000   1.0000   0.0000   0.0000   0.0000
     0.0000

          k = 0.2652 0.2652-0.2652 (  3582 PWs)   bands (ev):

  -107.6580 -55.9867 -55.9867 -55.9866  -4.0733   0.2032   0.2032   0.5750
     0.6422   0.6422   2.7003   6.5911   6.5911   8.2260  12.5031  12.5031
    13.7671

     occupation numbers 
     1.0000   1.0000   1.0000   1.0000   1.0000   1.0000   1.0000   1.0000
     1.0000   1.0000   1.0000   1.0000   1.0000   0.0000   0.0000   0.0000
     0.0000

          k =-0.3536-0.3536 0.3536 (  3582 PWs)   bands (ev):

  -107.6580 -55.9867 -55.9867 -55.9867  -3.9811   0.2170   0.2170   0.6523
     0.6523   0.9398   1.9422   6.4669   6.4669   8.1654  12.5100  12.5100
    14.3321

     occupation numbers 
     1.0000   1.0000   1.0000   1.0000   1.0000   1.0000   1.0000   1.0000
     1.0000   1.0000   1.0000   1.0000   1.0000   0.0000   0.0000   0.0000
     0.0000

          k = 0.1768 0.0000 0.0000 (  3575 PWs)   bands (ev):

  -107.6580 -55.9867 -55.9865 -55.9865  -4.4569   0.1028   0.1349   0.1349
     0.6134   0.6388   5.5304   6.9995   6.9995   8.6200  11.0067  12.3115
    12.3115

     occupation numbers 
     1.0000   1.0000   1.0000   1.0000   1.0000   1.0000   1.0000   1.0000
     1.0000   1.0000   1.0000   1.0000   1.0000  -0.0000   0.0000   0.0000
     0.0000

          k = 0.2652 0.0884-0.0884 (  3567 PWs)   bands (ev):

  -107.6580 -55.9866 -55.9865 -55.9865  -4.2981   0.1437   0.1870   0.2144
     0.6072   0.6473   4.4172   6.5818   6.5892   9.0499  11.0646  12.7648
    12.8561

     occupation numbers 
     1.0000   1.0000   1.0000   1.0000   1.0000   1.0000   1.0000   1.0000
     1.0000   1.0000   1.0000   1.0000   1.0000  -0.0000   0.0000   0.0000
     0.0000

          k = 0.3536 0.1768-0.1768 (  3553 PWs)   bands (ev):

  -107.6580 -55.9865 -55.9865 -55.9864  -4.0882   0.1978   0.2332   0.4327
     0.6439   0.6566   3.1014   6.1016   6.2948   9.0536  11.7667  13.0612
    13.1381

     occupation numbers 
     1.0000   1.0000   1.0000   1.0000   1.0000   1.0000   1.0000   1.0000
     1.0000   1.0000   1.0000   1.0000   1.0000   0.0000   0.0000   0.0000
     0.0000

          k =-0.2652-0.4419 0.4419 (  3559 PWs)   bands (ev):

  -107.6580 -55.9866 -55.9865 -55.9864  -3.9531   0.2260   0.2492   0.6085
     0.6554   0.9101   2.1085   5.7500   6.2435   8.9658  12.0591  12.9372
    14.1646

     occupation numbers 
     1.0000   1.0000   1.0000   1.0000   1.0000   1.0000   1.0000   1.0000
     1.0000   1.0000   1.0000   1.0000   1.0000   0.0000   0.0000   0.0000
     0.0000

          k =-0.1768-0.3536 0.3536 (  3557 PWs)   bands (ev):

  -107.6580 -55.9865 -55.9865 -55.9865  -3.9841   0.2295   0.2341   0.6173
     0.6330   0.7842   2.3691   5.6547   6.4569   8.9583  12.2232  12.7443
    13.9373

     occupation numbers 
     1.0000   1.0000   1.0000   1.0000   1.0000   1.0000   1.0000   1.0000
     1.0000   1.0000   1.0000   1.0000   1.0000   0.0000   0.0000   0.0000
     0.0000

          k =-0.0884-0.2652 0.2652 (  3560 PWs)   bands (ev):

  -107.6580 -55.9866 -55.9865 -55.9864  -4.1594   0.1907   0.2065   0.3550
     0.6121   0.6581   3.5222   5.8876   6.8467   8.9821  12.1919  12.4622
    12.8019

     occupation numbers 
     1.0000   1.0000   1.0000   1.0000   1.0000   1.0000   1.0000   1.0000
     1.0000   1.0000   1.0000   1.0000   1.0000   0.0000   0.0000   0.0000
     0.0000

          k = 0.0000-0.1768 0.1768 (  3557 PWs)   bands (ev):

  -107.6580 -55.9865 -55.9864 -55.9864  -4.3645   0.1388   0.1547   0.1788
     0.6133   0.6393   4.7675   6.5051   7.2121   8.7147  11.5487  12.0559
    12.5823

     occupation numbers 
     1.0000   1.0000   1.0000   1.0000   1.0000   1.0000   1.0000   1.0000
     1.0000   1.0000   1.0000   1.0000   1.0000  -0.0000   0.0000   0.0000
     0.0000

          k = 0.3536 0.0000 0.0000 (  3543 PWs)   bands (ev):

  -107.6580 -55.9864 -55.9864 -55.9864  -4.1908   0.1620   0.2484   0.2484
     0.6016   0.6626   4.0747   6.1354   6.1354   9.4340  10.4358  13.6722
    13.6722

     occupation numbers 
     1.0000   1.0000   1.0000   1.0000   1.0000   1.0000   1.0000   1.0000
     1.0000   1.0000   1.0000   1.0000   1.0000   0.0000   0.0000   0.0000
     0.0000

          k = 0.4419 0.0884-0.0884 (  3556 PWs)   bands (ev):

  -107.6580 -55.9866 -55.9866 -55.9864  -4.0191   0.2215   0.3067   0.3559
     0.6672   0.6724   3.2017   5.5935   5.8131   9.5847  10.6802  13.4769
    14.1617

     occupation numbers 
     1.0000   1.0000   1.0000   1.0000   1.0000   1.0000   1.0000   1.0000
     1.0000   1.0000   1.0000   1.0000   1.0000   0.0000   0.0000   0.0000
     0.0000

          k =-0.1768-0.5303 0.5303 (  3560 PWs)   bands (ev):

  -107.6580 -55.9867 -55.9865 -55.9865  -3.8831   0.2563   0.3287   0.5018
     0.6656   0.9196   2.3311   5.0092   5.7637   9.6495  11.5040  13.5256
    14.0275

     occupation numbers 
     1.0000   1.0000   1.0000   1.0000   1.0000   1.0000   1.0000   1.0000
     1.0000   1.0000   1.0000   1.0000   1.0000   0.0000   0.0000   0.0000
     0.0000

          k =-0.0884-0.4419 0.4419 (  3556 PWs)   bands (ev):

  -107.6580 -55.9867 -55.9865 -55.9864  -3.8698   0.2622   0.3085   0.5892
     0.6364   0.9965   2.1631   4.7119   6.0095   9.6819  12.0170  13.6208
    14.0561

     occupation numbers 
     1.0000   1.0000   1.0000   1.0000   1.0000   1.0000   1.0000   1.0000
     1.0000   1.0000   1.0000   1.0000   1.0000   0.0000   0.0000   0.0000
     0.0000

          k = 0.0000-0.3536 0.3536 (  3555 PWs)   bands (ev):

  -107.6580 -55.9866 -55.9865 -55.9864  -3.9871   0.2486   0.2528   0.5381
     0.6118   0.7230   2.8439   4.9547   6.4470   9.5886  12.2457  13.0008
    13.0509

     occupation numbers 
     1.0000   1.0000   1.0000   1.0000   1.0000   1.0000   1.0000   1.0000
     1.0000   1.0000   1.0000   1.0000   1.0000   0.0000   0.0000   0.0000
     0.0000

          k = 0.5303 0.0000 0.0000 (  3539 PWs)   bands (ev):

  -107.6580 -55.9864 -55.9864 -55.9864  -3.9030   0.2491   0.3793   0.3793
     0.6866   0.7610   2.7583   5.4362   5.4362   9.3856  10.1690  14.8895
    15.2851

     occupation numbers 
     1.0000   1.0000   1.0000   1.0000   1.0000   1.0000   1.0000   1.0000
     1.0000   1.0000   1.0000   1.0000   1.0000   0.0000   0.0000   0.0000
     0.0000

          k =-0.0884-0.6187 0.6187 (  3541 PWs)   bands (ev):

  -107.6580 -55.9865 -55.9864 -55.9863  -3.8091   0.2776   0.4085   0.4382
     0.6844   1.0078   2.1938   4.9816   5.3377   9.5558  10.4314  14.6699
    15.4285

     occupation numbers 
     1.0000   1.0000   1.0000   1.0000   1.0000   1.0000   1.0000   1.0000
     1.0000   1.0000   1.0000   1.0000   1.0000   0.0000   0.0000   0.0000
     0.0000

          k = 0.0000-0.5303 0.5303 (  3536 PWs)   bands (ev):

  -107.6580 -55.9865 -55.9863 -55.9863  -3.7960   0.2843   0.3813   0.5162
     0.6587   1.1779   1.9691   4.5265   5.5608   9.7095  11.4797  14.5203
    14.6748

     occupation numbers 
     1.0000   1.0000   1.0000   1.0000   1.0000   1.0000   1.0000   1.0000
     1.0000   1.0000   1.0000   1.0000   1.0000   0.0000   0.0000   0.0000
     0.0000

          k =-0.7071 0.0000 0.0000 (  3572 PWs)   bands (ev):

  -107.6580 -55.9867 -55.9866 -55.9866  -3.7771   0.2683   0.4399   0.4399
     0.6963   1.0910   2.0010   5.1713   5.1713   9.3614   9.9458  15.6728
    16.3969

     occupation numbers 
     1.0000   1.0000   1.0000   1.0000   1.0000   1.0000   1.0000   1.0000
     1.0000   1.0000   1.0000   1.0000   1.0000   0.0000   0.0000   0.0000
     0.0000

          k = 0.3536 0.1768 0.0000 (  3553 PWs)   bands (ev):

  -107.6580 -55.9865 -55.9865 -55.9864  -4.1317   0.1937   0.2419   0.3239
     0.6159   0.6645   3.6217   5.6707   6.4329   9.5254  11.1465  12.7501
    13.5192

     occupation numbers 
     1.0000   1.0000   1.0000   1.0000   1.0000   1.0000   1.0000   1.0000
     1.0000   1.0000   1.0000   1.0000   1.0000   0.0000   0.0000   0.0000
     0.0000

          k =-0.2652-0.4419 0.6187 (  3557 PWs)   bands (ev):

  -107.6580 -55.9866 -55.9865 -55.9864  -3.9567   0.2464   0.2766   0.5133
     0.6494   0.7689   2.6569   5.1472   6.0822   9.7094  11.7838  12.6552
    14.0717

     occupation numbers 
     1.0000   1.0000   1.0000   1.0000   1.0000   1.0000   1.0000   1.0000
     1.0000   1.0000   1.0000   1.0000   1.0000   0.0000   0.0000   0.0000
     0.0000

          k =-0.1768-0.3536 0.5303 (  3578 PWs)   bands (ev):

  -107.6580 -55.9868 -55.9866 -55.9866  -3.8818   0.2594   0.2923   0.5928
     0.6371   1.0203   2.0770   5.0054   5.9103   9.7193  11.8923  13.0777
    14.5577

     occupation numbers 
     1.0000   1.0000   1.0000   1.0000   1.0000   1.0000   1.0000   1.0000
     1.0000   1.0000   1.0000   1.0000   1.0000   0.0000   0.0000   0.0000
     0.0000

          k =-0.1768-0.5303 0.7071 (  3544 PWs)   bands (ev):

  -107.6580 -55.9865 -55.9864 -55.9864  -3.8844   0.2742   0.3401   0.4431
     0.6715   0.8414   2.5739   5.0838   5.4984   9.8842  10.8174  13.3179
    15.2841

     occupation numbers 
     1.0000   1.0000   1.0000   1.0000   1.0000   1.0000   1.0000   1.0000
     1.0000   1.0000   1.0000   1.0000   1.0000   0.0000   0.0000   0.0000
     0.0000

          k =-0.0884-0.4419 0.6187 (  3554 PWs)   bands (ev):

  -107.6580 -55.9866 -55.9865 -55.9864  -3.8092   0.2963   0.3546   0.5328
     0.6420   1.1239   2.0563   4.6755   5.3673  10.1359  11.6243  13.1821
    14.5879

     occupation numbers 
     1.0000   1.0000   1.0000   1.0000   1.0000   1.0000   1.0000   1.0000
     1.0000   1.0000   1.0000   1.0000   1.0000   0.0000   0.0000   0.0000
     0.0000

          k = 0.0000-0.3536 0.5303 (  3557 PWs)   bands (ev):

  -107.6580 -55.9867 -55.9865 -55.9864  -3.8401   0.2914   0.3217   0.5741
     0.6228   1.0245   2.2003   4.5915   5.6476  10.1560  12.1493  12.6096
    14.8268

     occupation numbers 
     1.0000   1.0000   1.0000   1.0000   1.0000   1.0000   1.0000   1.0000
     1.0000   1.0000   1.0000   1.0000   1.0000   0.0000   0.0000   0.0000
     0.0000

          k =-0.7071 0.1768 0.0000 (  3542 PWs)   bands (ev):

  -107.6580 -55.9865 -55.9864 -55.9864  -3.7778   0.2973   0.4001   0.4767
     0.6709   1.1779   1.9554   4.9652   5.0245   9.9008  10.6519  14.6050
    14.7098

     occupation numbers 
     1.0000   1.0000   1.0000   1.0000   1.0000   1.0000   1.0000   1.0000
     1.0000   1.0000   1.0000   1.0000   1.0000   0.0000   0.0000   0.0000
     0.0000

          k =-0.7071 0.3536 0.0000 (  3552 PWs)   bands (ev):

  -107.6580 -55.9865 -55.9865 -55.9864  -3.7785   0.3187   0.3667   0.5775
     0.5909   1.2611   1.9064   4.7754   4.8961  10.5860  12.0900  12.7716
    13.6505

     occupation numbers 
     1.0000   1.0000   1.0000   1.0000   1.0000   1.0000   1.0000   1.0000
     1.0000   1.0000   1.0000   1.0000   1.0000   0.0000   0.0000   0.0000
     0.0000

     the Fermi energy is     7.4644 ev
     (compare with:     7.4629 eV, computed in scf)

     Writing all to output data dir /home/User/opencode_workspace/DFT/calculations/hgte/conv_nscf_e60/out/pwscf.save/ :
     XML data file, pseudopotentials, collected wavefunctions

     init_run     :      0.40s CPU      0.44s WALL (       1 calls)
     electrons    :      6.19s CPU      7.07s WALL (       1 calls)

     Called by init_run:
     wfcinit      :      0.00s CPU      0.00s WALL (       1 calls)
     wfcinit:atom :      0.00s CPU      0.00s WALL (      29 calls)
     wfcinit:wfcr :      0.23s CPU      0.27s WALL (      29 calls)
     potinit      :      0.07s CPU      0.08s WALL (       1 calls)
     hinit0       :      0.23s CPU      0.24s WALL (       1 calls)

     Called by electrons:
     c_bands      :      6.17s CPU      7.05s WALL (       1 calls)
     v_of_rho     :      0.01s CPU      0.01s WALL (       1 calls)
     v_h          :      0.00s CPU      0.00s WALL (       1 calls)
     v_xc         :      0.01s CPU      0.01s WALL (       1 calls)
     newd         :      0.04s CPU      0.07s WALL (       1 calls)

     Called by c_bands:
     init_us_2    :      0.00s CPU      0.01s WALL (      29 calls)
     cegterg      :      5.91s CPU      6.75s WALL (      66 calls)

     Called by sum_band:

     Called by *egterg:
     cdiaghg      :      0.33s CPU      0.37s WALL (    1169 calls)
     cegterg:over :      0.24s CPU      0.27s WALL (    1140 calls)
     cegterg:upda :      0.07s CPU      0.08s WALL (    1140 calls)
     cegterg:last :      0.19s CPU      0.20s WALL (     739 calls)
     h_psi        :      5.07s CPU      5.84s WALL (    1235 calls)
     s_psi        :      0.06s CPU      0.07s WALL (    1235 calls)
     g_psi        :      0.04s CPU      0.04s WALL (    1140 calls)

     Called by h_psi:
     h_psi:calbec :      0.19s CPU      0.22s WALL (    1235 calls)
     vloc_psi     :      4.79s CPU      5.52s WALL (    1235 calls)
                                        0.00s GPU  (    1235 calls)
     add_vuspsi   :      0.07s CPU      0.08s WALL (    1235 calls)

     General routines
     calbec       :      0.18s CPU      0.21s WALL (    1235 calls)
     fft          :      0.10s CPU      0.10s WALL (      13 calls)
     ffts         :      0.06s CPU      0.06s WALL (       1 calls)
     fftw         :      4.53s CPU      5.22s WALL (   24888 calls)
     interpolate  :      0.06s CPU      0.06s WALL (       1 calls)
     davcio       :      0.00s CPU      0.01s WALL (      58 calls)

     Parallel routines

     PWSCF        :      6.86s CPU      7.84s WALL


   This run was terminated on:  19:15:19  22Sep2026            

=------------------------------------------------------------------------------=
   JOB DONE.
=------------------------------------------------------------------------------=
