
     Program PWSCF v.7.5 starts on 22Sep2026 at 20: 5:27 

     This program is part of the open-source Quantum ESPRESSO suite
     for quantum simulation of materials; please cite
         "P. Giannozzi et al., J. Phys.:Condens. Matter 21 395502 (2009);
         "P. Giannozzi et al., J. Phys.:Condens. Matter 29 465901 (2017);
         "P. Giannozzi et al., J. Chem. Phys. 152 154105 (2020);
          URL http://www.quantum-espresso.org", 
     in publications or presentations arising from this work. More details at
     http://www.quantum-espresso.org/quote

     Parallel version (MPI & OpenMP), running on       6 processor cores
     Number of MPI processes:                 6
     Threads/MPI process:                     1

     MPI processes distributed on     1 nodes
     1644 MiB available memory on the printing compute node when the environment starts

     Reading input from pw.in

     Current dimensions of program PWSCF are:
     Max number of different atomic species (ntypx) = 10
     Max number of k-points (npk) =  40000
     Max angular momentum in pseudopotentials (lmaxx) =  4
     file Cd.pbe-n-rrkjus_psl.1.0.0.UPF: wavefunction(s)  4D renormalized
     file Te.pbe-n-rrkjus_psl.1.0.0.UPF: wavefunction(s)  5S renormalized
     Message from routine setup:
     using ibrav=0 with symmetry is DISCOURAGED, use correct ibrav instead

     R & G space division:  proc/nbgrp/npool/nimage =       6
     Subspace diagonalization in iterative solution of the eigenvalue problem:
     a serial algorithm will be used


     Parallelization info
     --------------------
     sticks:   dense  smooth     PW     G-vecs:    dense   smooth      PW
     Min         646     431    122                26669    14503    2156
     Max         647     432    123                26672    14506    2157
     Sum        3877    2587    733               160021    87027   12939

     Using Slab Decomposition



     bravais-lattice index     =            0
     lattice parameter (alat)  =       8.8500  a.u.
     unit-cell volume          =     490.1280 (a.u.)^3
     number of atoms/cell      =            2
     number of atomic types    =            2
     number of electrons       =        18.00
     number of Kohn-Sham states=            9
     kinetic-energy cutoff     =     120.0000  Ry
     charge density cutoff     =     720.0000  Ry
     scf convergence threshold =      1.0E-10
     mixing beta               =       0.3000
     number of iterations used =            8  plain     mixing
     Exchange-correlation= PBE
                           (   1   4   3   4   0   0   0)

     celldm(1)=   8.849964  celldm(2)=   0.000000  celldm(3)=   0.000000
     celldm(4)=   0.000000  celldm(5)=   0.000000  celldm(6)=   0.000000

     crystal axes: (cart. coord. in units of alat)
               a(1) = (   0.000000   0.707107   0.707107 )  
               a(2) = (   0.707107   0.000000   0.707107 )  
               a(3) = (   0.707107   0.707107   0.000000 )  

     reciprocal axes: (cart. coord. in units 2 pi/alat)
               b(1) = ( -0.707107  0.707107  0.707107 )  
               b(2) = (  0.707107 -0.707107  0.707107 )  
               b(3) = (  0.707107  0.707107 -0.707107 )  


     PseudoPot. # 1 for Cd read from file:
     /home/User/opencode_workspace/DFT/pseudopotentials/Cd.pbe-n-rrkjus_psl.1.0.0.UPF
     MD5 check sum: a744746c89d2344a134ead0d8ab94e7a
     Pseudo is Ultrasoft + core correction, Zval = 12.0
     Generated using &quot;atomic&quot; code by A. Dal Corso  v.6.3
     Using radial grid of 1239 points,  6 beta functions with: 
                l(1) =   0
                l(2) =   0
                l(3) =   1
                l(4) =   1
                l(5) =   2
                l(6) =   2
     Q(r) pseudized with 0 coefficients 


     PseudoPot. # 2 for Te read from file:
     /home/User/opencode_workspace/DFT/pseudopotentials/Te.pbe-n-rrkjus_psl.1.0.0.UPF
     MD5 check sum: 203a1e86ef55f0cd9de2762a27c58f54
     Pseudo is Ultrasoft + core correction, Zval =  6.0
     Generated using &quot;atomic&quot; code by A. Dal Corso  v.6.3
     Using radial grid of 1245 points,  6 beta functions with: 
                l(1) =   0
                l(2) =   0
                l(3) =   1
                l(4) =   1
                l(5) =   2
                l(6) =   2
     Q(r) pseudized with 0 coefficients 


     atomic species   valence    mass     pseudopotential
     Cd               12.00   112.41400     Cd( 1.00)
     Te                6.00   127.60000     Te( 1.00)

     24 Sym. Ops. (no inversion) found


                                    s                        frac. trans.

      isym =  1     identity                                     

 cryst.   s( 1) = (     1          0          0      )
                  (     0          1          0      )
                  (     0          0          1      )

 cart.    s( 1) = (  1.0000000  0.0000000  0.0000000 )
                  (  0.0000000  1.0000000  0.0000000 )
                  (  0.0000000  0.0000000  1.0000000 )


      isym =  2     180 deg rotation - cart. axis [0,0,1]        

 cryst.   s( 2) = (     0          1         -1      )
                  (     1          0         -1      )
                  (     0          0         -1      )

 cart.    s( 2) = ( -1.0000000  0.0000000  0.0000000 )
                  (  0.0000000 -1.0000000  0.0000000 )
                  (  0.0000000  0.0000000  1.0000000 )


      isym =  3     180 deg rotation - cart. axis [0,1,0]        

 cryst.   s( 3) = (     0         -1          1      )
                  (     0         -1          0      )
                  (     1         -1          0      )

 cart.    s( 3) = ( -1.0000000  0.0000000  0.0000000 )
                  (  0.0000000  1.0000000  0.0000000 )
                  (  0.0000000  0.0000000 -1.0000000 )


      isym =  4     180 deg rotation - cart. axis [1,0,0]        

 cryst.   s( 4) = (    -1          0          0      )
                  (    -1          0          1      )
                  (    -1          1          0      )

 cart.    s( 4) = (  1.0000000  0.0000000  0.0000000 )
                  (  0.0000000 -1.0000000  0.0000000 )
                  (  0.0000000  0.0000000 -1.0000000 )


      isym =  5     120 deg rotation - cart. axis [-1,-1,-1]     

 cryst.   s( 5) = (     0          0          1      )
                  (     1          0          0      )
                  (     0          1          0      )

 cart.    s( 5) = (  0.0000000  1.0000000  0.0000000 )
                  (  0.0000000  0.0000000  1.0000000 )
                  (  1.0000000  0.0000000  0.0000000 )


      isym =  6     120 deg rotation - cart. axis [-1,1,1]       

 cryst.   s( 6) = (     1         -1          0      )
                  (     0         -1          1      )
                  (     0         -1          0      )

 cart.    s( 6) = (  0.0000000 -1.0000000  0.0000000 )
                  (  0.0000000  0.0000000  1.0000000 )
                  ( -1.0000000  0.0000000  0.0000000 )


      isym =  7     120 deg rotation - cart. axis [1,1,-1]       

 cryst.   s( 7) = (    -1          1          0      )
                  (    -1          0          0      )
                  (    -1          0          1      )

 cart.    s( 7) = (  0.0000000  1.0000000  0.0000000 )
                  (  0.0000000  0.0000000 -1.0000000 )
                  ( -1.0000000  0.0000000  0.0000000 )


      isym =  8     120 deg rotation - cart. axis [1,-1,1]       

 cryst.   s( 8) = (     0          0         -1      )
                  (     0          1         -1      )
                  (     1          0         -1      )

 cart.    s( 8) = (  0.0000000 -1.0000000  0.0000000 )
                  (  0.0000000  0.0000000 -1.0000000 )
                  (  1.0000000  0.0000000  0.0000000 )


      isym =  9     120 deg rotation - cart. axis [1,1,1]        

 cryst.   s( 9) = (     0          1          0      )
                  (     0          0          1      )
                  (     1          0          0      )

 cart.    s( 9) = (  0.0000000  0.0000000  1.0000000 )
                  (  1.0000000  0.0000000  0.0000000 )
                  (  0.0000000  1.0000000  0.0000000 )


      isym = 10     120 deg rotation - cart. axis [-1,1,-1]      

 cryst.   s(10) = (    -1          0          1      )
                  (    -1          1          0      )
                  (    -1          0          0      )

 cart.    s(10) = (  0.0000000  0.0000000  1.0000000 )
                  ( -1.0000000  0.0000000  0.0000000 )
                  (  0.0000000 -1.0000000  0.0000000 )


      isym = 11     120 deg rotation - cart. axis [1,-1,-1]      

 cryst.   s(11) = (     1          0         -1      )
                  (     0          0         -1      )
                  (     0          1         -1      )

 cart.    s(11) = (  0.0000000  0.0000000 -1.0000000 )
                  ( -1.0000000  0.0000000  0.0000000 )
                  (  0.0000000  1.0000000  0.0000000 )


      isym = 12     120 deg rotation - cart. axis [-1,-1,1]      

 cryst.   s(12) = (     0         -1          0      )
                  (     1         -1          0      )
                  (     0         -1          1      )

 cart.    s(12) = (  0.0000000  0.0000000 -1.0000000 )
                  (  1.0000000  0.0000000  0.0000000 )
                  (  0.0000000 -1.0000000  0.0000000 )


      isym = 13     inv. 180 deg rotation - cart. axis [1,1,0]   

 cryst.   s(13) = (     1          0         -1      )
                  (     0          1         -1      )
                  (     0          0         -1      )

 cart.    s(13) = (  0.0000000 -1.0000000  0.0000000 )
                  ( -1.0000000  0.0000000  0.0000000 )
                  (  0.0000000  0.0000000  1.0000000 )


      isym = 14     inv. 180 deg rotation - cart. axis [1,-1,0]  

 cryst.   s(14) = (     0          1          0      )
                  (     1          0          0      )
                  (     0          0          1      )

 cart.    s(14) = (  0.0000000  1.0000000  0.0000000 )
                  (  1.0000000  0.0000000  0.0000000 )
                  (  0.0000000  0.0000000  1.0000000 )


      isym = 15     inv.  90 deg rotation - cart. axis [0,0,-1]  

 cryst.   s(15) = (     0         -1          0      )
                  (     0         -1          1      )
                  (     1         -1          0      )

 cart.    s(15) = (  0.0000000 -1.0000000  0.0000000 )
                  (  1.0000000  0.0000000  0.0000000 )
                  (  0.0000000  0.0000000 -1.0000000 )


      isym = 16     inv.  90 deg rotation - cart. axis [0,0,1]   

 cryst.   s(16) = (    -1          0          1      )
                  (    -1          0          0      )
                  (    -1          1          0      )

 cart.    s(16) = (  0.0000000  1.0000000  0.0000000 )
                  ( -1.0000000  0.0000000  0.0000000 )
                  (  0.0000000  0.0000000 -1.0000000 )


      isym = 17     inv. 180 deg rotation - cart. axis [1,0,1]   

 cryst.   s(17) = (     1         -1          0      )
                  (     0         -1          0      )
                  (     0         -1          1      )

 cart.    s(17) = (  0.0000000  0.0000000 -1.0000000 )
                  (  0.0000000  1.0000000  0.0000000 )
                  ( -1.0000000  0.0000000  0.0000000 )


      isym = 18     inv. 180 deg rotation - cart. axis [-1,0,1]  

 cryst.   s(18) = (     0          0          1      )
                  (     0          1          0      )
                  (     1          0          0      )

 cart.    s(18) = (  0.0000000  0.0000000  1.0000000 )
                  (  0.0000000  1.0000000  0.0000000 )
                  (  1.0000000  0.0000000  0.0000000 )


      isym = 19     inv.  90 deg rotation - cart. axis [0,1,0]   

 cryst.   s(19) = (     0          0         -1      )
                  (     1          0         -1      )
                  (     0          1         -1      )

 cart.    s(19) = (  0.0000000  0.0000000 -1.0000000 )
                  (  0.0000000 -1.0000000  0.0000000 )
                  (  1.0000000  0.0000000  0.0000000 )


      isym = 20     inv.  90 deg rotation - cart. axis [0,-1,0]  

 cryst.   s(20) = (    -1          1          0      )
                  (    -1          0          1      )
                  (    -1          0          0      )

 cart.    s(20) = (  0.0000000  0.0000000  1.0000000 )
                  (  0.0000000 -1.0000000  0.0000000 )
                  ( -1.0000000  0.0000000  0.0000000 )


      isym = 21     inv. 180 deg rotation - cart. axis [0,1,1]   

 cryst.   s(21) = (    -1          0          0      )
                  (    -1          1          0      )
                  (    -1          0          1      )

 cart.    s(21) = (  1.0000000  0.0000000  0.0000000 )
                  (  0.0000000  0.0000000 -1.0000000 )
                  (  0.0000000 -1.0000000  0.0000000 )


      isym = 22     inv. 180 deg rotation - cart. axis [0,1,-1]  

 cryst.   s(22) = (     1          0          0      )
                  (     0          0          1      )
                  (     0          1          0      )

 cart.    s(22) = (  1.0000000  0.0000000  0.0000000 )
                  (  0.0000000  0.0000000  1.0000000 )
                  (  0.0000000  1.0000000  0.0000000 )


      isym = 23     inv.  90 deg rotation - cart. axis [-1,0,0]  

 cryst.   s(23) = (     0          1         -1      )
                  (     0          0         -1      )
                  (     1          0         -1      )

 cart.    s(23) = ( -1.0000000  0.0000000  0.0000000 )
                  (  0.0000000  0.0000000 -1.0000000 )
                  (  0.0000000  1.0000000  0.0000000 )


      isym = 24     inv.  90 deg rotation - cart. axis [1,0,0]   

 cryst.   s(24) = (     0         -1          1      )
                  (     1         -1          0      )
                  (     0         -1          0      )

 cart.    s(24) = ( -1.0000000  0.0000000  0.0000000 )
                  (  0.0000000  0.0000000  1.0000000 )
                  (  0.0000000 -1.0000000  0.0000000 )


   Cartesian axes

     site n.     atom                  positions (alat units)
         1        Cd     tau(   1) = (   0.0000000   0.0000000   0.0000000  )
         2        Te     tau(   2) = (   0.3535534   0.3535534   0.3535534  )

   Crystallographic axes

     site n.     atom                  positions (cryst. coord.)
         1        Cd     tau(   1) = (  0.0000000  0.0000000  0.0000000  )
         2        Te     tau(   2) = (  0.2500000  0.2500000  0.2500000  )

     number of k points=    47
                       cart. coord. in units 2pi/alat
        k(    1) = (   0.0000000   0.0000000   0.0000000), wk =   0.0020000
        k(    2) = (   0.0707107   0.0707107  -0.0707107), wk =   0.0160000
        k(    3) = (   0.1414214   0.1414214  -0.1414214), wk =   0.0160000
        k(    4) = (   0.2121320   0.2121320  -0.2121320), wk =   0.0160000
        k(    5) = (   0.2828427   0.2828427  -0.2828427), wk =   0.0160000
        k(    6) = (  -0.3535534  -0.3535534   0.3535534), wk =   0.0080000
        k(    7) = (   0.1414214   0.0000000   0.0000000), wk =   0.0120000
        k(    8) = (   0.2121320   0.0707107  -0.0707107), wk =   0.0480000
        k(    9) = (   0.2828427   0.1414214  -0.1414214), wk =   0.0480000
        k(   10) = (   0.3535534   0.2121320  -0.2121320), wk =   0.0480000
        k(   11) = (  -0.2828427  -0.4242641   0.4242641), wk =   0.0480000
        k(   12) = (  -0.2121320  -0.3535534   0.3535534), wk =   0.0480000
        k(   13) = (  -0.1414214  -0.2828427   0.2828427), wk =   0.0480000
        k(   14) = (  -0.0707107  -0.2121320   0.2121320), wk =   0.0480000
        k(   15) = (   0.0000000  -0.1414214   0.1414214), wk =   0.0240000
        k(   16) = (   0.2828427   0.0000000   0.0000000), wk =   0.0120000
        k(   17) = (   0.3535534   0.0707107  -0.0707107), wk =   0.0480000
        k(   18) = (   0.4242641   0.1414214  -0.1414214), wk =   0.0480000
        k(   19) = (  -0.2121320  -0.4949747   0.4949747), wk =   0.0480000
        k(   20) = (  -0.1414214  -0.4242641   0.4242641), wk =   0.0480000
        k(   21) = (  -0.0707107  -0.3535534   0.3535534), wk =   0.0480000
        k(   22) = (   0.0000000  -0.2828427   0.2828427), wk =   0.0240000
        k(   23) = (   0.4242641   0.0000000   0.0000000), wk =   0.0120000
        k(   24) = (   0.4949747   0.0707107  -0.0707107), wk =   0.0480000
        k(   25) = (  -0.1414214  -0.5656854   0.5656854), wk =   0.0480000
        k(   26) = (  -0.0707107  -0.4949747   0.4949747), wk =   0.0480000
        k(   27) = (  -0.0000000  -0.4242641   0.4242641), wk =   0.0240000
        k(   28) = (   0.5656854   0.0000000   0.0000000), wk =   0.0120000
        k(   29) = (  -0.0707107  -0.6363961   0.6363961), wk =   0.0480000
        k(   30) = (   0.0000000  -0.5656854   0.5656854), wk =   0.0240000
        k(   31) = (  -0.7071068   0.0000000   0.0000000), wk =   0.0060000
        k(   32) = (   0.2828427   0.1414214   0.0000000), wk =   0.0480000
        k(   33) = (   0.3535534   0.2121320  -0.0707107), wk =   0.0960000
        k(   34) = (  -0.2828427  -0.4242641   0.5656854), wk =   0.0960000
        k(   35) = (  -0.2121320  -0.3535534   0.4949747), wk =   0.0480000
        k(   36) = (   0.4242641   0.1414214  -0.0000000), wk =   0.0480000
        k(   37) = (  -0.2121320  -0.4949747   0.6363961), wk =   0.0960000
        k(   38) = (  -0.1414214  -0.4242641   0.5656854), wk =   0.0960000
        k(   39) = (  -0.0707107  -0.3535534   0.4949747), wk =   0.0960000
        k(   40) = (   0.0000000  -0.2828427   0.4242641), wk =   0.0480000
        k(   41) = (  -0.1414214  -0.5656854   0.7071068), wk =   0.0480000
        k(   42) = (  -0.0707107  -0.4949747   0.6363961), wk =   0.0960000
        k(   43) = (  -0.0000000  -0.4242641   0.5656854), wk =   0.0480000
        k(   44) = (  -0.7071068   0.1414214   0.0000000), wk =   0.0240000
        k(   45) = (  -0.1414214  -0.4242641   0.7071068), wk =   0.0480000
        k(   46) = (  -0.0707107  -0.3535534   0.6363961), wk =   0.0480000
        k(   47) = (  -0.7071068   0.2828427   0.0000000), wk =   0.0240000

                       cryst. coord.
        k(    1) = (   0.0000000   0.0000000   0.0000000), wk =   0.0020000
        k(    2) = (   0.0000000   0.0000000   0.1000000), wk =   0.0160000
        k(    3) = (   0.0000000   0.0000000   0.2000000), wk =   0.0160000
        k(    4) = (   0.0000000   0.0000000   0.3000000), wk =   0.0160000
        k(    5) = (   0.0000000   0.0000000   0.4000000), wk =   0.0160000
        k(    6) = (   0.0000000   0.0000000  -0.5000000), wk =   0.0080000
        k(    7) = (   0.0000000   0.1000000   0.1000000), wk =   0.0120000
        k(    8) = (   0.0000000   0.1000000   0.2000000), wk =   0.0480000
        k(    9) = (   0.0000000   0.1000000   0.3000000), wk =   0.0480000
        k(   10) = (   0.0000000   0.1000000   0.4000000), wk =   0.0480000
        k(   11) = (   0.0000000   0.1000000  -0.5000000), wk =   0.0480000
        k(   12) = (   0.0000000   0.1000000  -0.4000000), wk =   0.0480000
        k(   13) = (   0.0000000   0.1000000  -0.3000000), wk =   0.0480000
        k(   14) = (   0.0000000   0.1000000  -0.2000000), wk =   0.0480000
        k(   15) = (   0.0000000   0.1000000  -0.1000000), wk =   0.0240000
        k(   16) = (   0.0000000   0.2000000   0.2000000), wk =   0.0120000
        k(   17) = (   0.0000000   0.2000000   0.3000000), wk =   0.0480000
        k(   18) = (   0.0000000   0.2000000   0.4000000), wk =   0.0480000
        k(   19) = (   0.0000000   0.2000000  -0.5000000), wk =   0.0480000
        k(   20) = (   0.0000000   0.2000000  -0.4000000), wk =   0.0480000
        k(   21) = (   0.0000000   0.2000000  -0.3000000), wk =   0.0480000
        k(   22) = (   0.0000000   0.2000000  -0.2000000), wk =   0.0240000
        k(   23) = (   0.0000000   0.3000000   0.3000000), wk =   0.0120000
        k(   24) = (   0.0000000   0.3000000   0.4000000), wk =   0.0480000
        k(   25) = (   0.0000000   0.3000000  -0.5000000), wk =   0.0480000
        k(   26) = (   0.0000000   0.3000000  -0.4000000), wk =   0.0480000
        k(   27) = (   0.0000000   0.3000000  -0.3000000), wk =   0.0240000
        k(   28) = (   0.0000000   0.4000000   0.4000000), wk =   0.0120000
        k(   29) = (   0.0000000   0.4000000  -0.5000000), wk =   0.0480000
        k(   30) = (   0.0000000   0.4000000  -0.4000000), wk =   0.0240000
        k(   31) = (   0.0000000  -0.5000000  -0.5000000), wk =   0.0060000
        k(   32) = (   0.1000000   0.2000000   0.3000000), wk =   0.0480000
        k(   33) = (   0.1000000   0.2000000   0.4000000), wk =   0.0960000
        k(   34) = (   0.1000000   0.2000000  -0.5000000), wk =   0.0960000
        k(   35) = (   0.1000000   0.2000000  -0.4000000), wk =   0.0480000
        k(   36) = (   0.1000000   0.3000000   0.4000000), wk =   0.0480000
        k(   37) = (   0.1000000   0.3000000  -0.5000000), wk =   0.0960000
        k(   38) = (   0.1000000   0.3000000  -0.4000000), wk =   0.0960000
        k(   39) = (   0.1000000   0.3000000  -0.3000000), wk =   0.0960000
        k(   40) = (   0.1000000   0.3000000  -0.2000000), wk =   0.0480000
        k(   41) = (   0.1000000   0.4000000  -0.5000000), wk =   0.0480000
        k(   42) = (   0.1000000   0.4000000  -0.4000000), wk =   0.0960000
        k(   43) = (   0.1000000   0.4000000  -0.3000000), wk =   0.0480000
        k(   44) = (   0.1000000  -0.5000000  -0.4000000), wk =   0.0240000
        k(   45) = (   0.2000000   0.4000000  -0.4000000), wk =   0.0480000
        k(   46) = (   0.2000000   0.4000000  -0.3000000), wk =   0.0480000
        k(   47) = (   0.2000000  -0.5000000  -0.3000000), wk =   0.0240000

     Dense  grid:   160021 G-vectors     FFT dimensions: (  75,  75,  75)

     Smooth grid:    87027 G-vectors     FFT dimensions: (  64,  64,  64)

     Dynamical RAM for                 wfc:       0.25 MB

     Dynamical RAM for     wfc (w. buffer):      11.95 MB

     Dynamical RAM for           str. fact:       0.81 MB

     Dynamical RAM for           local pot:       0.00 MB

     Dynamical RAM for          nlocal pot:       1.00 MB

     Dynamical RAM for                qrad:       4.31 MB

     Dynamical RAM for          rho,v,vnew:       2.89 MB

     Dynamical RAM for               rhoin:       0.96 MB

     Dynamical RAM for            rho*nmix:       6.51 MB

     Dynamical RAM for           G-vectors:       1.64 MB

     Dynamical RAM for          h,s,v(r/c):       0.01 MB

     Dynamical RAM for          <psi|beta>:       0.00 MB

     Dynamical RAM for                 psi:       0.50 MB

     Dynamical RAM for                hpsi:       0.50 MB

     Dynamical RAM for                spsi:       0.50 MB

     Dynamical RAM for      wfcinit/wfcrot:       0.50 MB

     Dynamical RAM for           addusdens:      76.11 MB

     Estimated static dynamical RAM per process >      27.57 MB

     Estimated max dynamical RAM per process >     110.19 MB

     Estimated total dynamical RAM >     661.14 MB

     Initial potential from superposition of free atoms

     starting charge      17.9949, renormalised to      18.0000
     Starting wfcs are   13 randomized atomic wfcs

     total cpu time spent up to now is        1.7 secs

     per-process dynamical memory:    40.3 Mb

     Self-consistent Calculation

     iteration #  1     ecut=   120.00 Ry     beta= 0.30
     Davidson diagonalization with overlap

---- Real-time Memory Report at c_bands before calling an iterative solver
           142 MiB given to the printing process from OS
            39 MiB allocation reported by mallinfo(arena+hblkhd)
          1304 MiB available memory on the node where the printing process lives
------------------
     ethr =  1.00E-02,  avg # of iterations =  1.0

     Threshold (ethr) on eigenvalues was too large:
     Diagonalizing with lowered threshold

     Davidson diagonalization with overlap

---- Real-time Memory Report at c_bands before calling an iterative solver
           155 MiB given to the printing process from OS
            44 MiB allocation reported by mallinfo(arena+hblkhd)
          1222 MiB available memory on the node where the printing process lives
------------------
     ethr =  2.09E-04,  avg # of iterations =  5.0

     total cpu time spent up to now is        5.1 secs

     total energy              =    -128.97775872 Ry
     estimated scf accuracy    <       0.04180122 Ry

     iteration #  2     ecut=   120.00 Ry     beta= 0.30
     Davidson diagonalization with overlap

---- Real-time Memory Report at c_bands before calling an iterative solver
           160 MiB given to the printing process from OS
            50 MiB allocation reported by mallinfo(arena+hblkhd)
          1243 MiB available memory on the node where the printing process lives
------------------
     ethr =  2.32E-04,  avg # of iterations =  1.7

     total cpu time spent up to now is        6.7 secs

     total energy              =    -128.97589826 Ry
     estimated scf accuracy    <       0.01257807 Ry

     iteration #  3     ecut=   120.00 Ry     beta= 0.30
     Davidson diagonalization with overlap

---- Real-time Memory Report at c_bands before calling an iterative solver
           161 MiB given to the printing process from OS
            50 MiB allocation reported by mallinfo(arena+hblkhd)
          1222 MiB available memory on the node where the printing process lives
------------------
     ethr =  6.99E-05,  avg # of iterations =  2.3

     total cpu time spent up to now is        8.6 secs

     total energy              =    -128.97944316 Ry
     estimated scf accuracy    <       0.00140268 Ry

     iteration #  4     ecut=   120.00 Ry     beta= 0.30
     Davidson diagonalization with overlap

---- Real-time Memory Report at c_bands before calling an iterative solver
           161 MiB given to the printing process from OS
            51 MiB allocation reported by mallinfo(arena+hblkhd)
          1243 MiB available memory on the node where the printing process lives
------------------
     ethr =  7.79E-06,  avg # of iterations =  5.5

     total cpu time spent up to now is       10.8 secs

     total energy              =    -128.98021665 Ry
     estimated scf accuracy    <       0.00024244 Ry

     iteration #  5     ecut=   120.00 Ry     beta= 0.30
     Davidson diagonalization with overlap

---- Real-time Memory Report at c_bands before calling an iterative solver
           162 MiB given to the printing process from OS
            51 MiB allocation reported by mallinfo(arena+hblkhd)
          1212 MiB available memory on the node where the printing process lives
------------------
     ethr =  1.35E-06,  avg # of iterations =  4.3

     total cpu time spent up to now is       12.7 secs

     total energy              =    -128.98029031 Ry
     estimated scf accuracy    <       0.00007933 Ry

     iteration #  6     ecut=   120.00 Ry     beta= 0.30
     Davidson diagonalization with overlap

---- Real-time Memory Report at c_bands before calling an iterative solver
           162 MiB given to the printing process from OS
            52 MiB allocation reported by mallinfo(arena+hblkhd)
          1213 MiB available memory on the node where the printing process lives
------------------
     ethr =  4.41E-07,  avg # of iterations =  5.7

     total cpu time spent up to now is       14.8 secs

     total energy              =    -128.98032823 Ry
     estimated scf accuracy    <       0.00006607 Ry

     iteration #  7     ecut=   120.00 Ry     beta= 0.30
     Davidson diagonalization with overlap

---- Real-time Memory Report at c_bands before calling an iterative solver
           162 MiB given to the printing process from OS
            52 MiB allocation reported by mallinfo(arena+hblkhd)
          1212 MiB available memory on the node where the printing process lives
------------------
     ethr =  3.67E-07,  avg # of iterations =  1.1

     total cpu time spent up to now is       16.3 secs

     total energy              =    -128.98030293 Ry
     estimated scf accuracy    <       0.00004713 Ry

     iteration #  8     ecut=   120.00 Ry     beta= 0.30
     Davidson diagonalization with overlap

---- Real-time Memory Report at c_bands before calling an iterative solver
           163 MiB given to the printing process from OS
            52 MiB allocation reported by mallinfo(arena+hblkhd)
          1212 MiB available memory on the node where the printing process lives
------------------
     ethr =  2.62E-07,  avg # of iterations =  2.0

     total cpu time spent up to now is       17.9 secs

     total energy              =    -128.98031092 Ry
     estimated scf accuracy    <       0.00000486 Ry

     iteration #  9     ecut=   120.00 Ry     beta= 0.30
     Davidson diagonalization with overlap

---- Real-time Memory Report at c_bands before calling an iterative solver
           163 MiB given to the printing process from OS
            53 MiB allocation reported by mallinfo(arena+hblkhd)
          1217 MiB available memory on the node where the printing process lives
------------------
     c_bands:  1 eigenvalues not converged
     ethr =  2.70E-08,  avg # of iterations = 11.6

     total cpu time spent up to now is       21.7 secs

     total energy              =    -128.98031381 Ry
     estimated scf accuracy    <       0.00006698 Ry

     iteration # 10     ecut=   120.00 Ry     beta= 0.30
     Davidson diagonalization with overlap

---- Real-time Memory Report at c_bands before calling an iterative solver
           164 MiB given to the printing process from OS
            53 MiB allocation reported by mallinfo(arena+hblkhd)
          1223 MiB available memory on the node where the printing process lives
------------------
     ethr =  2.70E-08,  avg # of iterations =  6.1

     total cpu time spent up to now is       24.1 secs

     total energy              =    -128.98032093 Ry
     estimated scf accuracy    <       0.00001520 Ry

     iteration # 11     ecut=   120.00 Ry     beta= 0.30
     Davidson diagonalization with overlap

---- Real-time Memory Report at c_bands before calling an iterative solver
           164 MiB given to the printing process from OS
            53 MiB allocation reported by mallinfo(arena+hblkhd)
          1218 MiB available memory on the node where the printing process lives
------------------
     ethr =  2.70E-08,  avg # of iterations =  1.3

     total cpu time spent up to now is       25.6 secs

     total energy              =    -128.98030924 Ry
     estimated scf accuracy    <       0.00001711 Ry

     iteration # 12     ecut=   120.00 Ry     beta= 0.30
     Davidson diagonalization with overlap

---- Real-time Memory Report at c_bands before calling an iterative solver
           164 MiB given to the printing process from OS
            53 MiB allocation reported by mallinfo(arena+hblkhd)
          1220 MiB available memory on the node where the printing process lives
------------------
     ethr =  2.70E-08,  avg # of iterations =  6.9

     total cpu time spent up to now is       28.2 secs

     total energy              =    -128.98031421 Ry
     estimated scf accuracy    <       0.00000399 Ry

     iteration # 13     ecut=   120.00 Ry     beta= 0.30
     Davidson diagonalization with overlap

---- Real-time Memory Report at c_bands before calling an iterative solver
           164 MiB given to the printing process from OS
            53 MiB allocation reported by mallinfo(arena+hblkhd)
          1287 MiB available memory on the node where the printing process lives
------------------
     ethr =  2.22E-08,  avg # of iterations =  1.3

     total cpu time spent up to now is       29.6 secs

     total energy              =    -128.98031432 Ry
     estimated scf accuracy    <       0.00000059 Ry

     iteration # 14     ecut=   120.00 Ry     beta= 0.30
     Davidson diagonalization with overlap

---- Real-time Memory Report at c_bands before calling an iterative solver
           164 MiB given to the printing process from OS
            53 MiB allocation reported by mallinfo(arena+hblkhd)
          1215 MiB available memory on the node where the printing process lives
------------------
     ethr =  3.26E-09,  avg # of iterations =  5.8

     total cpu time spent up to now is       32.0 secs

     total energy              =    -128.98031466 Ry
     estimated scf accuracy    <       0.00000007 Ry

     iteration # 15     ecut=   120.00 Ry     beta= 0.30
     Davidson diagonalization with overlap

---- Real-time Memory Report at c_bands before calling an iterative solver
           164 MiB given to the printing process from OS
            53 MiB allocation reported by mallinfo(arena+hblkhd)
          1209 MiB available memory on the node where the printing process lives
------------------
     ethr =  3.72E-10,  avg # of iterations =  4.2

     total cpu time spent up to now is       35.0 secs

     total energy              =    -128.98031467 Ry
     estimated scf accuracy    <       0.00000004 Ry

     iteration # 16     ecut=   120.00 Ry     beta= 0.30
     Davidson diagonalization with overlap

---- Real-time Memory Report at c_bands before calling an iterative solver
           164 MiB given to the printing process from OS
            53 MiB allocation reported by mallinfo(arena+hblkhd)
          1206 MiB available memory on the node where the printing process lives
------------------
     ethr =  2.04E-10,  avg # of iterations =  5.3

     total cpu time spent up to now is       37.8 secs

     total energy              =    -128.98031466 Ry
     estimated scf accuracy    <       0.00000011 Ry

     iteration # 17     ecut=   120.00 Ry     beta= 0.30
     Davidson diagonalization with overlap

---- Real-time Memory Report at c_bands before calling an iterative solver
           164 MiB given to the printing process from OS
            53 MiB allocation reported by mallinfo(arena+hblkhd)
          1205 MiB available memory on the node where the printing process lives
------------------
     ethr =  2.04E-10,  avg # of iterations =  3.1

     total cpu time spent up to now is       39.9 secs

     total energy              =    -128.98031468 Ry
     estimated scf accuracy    <          3.4E-09 Ry

     iteration # 18     ecut=   120.00 Ry     beta= 0.30
     Davidson diagonalization with overlap

---- Real-time Memory Report at c_bands before calling an iterative solver
           164 MiB given to the printing process from OS
            53 MiB allocation reported by mallinfo(arena+hblkhd)
          1206 MiB available memory on the node where the printing process lives
------------------
     ethr =  1.88E-11,  avg # of iterations =  6.9

     total cpu time spent up to now is       42.6 secs

     total energy              =    -128.98031468 Ry
     estimated scf accuracy    <       0.00000002 Ry

     iteration # 19     ecut=   120.00 Ry     beta= 0.30
     Davidson diagonalization with overlap

---- Real-time Memory Report at c_bands before calling an iterative solver
           164 MiB given to the printing process from OS
            53 MiB allocation reported by mallinfo(arena+hblkhd)
          1222 MiB available memory on the node where the printing process lives
------------------
     ethr =  1.88E-11,  avg # of iterations =  4.9

     total cpu time spent up to now is       44.7 secs

     total energy              =    -128.98031468 Ry
     estimated scf accuracy    <       0.00000001 Ry

     iteration # 20     ecut=   120.00 Ry     beta= 0.30
     Davidson diagonalization with overlap

---- Real-time Memory Report at c_bands before calling an iterative solver
           164 MiB given to the printing process from OS
            53 MiB allocation reported by mallinfo(arena+hblkhd)
          1215 MiB available memory on the node where the printing process lives
------------------
     ethr =  1.88E-11,  avg # of iterations =  3.7

     total cpu time spent up to now is       46.8 secs

     total energy              =    -128.98031468 Ry
     estimated scf accuracy    <          1.8E-09 Ry

     iteration # 21     ecut=   120.00 Ry     beta= 0.30
     Davidson diagonalization with overlap

---- Real-time Memory Report at c_bands before calling an iterative solver
           164 MiB given to the printing process from OS
            53 MiB allocation reported by mallinfo(arena+hblkhd)
          1215 MiB available memory on the node where the printing process lives
------------------
     ethr =  1.02E-11,  avg # of iterations =  4.1

     total cpu time spent up to now is       48.8 secs

     total energy              =    -128.98031468 Ry
     estimated scf accuracy    <          2.3E-09 Ry

     iteration # 22     ecut=   120.00 Ry     beta= 0.30
     Davidson diagonalization with overlap

---- Real-time Memory Report at c_bands before calling an iterative solver
           164 MiB given to the printing process from OS
            53 MiB allocation reported by mallinfo(arena+hblkhd)
          1215 MiB available memory on the node where the printing process lives
------------------
     ethr =  1.02E-11,  avg # of iterations =  1.4

     total cpu time spent up to now is       50.3 secs

     total energy              =    -128.98031468 Ry
     estimated scf accuracy    <          2.7E-09 Ry

     iteration # 23     ecut=   120.00 Ry     beta= 0.30
     Davidson diagonalization with overlap

---- Real-time Memory Report at c_bands before calling an iterative solver
           164 MiB given to the printing process from OS
            53 MiB allocation reported by mallinfo(arena+hblkhd)
          1214 MiB available memory on the node where the printing process lives
------------------
     ethr =  1.02E-11,  avg # of iterations =  1.0

     total cpu time spent up to now is       51.8 secs

     total energy              =    -128.98031468 Ry
     estimated scf accuracy    <          2.8E-09 Ry

     iteration # 24     ecut=   120.00 Ry     beta= 0.30
     Davidson diagonalization with overlap

---- Real-time Memory Report at c_bands before calling an iterative solver
           164 MiB given to the printing process from OS
            53 MiB allocation reported by mallinfo(arena+hblkhd)
          1213 MiB available memory on the node where the printing process lives
------------------
     ethr =  1.02E-11,  avg # of iterations =  5.6

     total cpu time spent up to now is       53.9 secs

     total energy              =    -128.98031468 Ry
     estimated scf accuracy    <          4.1E-09 Ry

     iteration # 25     ecut=   120.00 Ry     beta= 0.30
     Davidson diagonalization with overlap

---- Real-time Memory Report at c_bands before calling an iterative solver
           164 MiB given to the printing process from OS
            53 MiB allocation reported by mallinfo(arena+hblkhd)
          1215 MiB available memory on the node where the printing process lives
------------------
     ethr =  1.02E-11,  avg # of iterations =  2.0

     total cpu time spent up to now is       55.6 secs

     total energy              =    -128.98031468 Ry
     estimated scf accuracy    <          1.1E-09 Ry

     iteration # 26     ecut=   120.00 Ry     beta= 0.30
     Davidson diagonalization with overlap

---- Real-time Memory Report at c_bands before calling an iterative solver
           164 MiB given to the printing process from OS
            53 MiB allocation reported by mallinfo(arena+hblkhd)
          1214 MiB available memory on the node where the printing process lives
------------------
     ethr =  6.02E-12,  avg # of iterations =  4.1

     total cpu time spent up to now is       57.4 secs

     total energy              =    -128.98031468 Ry
     estimated scf accuracy    <          3.2E-10 Ry

     iteration # 27     ecut=   120.00 Ry     beta= 0.30
     Davidson diagonalization with overlap

---- Real-time Memory Report at c_bands before calling an iterative solver
           164 MiB given to the printing process from OS
            53 MiB allocation reported by mallinfo(arena+hblkhd)
          1220 MiB available memory on the node where the printing process lives
------------------
     ethr =  1.80E-12,  avg # of iterations =  3.6

     total cpu time spent up to now is       59.5 secs

     End of self-consistent calculation

          k = 0.0000 0.0000 0.0000 ( 10969 PWs)   bands (ev):

    -6.4422  -3.6863  -3.6863  -3.6863  -3.4705  -3.4705   4.3867   4.3867
     4.3867

     occupation numbers 
     1.0000   1.0000   1.0000   1.0000   1.0000   1.0000   1.0000   1.0000
     1.0000

          k = 0.0707 0.0707-0.0707 ( 10918 PWs)   bands (ev):

    -6.4096  -3.6803  -3.6803  -3.6595  -3.4709  -3.4709   3.4880   4.3074
     4.3074

     occupation numbers 
     1.0000   1.0000   1.0000   1.0000   1.0000   1.0000   1.0000   1.0000
     1.0000

          k = 0.1414 0.1414-0.1414 ( 10885 PWs)   bands (ev):

    -6.3240  -3.6653  -3.6653  -3.5740  -3.4710  -3.4710   2.3553   4.1174
     4.1174

     occupation numbers 
     1.0000   1.0000   1.0000   1.0000   1.0000   1.0000   1.0000   1.0000
     1.0000

          k = 0.2121 0.2121-0.2121 ( 10861 PWs)   bands (ev):

    -6.2185  -3.6488  -3.6488  -3.4687  -3.4687  -3.4267   1.3393   3.9093
     3.9093

     occupation numbers 
     1.0000   1.0000   1.0000   1.0000   1.0000   1.0000   1.0000   1.0000
     1.0000

          k = 0.2828 0.2828-0.2828 ( 10858 PWs)   bands (ev):

    -6.1344  -3.6375  -3.6375  -3.4645  -3.4645  -3.2544   0.5964   3.7569
     3.7569

     occupation numbers 
     1.0000   1.0000   1.0000   1.0000   1.0000   1.0000   1.0000   1.0000
     1.0000

          k =-0.3536-0.3536 0.3536 ( 10880 PWs)   bands (ev):

    -6.1027  -3.6338  -3.6338  -3.4622  -3.4622  -3.1690   0.3126   3.7018
     3.7018

     occupation numbers 
     1.0000   1.0000   1.0000   1.0000   1.0000   1.0000   1.0000   1.0000
     1.0000

          k = 0.1414 0.0000 0.0000 ( 10906 PWs)   bands (ev):

    -6.3988  -3.6745  -3.6745  -3.6581  -3.4740  -3.4679   3.4344   4.1679
     4.1679

     occupation numbers 
     1.0000   1.0000   1.0000   1.0000   1.0000   1.0000   1.0000   1.0000
     1.0000

          k = 0.2121 0.0707-0.0707 ( 10898 PWs)   bands (ev):

    -6.3309  -3.6635  -3.6593  -3.5957  -3.4754  -3.4656   2.5890   3.9425
     3.9923

     occupation numbers 
     1.0000   1.0000   1.0000   1.0000   1.0000   1.0000   1.0000   1.0000
     1.0000

          k = 0.2828 0.1414-0.1414 ( 10883 PWs)   bands (ev):

    -6.2323  -3.6492  -3.6419  -3.4965  -3.4631  -3.4453   1.6205   3.7311
     3.7496

     occupation numbers 
     1.0000   1.0000   1.0000   1.0000   1.0000   1.0000   1.0000   1.0000
     1.0000

          k = 0.3536 0.2121-0.2121 ( 10888 PWs)   bands (ev):

    -6.1416  -3.6365  -3.6297  -3.4784  -3.4606  -3.2865   0.8187   3.4988
     3.6022

     occupation numbers 
     1.0000   1.0000   1.0000   1.0000   1.0000   1.0000   1.0000   1.0000
     1.0000

          k =-0.2828-0.4243 0.4243 ( 10894 PWs)   bands (ev):

    -6.0931  -3.6295  -3.6256  -3.4698  -3.4613  -3.1604   0.3854   3.3217
     3.5887

     occupation numbers 
     1.0000   1.0000   1.0000   1.0000   1.0000   1.0000   1.0000   1.0000
     1.0000

          k =-0.2121-0.3536 0.3536 ( 10873 PWs)   bands (ev):

    -6.1035  -3.6294  -3.6289  -3.4666  -3.4657  -3.1890   0.4788   3.2641
     3.6924

     occupation numbers 
     1.0000   1.0000   1.0000   1.0000   1.0000   1.0000   1.0000   1.0000
     1.0000

          k =-0.1414-0.2828 0.2828 ( 10873 PWs)   bands (ev):

    -6.1694  -3.6410  -3.6350  -3.4732  -3.4685  -3.3422   1.0576   3.3465
     3.8864

     occupation numbers 
     1.0000   1.0000   1.0000   1.0000   1.0000   1.0000   1.0000   1.0000
     1.0000

          k =-0.0707-0.2121 0.2121 ( 10894 PWs)   bands (ev):

    -6.2673  -3.6580  -3.6481  -3.5162  -3.4760  -3.4594   1.9247   3.5724
     4.1130

     occupation numbers 
     1.0000   1.0000   1.0000   1.0000   1.0000   1.0000   1.0000   1.0000
     1.0000

          k = 0.0000-0.1414 0.1414 ( 10923 PWs)   bands (ev):

    -6.3593  -3.6736  -3.6655  -3.6167  -3.4743  -3.4677   2.8448   3.9346
     4.2834

     occupation numbers 
     1.0000   1.0000   1.0000   1.0000   1.0000   1.0000   1.0000   1.0000
     1.0000

          k = 0.2828 0.0000 0.0000 ( 10930 PWs)   bands (ev):

    -6.2853  -3.6428  -3.6428  -3.5765  -3.4726  -3.4611   2.3397   3.6848
     3.6848

     occupation numbers 
     1.0000   1.0000   1.0000   1.0000   1.0000   1.0000   1.0000   1.0000
     1.0000

          k = 0.3536 0.0707-0.0707 ( 10892 PWs)   bands (ev):

    -6.2049  -3.6286  -3.6234  -3.5249  -3.4575  -3.4235   1.6872   3.3957
     3.4532

     occupation numbers 
     1.0000   1.0000   1.0000   1.0000   1.0000   1.0000   1.0000   1.0000
     1.0000

          k = 0.4243 0.1414-0.1414 ( 10893 PWs)   bands (ev):

    -6.1218  -3.6199  -3.6092  -3.5037  -3.4557  -3.2805   1.0054   3.0372
     3.3200

     occupation numbers 
     1.0000   1.0000   1.0000   1.0000   1.0000   1.0000   1.0000   1.0000
     1.0000

          k =-0.2121-0.4950 0.4950 ( 10879 PWs)   bands (ev):

    -6.0675  -3.6156  -3.6041  -3.4894  -3.4583  -3.1363   0.5432   2.7240
     3.3188

     occupation numbers 
     1.0000   1.0000   1.0000   1.0000   1.0000   1.0000   1.0000   1.0000
     1.0000

          k =-0.1414-0.4243 0.4243 ( 10885 PWs)   bands (ev):

    -6.0612  -3.6155  -3.6085  -3.4777  -3.4660  -3.1083   0.4824   2.5546
     3.4490

     occupation numbers 
     1.0000   1.0000   1.0000   1.0000   1.0000   1.0000   1.0000   1.0000
     1.0000

          k =-0.0707-0.3536 0.3536 ( 10883 PWs)   bands (ev):

    -6.1048  -3.6217  -3.6197  -3.4744  -3.4729  -3.2200   0.8348   2.5994
     3.6773

     occupation numbers 
     1.0000   1.0000   1.0000   1.0000   1.0000   1.0000   1.0000   1.0000
     1.0000

          k = 0.0000-0.2828 0.2828 ( 10875 PWs)   bands (ev):

    -6.1832  -3.6408  -3.6303  -3.4780  -3.4770  -3.3738   1.3934   2.9378
     3.9336

     occupation numbers 
     1.0000   1.0000   1.0000   1.0000   1.0000   1.0000   1.0000   1.0000
     1.0000

          k = 0.4243 0.0000 0.0000 ( 10886 PWs)   bands (ev):

    -6.1472  -3.6014  -3.6014  -3.5354  -3.4528  -3.3591   1.3783   3.1956
     3.1956

     occupation numbers 
     1.0000   1.0000   1.0000   1.0000   1.0000   1.0000   1.0000   1.0000
     1.0000

          k = 0.4950 0.0707-0.0707 ( 10879 PWs)   bands (ev):

    -6.0823  -3.5908  -3.5847  -3.5290  -3.4503  -3.2369   0.9306   2.8793
     3.0394

     occupation numbers 
     1.0000   1.0000   1.0000   1.0000   1.0000   1.0000   1.0000   1.0000
     1.0000

          k =-0.1414-0.5657 0.5657 ( 10877 PWs)   bands (ev):

    -6.0355  -3.5930  -3.5784  -3.5136  -3.4529  -3.1015   0.5952   2.4522
     3.0242

     occupation numbers 
     1.0000   1.0000   1.0000   1.0000   1.0000   1.0000   1.0000   1.0000
     1.0000

          k =-0.0707-0.4950 0.4950 ( 10856 PWs)   bands (ev):

    -6.0233  -3.5994  -3.5836  -3.4961  -3.4612  -3.0400   0.5052   2.1413
     3.1536

     occupation numbers 
     1.0000   1.0000   1.0000   1.0000   1.0000   1.0000   1.0000   1.0000
     1.0000

          k =-0.0000-0.4243 0.4243 ( 10892 PWs)   bands (ev):

    -6.0494  -3.6079  -3.5996  -3.4817  -3.4702  -3.0960   0.6380   2.1490
     3.3953

     occupation numbers 
     1.0000   1.0000   1.0000   1.0000   1.0000   1.0000   1.0000   1.0000
     1.0000

          k = 0.5657 0.0000 0.0000 ( 10878 PWs)   bands (ev):

    -6.0391  -3.5660  -3.5660  -3.5445  -3.4460  -3.1569   0.6614   2.8528
     2.8528

     occupation numbers 
     1.0000   1.0000   1.0000   1.0000   1.0000   1.0000   1.0000   1.0000
     1.0000

          k =-0.0707-0.6364 0.6364 ( 10868 PWs)   bands (ev):

    -6.0092  -3.5690  -3.5589  -3.5348  -3.4465  -3.0671   0.4643   2.5916
     2.8089

     occupation numbers 
     1.0000   1.0000   1.0000   1.0000   1.0000   1.0000   1.0000   1.0000
     1.0000

          k = 0.0000-0.5657 0.5657 ( 10836 PWs)   bands (ev):

    -6.0035  -3.5830  -3.5651  -3.5163  -3.4531  -3.0195   0.4478   2.2281
     2.9179

     occupation numbers 
     1.0000   1.0000   1.0000   1.0000   1.0000   1.0000   1.0000   1.0000
     1.0000

          k =-0.7071 0.0000 0.0000 ( 10846 PWs)   bands (ev):

    -5.9991  -3.5520  -3.5520  -3.5498  -3.4434  -3.0519   0.3800   2.7309
     2.7309

     occupation numbers 
     1.0000   1.0000   1.0000   1.0000   1.0000   1.0000   1.0000   1.0000
     1.0000

          k = 0.2828 0.1414 0.0000 ( 10897 PWs)   bands (ev):

    -6.2568  -3.6497  -3.6401  -3.5294  -3.4692  -3.4564   1.9868   3.4374
     3.8974

     occupation numbers 
     1.0000   1.0000   1.0000   1.0000   1.0000   1.0000   1.0000   1.0000
     1.0000

          k = 0.3536 0.2121-0.0707 ( 10884 PWs)   bands (ev):

    -6.1661  -3.6341  -3.6245  -3.4935  -3.4625  -3.3513   1.2622   3.0518
     3.6972

     occupation numbers 
     1.0000   1.0000   1.0000   1.0000   1.0000   1.0000   1.0000   1.0000
     1.0000

          k =-0.2828-0.4243 0.5657 ( 10879 PWs)   bands (ev):

    -6.0942  -3.6228  -3.6154  -3.4827  -3.4618  -3.1928   0.6629   2.8504
     3.4994

     occupation numbers 
     1.0000   1.0000   1.0000   1.0000   1.0000   1.0000   1.0000   1.0000
     1.0000

          k =-0.2121-0.3536 0.4950 ( 10886 PWs)   bands (ev):

    -6.0672  -3.6193  -3.6121  -3.4764  -3.4637  -3.1154   0.4253   2.7911
     3.4185

     occupation numbers 
     1.0000   1.0000   1.0000   1.0000   1.0000   1.0000   1.0000   1.0000
     1.0000

          k = 0.4243 0.1414-0.0000 ( 10883 PWs)   bands (ev):

    -6.1325  -3.6125  -3.6055  -3.5164  -3.4551  -3.3172   1.2145   2.9582
     3.3086

     occupation numbers 
     1.0000   1.0000   1.0000   1.0000   1.0000   1.0000   1.0000   1.0000
     1.0000

          k =-0.2121-0.4950 0.6364 ( 10877 PWs)   bands (ev):

    -6.0681  -3.6043  -3.5946  -3.5051  -3.4562  -3.1700   0.7643   2.5952
     3.1323

     occupation numbers 
     1.0000   1.0000   1.0000   1.0000   1.0000   1.0000   1.0000   1.0000
     1.0000

          k =-0.1414-0.4243 0.5657 ( 10865 PWs)   bands (ev):

    -6.0355  -3.6037  -3.5911  -3.4918  -3.4621  -3.0665   0.5162   2.3452
     3.0944

     occupation numbers 
     1.0000   1.0000   1.0000   1.0000   1.0000   1.0000   1.0000   1.0000
     1.0000

          k =-0.0707-0.3536 0.4950 ( 10878 PWs)   bands (ev):

    -6.0456  -3.6069  -3.5972  -3.4854  -3.4667  -3.0879   0.5855   2.2777
     3.2315

     occupation numbers 
     1.0000   1.0000   1.0000   1.0000   1.0000   1.0000   1.0000   1.0000
     1.0000

          k = 0.0000-0.2828 0.4243 ( 10892 PWs)   bands (ev):

    -6.0948  -3.6164  -3.6100  -3.4900  -3.4641  -3.2123   0.8943   2.4992
     3.4747

     occupation numbers 
     1.0000   1.0000   1.0000   1.0000   1.0000   1.0000   1.0000   1.0000
     1.0000

          k =-0.1414-0.5657 0.7071 ( 10878 PWs)   bands (ev):

    -6.0355  -3.5791  -3.5764  -3.5249  -3.4501  -3.1236   0.6409   2.6517
     2.8339

     occupation numbers 
     1.0000   1.0000   1.0000   1.0000   1.0000   1.0000   1.0000   1.0000
     1.0000

          k =-0.0707-0.4950 0.6364 ( 10873 PWs)   bands (ev):

    -6.0097  -3.5844  -3.5733  -3.5105  -3.4558  -3.0310   0.4948   2.3114
     2.7870

     occupation numbers 
     1.0000   1.0000   1.0000   1.0000   1.0000   1.0000   1.0000   1.0000
     1.0000

          k =-0.0000-0.4243 0.5657 ( 10862 PWs)   bands (ev):

    -6.0137  -3.5947  -3.5802  -3.4949  -3.4643  -3.0181   0.5151   2.0942
     2.9520

     occupation numbers 
     1.0000   1.0000   1.0000   1.0000   1.0000   1.0000   1.0000   1.0000
     1.0000

          k =-0.7071 0.1414 0.0000 ( 10842 PWs)   bands (ev):

    -5.9995  -3.5681  -3.5645  -3.5261  -3.4489  -3.0291   0.4170   2.5785
     2.6253

     occupation numbers 
     1.0000   1.0000   1.0000   1.0000   1.0000   1.0000   1.0000   1.0000
     1.0000

          k =-0.1414-0.4243 0.7071 ( 10862 PWs)   bands (ev):

    -6.0259  -3.5939  -3.5853  -3.4984  -3.4619  -3.0586   0.5853   2.2874
     2.8582

     occupation numbers 
     1.0000   1.0000   1.0000   1.0000   1.0000   1.0000   1.0000   1.0000
     1.0000

          k =-0.0707-0.3536 0.6364 ( 10862 PWs)   bands (ev):

    -6.0100  -3.5920  -3.5806  -3.4925  -3.4669  -3.0095   0.5138   2.1966
     2.7218

     occupation numbers 
     1.0000   1.0000   1.0000   1.0000   1.0000   1.0000   1.0000   1.0000
     1.0000

          k =-0.7071 0.2828 0.0000 ( 10846 PWs)   bands (ev):

    -6.0002  -3.5829  -3.5764  -3.5001  -3.4630  -2.9938   0.4846   2.3460
     2.4704

     occupation numbers 
     1.0000   1.0000   1.0000   1.0000   1.0000   1.0000   1.0000   1.0000
     1.0000

     highest occupied level (ev):     4.3867

!    total energy              =    -128.98031468 Ry
     estimated scf accuracy    <          2.4E-11 Ry

     The total energy is the sum of the following terms:
     one-electron contribution =     -51.32164858 Ry
     hartree contribution      =      36.95334982 Ry
     xc contribution           =     -39.44634391 Ry
     ewald contribution        =     -75.16567201 Ry

     convergence has been achieved in  27 iterations

     Writing all to output data dir /home/User/opencode_workspace/DFT/calculations/cdte/production_scf_nosoc/out/pwscf.save/ :
     XML data file, charge density, pseudopotentials, collected wavefunctions

     init_run     :      1.33s CPU      1.51s WALL (       1 calls)
     electrons    :     47.85s CPU     57.83s WALL (       1 calls)

     Called by init_run:
     wfcinit      :      0.64s CPU      0.71s WALL (       1 calls)
     wfcinit:atom :      0.01s CPU      0.01s WALL (      47 calls)
     wfcinit:wfcr :      0.56s CPU      0.63s WALL (      47 calls)
     potinit      :      0.18s CPU      0.19s WALL (       1 calls)
     hinit0       :      0.30s CPU      0.31s WALL (       1 calls)

     Called by electrons:
     c_bands      :     34.92s CPU     39.06s WALL (      28 calls)
     sum_band     :      8.72s CPU     12.02s WALL (      28 calls)
     v_of_rho     :      0.73s CPU      0.79s WALL (      28 calls)
     v_h          :      0.05s CPU      0.05s WALL (      28 calls)
     v_xc         :      0.69s CPU      0.74s WALL (      28 calls)
     newd         :      3.47s CPU      6.02s WALL (      28 calls)
     mix_rho      :      0.12s CPU      0.13s WALL (      28 calls)

     Called by c_bands:
     init_us_2    :      1.27s CPU      1.32s WALL (    2679 calls)
     cegterg      :     32.48s CPU     36.57s WALL (    1316 calls)

     Called by sum_band:
     sum_band:wei :      0.00s CPU      0.00s WALL (      28 calls)
     sum_band:loo :      4.84s CPU      5.43s WALL (      28 calls)
     sum_band:buf :      0.03s CPU      0.03s WALL (    1316 calls)
     sum_band:ini :      0.62s CPU      0.65s WALL (    1316 calls)
     sum_band:cal :      0.38s CPU      0.43s WALL (    1316 calls)
     sum_band:bec :      0.02s CPU      0.02s WALL (    1316 calls)
     addusdens    :      3.60s CPU      6.29s WALL (      28 calls)
                                        0.00s GPU  (      28 calls)
     addusd:skk   :      0.00s CPU      0.00s WALL (      56 calls)
                                        0.00s GPU  (      56 calls)

     Called by *egterg:
     cdiaghg      :      0.65s CPU      0.69s WALL (    6515 calls)
     cegterg:over :      1.18s CPU      1.24s WALL (    5246 calls)
     cegterg:upda :      0.40s CPU      0.42s WALL (    5246 calls)
     cegterg:last :      0.78s CPU      0.81s WALL (    3710 calls)
     h_psi        :     28.16s CPU     32.07s WALL (    6609 calls)
     s_psi        :      0.66s CPU      0.72s WALL (    6609 calls)
     g_psi        :      0.28s CPU      0.29s WALL (    5246 calls)

     Called by h_psi:
     h_psi:calbec :      1.68s CPU      1.86s WALL (    6609 calls)
     vloc_psi     :     25.52s CPU     29.17s WALL (    6609 calls)
                                        0.00s GPU  (    6609 calls)
     add_vuspsi   :      0.80s CPU      0.88s WALL (    6609 calls)

     General routines
     calbec       :      2.04s CPU      2.26s WALL (    7925 calls)
     fft          :      0.51s CPU      0.59s WALL (     363 calls)
     ffts         :      0.15s CPU      0.16s WALL (      56 calls)
     fftw         :     26.80s CPU     30.63s WALL (   93004 calls)
     interpolate  :      0.17s CPU      0.18s WALL (      28 calls)

     Parallel routines

     PWSCF        :     49.43s CPU     59.73s WALL


   This run was terminated on:  20: 6:27  22Sep2026            

=------------------------------------------------------------------------------=
   JOB DONE.
=------------------------------------------------------------------------------=
