
     Program PWSCF v.7.5 starts on 22Sep2026 at 19: 7:37 

     This program is part of the open-source Quantum ESPRESSO suite
     for quantum simulation of materials; please cite
         "P. Giannozzi et al., J. Phys.:Condens. Matter 21 395502 (2009);
         "P. Giannozzi et al., J. Phys.:Condens. Matter 29 465901 (2017);
         "P. Giannozzi et al., J. Chem. Phys. 152 154105 (2020);
          URL http://www.quantum-espresso.org", 
     in publications or presentations arising from this work. More details at
     http://www.quantum-espresso.org/quote

     Parallel version (MPI & OpenMP), running on       6 processor cores
     Number of MPI processes:                 6
     Threads/MPI process:                     1

     MPI processes distributed on     1 nodes
     2203 MiB available memory on the printing compute node when the environment starts

     Reading input from pw.in

     Current dimensions of program PWSCF are:
     Max number of different atomic species (ntypx) = 10
     Max number of k-points (npk) =  40000
     Max angular momentum in pseudopotentials (lmaxx) =  4
     file Cd.pbe-n-rrkjus_psl.1.0.0.UPF: wavefunction(s)  4D renormalized
     file Te.pbe-n-rrkjus_psl.1.0.0.UPF: wavefunction(s)  5S renormalized

     Atomic positions and unit cell read from directory:
     /home/User/opencode_workspace/DFT/calculations/cdte/conv_nscf_k12/out/pwscf.save/

     Message from routine setup:
     using ibrav=0 with symmetry is DISCOURAGED, use correct ibrav instead

     R & G space division:  proc/nbgrp/npool/nimage =       6
     Subspace diagonalization in iterative solution of the eigenvalue problem:
     a serial algorithm will be used


     Parallelization info
     --------------------
     sticks:   dense  smooth     PW     G-vecs:    dense   smooth      PW
     Min         414     275     79                13591     7399    1142
     Max         417     276     80                13592     7402    1145
     Sum        2491    1651    475                81547    44399    6855

     Using Slab Decomposition



     bravais-lattice index     =            0
     lattice parameter (alat)  =       8.6615  a.u.
     unit-cell volume          =     459.4769 (a.u.)^3
     number of atoms/cell      =            2
     number of atomic types    =            2
     number of electrons       =        18.00
     number of Kohn-Sham states=           13
     kinetic-energy cutoff     =      80.0000  Ry
     charge density cutoff     =     480.0000  Ry
     Exchange-correlation= PBE
                           (   1   4   3   4   0   0   0)

     celldm(1)=   8.661496  celldm(2)=   0.000000  celldm(3)=   0.000000
     celldm(4)=   0.000000  celldm(5)=   0.000000  celldm(6)=   0.000000

     crystal axes: (cart. coord. in units of alat)
               a(1) = (   0.000000   0.707107   0.707107 )  
               a(2) = (   0.707107   0.000000   0.707107 )  
               a(3) = (   0.707107   0.707107   0.000000 )  

     reciprocal axes: (cart. coord. in units 2 pi/alat)
               b(1) = ( -0.707107  0.707107  0.707107 )  
               b(2) = (  0.707107 -0.707107  0.707107 )  
               b(3) = (  0.707107  0.707107 -0.707107 )  


     PseudoPot. # 1 for Cd read from file:
     /home/User/opencode_workspace/DFT/pseudopotentials/Cd.pbe-n-rrkjus_psl.1.0.0.UPF
     MD5 check sum: a744746c89d2344a134ead0d8ab94e7a
     Pseudo is Ultrasoft + core correction, Zval = 12.0
     Generated using &quot;atomic&quot; code by A. Dal Corso  v.6.3
     Using radial grid of 1239 points,  6 beta functions with: 
                l(1) =   0
                l(2) =   0
                l(3) =   1
                l(4) =   1
                l(5) =   2
                l(6) =   2
     Q(r) pseudized with 0 coefficients 


     PseudoPot. # 2 for Te read from file:
     /home/User/opencode_workspace/DFT/pseudopotentials/Te.pbe-n-rrkjus_psl.1.0.0.UPF
     MD5 check sum: 203a1e86ef55f0cd9de2762a27c58f54
     Pseudo is Ultrasoft + core correction, Zval =  6.0
     Generated using &quot;atomic&quot; code by A. Dal Corso  v.6.3
     Using radial grid of 1245 points,  6 beta functions with: 
                l(1) =   0
                l(2) =   0
                l(3) =   1
                l(4) =   1
                l(5) =   2
                l(6) =   2
     Q(r) pseudized with 0 coefficients 


     atomic species   valence    mass     pseudopotential
     Cd               12.00   112.41400     Cd( 1.00)
     Te                6.00   127.60000     Te( 1.00)

     24 Sym. Ops. (no inversion) found


                                    s                        frac. trans.

      isym =  1     identity                                     

 cryst.   s( 1) = (     1          0          0      )
                  (     0          1          0      )
                  (     0          0          1      )

 cart.    s( 1) = (  1.0000000  0.0000000  0.0000000 )
                  (  0.0000000  1.0000000  0.0000000 )
                  (  0.0000000  0.0000000  1.0000000 )


      isym =  2     180 deg rotation - cart. axis [0,0,1]        

 cryst.   s( 2) = (     0          1         -1      )
                  (     1          0         -1      )
                  (     0          0         -1      )

 cart.    s( 2) = ( -1.0000000  0.0000000  0.0000000 )
                  (  0.0000000 -1.0000000  0.0000000 )
                  (  0.0000000  0.0000000  1.0000000 )


      isym =  3     180 deg rotation - cart. axis [0,1,0]        

 cryst.   s( 3) = (     0         -1          1      )
                  (     0         -1          0      )
                  (     1         -1          0      )

 cart.    s( 3) = ( -1.0000000  0.0000000  0.0000000 )
                  (  0.0000000  1.0000000  0.0000000 )
                  (  0.0000000  0.0000000 -1.0000000 )


      isym =  4     180 deg rotation - cart. axis [1,0,0]        

 cryst.   s( 4) = (    -1          0          0      )
                  (    -1          0          1      )
                  (    -1          1          0      )

 cart.    s( 4) = (  1.0000000  0.0000000  0.0000000 )
                  (  0.0000000 -1.0000000  0.0000000 )
                  (  0.0000000  0.0000000 -1.0000000 )


      isym =  5     120 deg rotation - cart. axis [-1,-1,-1]     

 cryst.   s( 5) = (     0          0          1      )
                  (     1          0          0      )
                  (     0          1          0      )

 cart.    s( 5) = (  0.0000000  1.0000000  0.0000000 )
                  (  0.0000000  0.0000000  1.0000000 )
                  (  1.0000000  0.0000000  0.0000000 )


      isym =  6     120 deg rotation - cart. axis [-1,1,1]       

 cryst.   s( 6) = (     1         -1          0      )
                  (     0         -1          1      )
                  (     0         -1          0      )

 cart.    s( 6) = (  0.0000000 -1.0000000  0.0000000 )
                  (  0.0000000  0.0000000  1.0000000 )
                  ( -1.0000000  0.0000000  0.0000000 )


      isym =  7     120 deg rotation - cart. axis [1,1,-1]       

 cryst.   s( 7) = (    -1          1          0      )
                  (    -1          0          0      )
                  (    -1          0          1      )

 cart.    s( 7) = (  0.0000000  1.0000000  0.0000000 )
                  (  0.0000000  0.0000000 -1.0000000 )
                  ( -1.0000000  0.0000000  0.0000000 )


      isym =  8     120 deg rotation - cart. axis [1,-1,1]       

 cryst.   s( 8) = (     0          0         -1      )
                  (     0          1         -1      )
                  (     1          0         -1      )

 cart.    s( 8) = (  0.0000000 -1.0000000  0.0000000 )
                  (  0.0000000  0.0000000 -1.0000000 )
                  (  1.0000000  0.0000000  0.0000000 )


      isym =  9     120 deg rotation - cart. axis [1,1,1]        

 cryst.   s( 9) = (     0          1          0      )
                  (     0          0          1      )
                  (     1          0          0      )

 cart.    s( 9) = (  0.0000000  0.0000000  1.0000000 )
                  (  1.0000000  0.0000000  0.0000000 )
                  (  0.0000000  1.0000000  0.0000000 )


      isym = 10     120 deg rotation - cart. axis [-1,1,-1]      

 cryst.   s(10) = (    -1          0          1      )
                  (    -1          1          0      )
                  (    -1          0          0      )

 cart.    s(10) = (  0.0000000  0.0000000  1.0000000 )
                  ( -1.0000000  0.0000000  0.0000000 )
                  (  0.0000000 -1.0000000  0.0000000 )


      isym = 11     120 deg rotation - cart. axis [1,-1,-1]      

 cryst.   s(11) = (     1          0         -1      )
                  (     0          0         -1      )
                  (     0          1         -1      )

 cart.    s(11) = (  0.0000000  0.0000000 -1.0000000 )
                  ( -1.0000000  0.0000000  0.0000000 )
                  (  0.0000000  1.0000000  0.0000000 )


      isym = 12     120 deg rotation - cart. axis [-1,-1,1]      

 cryst.   s(12) = (     0         -1          0      )
                  (     1         -1          0      )
                  (     0         -1          1      )

 cart.    s(12) = (  0.0000000  0.0000000 -1.0000000 )
                  (  1.0000000  0.0000000  0.0000000 )
                  (  0.0000000 -1.0000000  0.0000000 )


      isym = 13     inv. 180 deg rotation - cart. axis [1,1,0]   

 cryst.   s(13) = (     1          0         -1      )
                  (     0          1         -1      )
                  (     0          0         -1      )

 cart.    s(13) = (  0.0000000 -1.0000000  0.0000000 )
                  ( -1.0000000  0.0000000  0.0000000 )
                  (  0.0000000  0.0000000  1.0000000 )


      isym = 14     inv. 180 deg rotation - cart. axis [1,-1,0]  

 cryst.   s(14) = (     0          1          0      )
                  (     1          0          0      )
                  (     0          0          1      )

 cart.    s(14) = (  0.0000000  1.0000000  0.0000000 )
                  (  1.0000000  0.0000000  0.0000000 )
                  (  0.0000000  0.0000000  1.0000000 )


      isym = 15     inv.  90 deg rotation - cart. axis [0,0,-1]  

 cryst.   s(15) = (     0         -1          0      )
                  (     0         -1          1      )
                  (     1         -1          0      )

 cart.    s(15) = (  0.0000000 -1.0000000  0.0000000 )
                  (  1.0000000  0.0000000  0.0000000 )
                  (  0.0000000  0.0000000 -1.0000000 )


      isym = 16     inv.  90 deg rotation - cart. axis [0,0,1]   

 cryst.   s(16) = (    -1          0          1      )
                  (    -1          0          0      )
                  (    -1          1          0      )

 cart.    s(16) = (  0.0000000  1.0000000  0.0000000 )
                  ( -1.0000000  0.0000000  0.0000000 )
                  (  0.0000000  0.0000000 -1.0000000 )


      isym = 17     inv. 180 deg rotation - cart. axis [1,0,1]   

 cryst.   s(17) = (     1         -1          0      )
                  (     0         -1          0      )
                  (     0         -1          1      )

 cart.    s(17) = (  0.0000000  0.0000000 -1.0000000 )
                  (  0.0000000  1.0000000  0.0000000 )
                  ( -1.0000000  0.0000000  0.0000000 )


      isym = 18     inv. 180 deg rotation - cart. axis [-1,0,1]  

 cryst.   s(18) = (     0          0          1      )
                  (     0          1          0      )
                  (     1          0          0      )

 cart.    s(18) = (  0.0000000  0.0000000  1.0000000 )
                  (  0.0000000  1.0000000  0.0000000 )
                  (  1.0000000  0.0000000  0.0000000 )


      isym = 19     inv.  90 deg rotation - cart. axis [0,1,0]   

 cryst.   s(19) = (     0          0         -1      )
                  (     1          0         -1      )
                  (     0          1         -1      )

 cart.    s(19) = (  0.0000000  0.0000000 -1.0000000 )
                  (  0.0000000 -1.0000000  0.0000000 )
                  (  1.0000000  0.0000000  0.0000000 )


      isym = 20     inv.  90 deg rotation - cart. axis [0,-1,0]  

 cryst.   s(20) = (    -1          1          0      )
                  (    -1          0          1      )
                  (    -1          0          0      )

 cart.    s(20) = (  0.0000000  0.0000000  1.0000000 )
                  (  0.0000000 -1.0000000  0.0000000 )
                  ( -1.0000000  0.0000000  0.0000000 )


      isym = 21     inv. 180 deg rotation - cart. axis [0,1,1]   

 cryst.   s(21) = (    -1          0          0      )
                  (    -1          1          0      )
                  (    -1          0          1      )

 cart.    s(21) = (  1.0000000  0.0000000  0.0000000 )
                  (  0.0000000  0.0000000 -1.0000000 )
                  (  0.0000000 -1.0000000  0.0000000 )


      isym = 22     inv. 180 deg rotation - cart. axis [0,1,-1]  

 cryst.   s(22) = (     1          0          0      )
                  (     0          0          1      )
                  (     0          1          0      )

 cart.    s(22) = (  1.0000000  0.0000000  0.0000000 )
                  (  0.0000000  0.0000000  1.0000000 )
                  (  0.0000000  1.0000000  0.0000000 )


      isym = 23     inv.  90 deg rotation - cart. axis [-1,0,0]  

 cryst.   s(23) = (     0          1         -1      )
                  (     0          0         -1      )
                  (     1          0         -1      )

 cart.    s(23) = ( -1.0000000  0.0000000  0.0000000 )
                  (  0.0000000  0.0000000 -1.0000000 )
                  (  0.0000000  1.0000000  0.0000000 )


      isym = 24     inv.  90 deg rotation - cart. axis [1,0,0]   

 cryst.   s(24) = (     0         -1          1      )
                  (     1         -1          0      )
                  (     0         -1          0      )

 cart.    s(24) = ( -1.0000000  0.0000000  0.0000000 )
                  (  0.0000000  0.0000000  1.0000000 )
                  (  0.0000000 -1.0000000  0.0000000 )


   Cartesian axes

     site n.     atom                  positions (alat units)
         1        Cd     tau(   1) = (   0.0000000   0.0000000   0.0000000  )
         2        Te     tau(   2) = (   0.3535534   0.3535534   0.3535534  )

   Crystallographic axes

     site n.     atom                  positions (cryst. coord.)
         1        Cd     tau(   1) = (  0.0000000  0.0000000  0.0000000  )
         2        Te     tau(   2) = (  0.2500000  0.2500000  0.2500000  )

     number of k points=    72 (tetrahedron method)
                       cart. coord. in units 2pi/alat
        k(    1) = (   0.0000000   0.0000000   0.0000000), wk =   0.0011574
        k(    2) = (   0.0589256   0.0589256  -0.0589256), wk =   0.0092593
        k(    3) = (   0.1178511   0.1178511  -0.1178511), wk =   0.0092593
        k(    4) = (   0.1767767   0.1767767  -0.1767767), wk =   0.0092593
        k(    5) = (   0.2357023   0.2357023  -0.2357023), wk =   0.0092593
        k(    6) = (   0.2946278   0.2946278  -0.2946278), wk =   0.0092593
        k(    7) = (  -0.3535534  -0.3535534   0.3535534), wk =   0.0046296
        k(    8) = (   0.1178511   0.0000000   0.0000000), wk =   0.0069444
        k(    9) = (   0.1767767   0.0589256  -0.0589256), wk =   0.0277778
        k(   10) = (   0.2357023   0.1178511  -0.1178511), wk =   0.0277778
        k(   11) = (   0.2946278   0.1767767  -0.1767767), wk =   0.0277778
        k(   12) = (   0.3535534   0.2357023  -0.2357023), wk =   0.0277778
        k(   13) = (  -0.2946278  -0.4124790   0.4124790), wk =   0.0277778
        k(   14) = (  -0.2357023  -0.3535534   0.3535534), wk =   0.0277778
        k(   15) = (  -0.1767767  -0.2946278   0.2946278), wk =   0.0277778
        k(   16) = (  -0.1178511  -0.2357023   0.2357023), wk =   0.0277778
        k(   17) = (  -0.0589256  -0.1767767   0.1767767), wk =   0.0277778
        k(   18) = (  -0.0000000  -0.1178511   0.1178511), wk =   0.0138889
        k(   19) = (   0.2357023   0.0000000   0.0000000), wk =   0.0069444
        k(   20) = (   0.2946278   0.0589256  -0.0589256), wk =   0.0277778
        k(   21) = (   0.3535534   0.1178511  -0.1178511), wk =   0.0277778
        k(   22) = (   0.4124790   0.1767767  -0.1767767), wk =   0.0277778
        k(   23) = (  -0.2357023  -0.4714045   0.4714045), wk =   0.0277778
        k(   24) = (  -0.1767767  -0.4124790   0.4124790), wk =   0.0277778
        k(   25) = (  -0.1178511  -0.3535534   0.3535534), wk =   0.0277778
        k(   26) = (  -0.0589256  -0.2946278   0.2946278), wk =   0.0277778
        k(   27) = (   0.0000000  -0.2357023   0.2357023), wk =   0.0138889
        k(   28) = (   0.3535534   0.0000000   0.0000000), wk =   0.0069444
        k(   29) = (   0.4124790   0.0589256  -0.0589256), wk =   0.0277778
        k(   30) = (   0.4714045   0.1178511  -0.1178511), wk =   0.0277778
        k(   31) = (  -0.1767767  -0.5303301   0.5303301), wk =   0.0277778
        k(   32) = (  -0.1178511  -0.4714045   0.4714045), wk =   0.0277778
        k(   33) = (  -0.0589256  -0.4124790   0.4124790), wk =   0.0277778
        k(   34) = (   0.0000000  -0.3535534   0.3535534), wk =   0.0138889
        k(   35) = (   0.4714045   0.0000000   0.0000000), wk =   0.0069444
        k(   36) = (   0.5303301   0.0589256  -0.0589256), wk =   0.0277778
        k(   37) = (  -0.1178511  -0.5892557   0.5892557), wk =   0.0277778
        k(   38) = (  -0.0589256  -0.5303301   0.5303301), wk =   0.0277778
        k(   39) = (  -0.0000000  -0.4714045   0.4714045), wk =   0.0138889
        k(   40) = (   0.5892557   0.0000000   0.0000000), wk =   0.0069444
        k(   41) = (  -0.0589256  -0.6481812   0.6481812), wk =   0.0277778
        k(   42) = (   0.0000000  -0.5892557   0.5892557), wk =   0.0138889
        k(   43) = (  -0.7071068   0.0000000   0.0000000), wk =   0.0034722
        k(   44) = (   0.2357023   0.1178511  -0.0000000), wk =   0.0277778
        k(   45) = (   0.2946278   0.1767767  -0.0589256), wk =   0.0555556
        k(   46) = (   0.3535534   0.2357023  -0.1178511), wk =   0.0555556
        k(   47) = (  -0.2946278  -0.4124790   0.5303301), wk =   0.0555556
        k(   48) = (  -0.2357023  -0.3535534   0.4714045), wk =   0.0277778
        k(   49) = (   0.3535534   0.1178511   0.0000000), wk =   0.0277778
        k(   50) = (   0.4124790   0.1767767  -0.0589256), wk =   0.0555556
        k(   51) = (  -0.2357023  -0.4714045   0.5892557), wk =   0.0555556
        k(   52) = (  -0.1767767  -0.4124790   0.5303301), wk =   0.0555556
        k(   53) = (  -0.1178511  -0.3535534   0.4714045), wk =   0.0555556
        k(   54) = (  -0.0589256  -0.2946278   0.4124790), wk =   0.0555556
        k(   55) = (   0.0000000  -0.2357023   0.3535534), wk =   0.0277778
        k(   56) = (   0.4714045   0.1178511   0.0000000), wk =   0.0277778
        k(   57) = (  -0.1767767  -0.5303301   0.6481812), wk =   0.0555556
        k(   58) = (  -0.1178511  -0.4714045   0.5892557), wk =   0.0555556
        k(   59) = (  -0.0589256  -0.4124790   0.5303301), wk =   0.0555556
        k(   60) = (   0.0000000  -0.3535534   0.4714045), wk =   0.0277778
        k(   61) = (  -0.1178511  -0.5892557   0.7071068), wk =   0.0277778
        k(   62) = (  -0.0589256  -0.5303301   0.6481812), wk =   0.0555556
        k(   63) = (  -0.0000000  -0.4714045   0.5892557), wk =   0.0277778
        k(   64) = (  -0.7071068   0.1178511   0.0000000), wk =   0.0138889
        k(   65) = (  -0.2357023  -0.4714045   0.7071068), wk =   0.0277778
        k(   66) = (  -0.1767767  -0.4124790   0.6481812), wk =   0.0555556
        k(   67) = (  -0.1178511  -0.3535534   0.5892557), wk =   0.0277778
        k(   68) = (  -0.1178511  -0.4714045   0.7071068), wk =   0.0277778
        k(   69) = (  -0.0589256  -0.4124790   0.6481812), wk =   0.0555556
        k(   70) = (   0.0000000  -0.3535534   0.5892557), wk =   0.0277778
        k(   71) = (  -0.7071068   0.2357023   0.0000000), wk =   0.0138889
        k(   72) = (  -0.7071068   0.3535534   0.0000000), wk =   0.0069444

                       cryst. coord.
        k(    1) = (   0.0000000   0.0000000   0.0000000), wk =   0.0011574
        k(    2) = (   0.0000000   0.0000000   0.0833333), wk =   0.0092593
        k(    3) = (   0.0000000   0.0000000   0.1666667), wk =   0.0092593
        k(    4) = (   0.0000000   0.0000000   0.2500000), wk =   0.0092593
        k(    5) = (   0.0000000   0.0000000   0.3333333), wk =   0.0092593
        k(    6) = (   0.0000000   0.0000000   0.4166667), wk =   0.0092593
        k(    7) = (   0.0000000   0.0000000  -0.5000000), wk =   0.0046296
        k(    8) = (   0.0000000   0.0833333   0.0833333), wk =   0.0069444
        k(    9) = (   0.0000000   0.0833333   0.1666667), wk =   0.0277778
        k(   10) = (   0.0000000   0.0833333   0.2500000), wk =   0.0277778
        k(   11) = (   0.0000000   0.0833333   0.3333333), wk =   0.0277778
        k(   12) = (   0.0000000   0.0833333   0.4166667), wk =   0.0277778
        k(   13) = (   0.0000000   0.0833333  -0.5000000), wk =   0.0277778
        k(   14) = (   0.0000000   0.0833333  -0.4166667), wk =   0.0277778
        k(   15) = (   0.0000000   0.0833333  -0.3333333), wk =   0.0277778
        k(   16) = (   0.0000000   0.0833333  -0.2500000), wk =   0.0277778
        k(   17) = (   0.0000000   0.0833333  -0.1666667), wk =   0.0277778
        k(   18) = (   0.0000000   0.0833333  -0.0833333), wk =   0.0138889
        k(   19) = (   0.0000000   0.1666667   0.1666667), wk =   0.0069444
        k(   20) = (   0.0000000   0.1666667   0.2500000), wk =   0.0277778
        k(   21) = (   0.0000000   0.1666667   0.3333333), wk =   0.0277778
        k(   22) = (   0.0000000   0.1666667   0.4166667), wk =   0.0277778
        k(   23) = (   0.0000000   0.1666667  -0.5000000), wk =   0.0277778
        k(   24) = (   0.0000000   0.1666667  -0.4166667), wk =   0.0277778
        k(   25) = (   0.0000000   0.1666667  -0.3333333), wk =   0.0277778
        k(   26) = (   0.0000000   0.1666667  -0.2500000), wk =   0.0277778
        k(   27) = (   0.0000000   0.1666667  -0.1666667), wk =   0.0138889
        k(   28) = (   0.0000000   0.2500000   0.2500000), wk =   0.0069444
        k(   29) = (   0.0000000   0.2500000   0.3333333), wk =   0.0277778
        k(   30) = (   0.0000000   0.2500000   0.4166667), wk =   0.0277778
        k(   31) = (   0.0000000   0.2500000  -0.5000000), wk =   0.0277778
        k(   32) = (   0.0000000   0.2500000  -0.4166667), wk =   0.0277778
        k(   33) = (   0.0000000   0.2500000  -0.3333333), wk =   0.0277778
        k(   34) = (   0.0000000   0.2500000  -0.2500000), wk =   0.0138889
        k(   35) = (   0.0000000   0.3333333   0.3333333), wk =   0.0069444
        k(   36) = (   0.0000000   0.3333333   0.4166667), wk =   0.0277778
        k(   37) = (   0.0000000   0.3333333  -0.5000000), wk =   0.0277778
        k(   38) = (   0.0000000   0.3333333  -0.4166667), wk =   0.0277778
        k(   39) = (   0.0000000   0.3333333  -0.3333333), wk =   0.0138889
        k(   40) = (   0.0000000   0.4166667   0.4166667), wk =   0.0069444
        k(   41) = (   0.0000000   0.4166667  -0.5000000), wk =   0.0277778
        k(   42) = (   0.0000000   0.4166667  -0.4166667), wk =   0.0138889
        k(   43) = (   0.0000000  -0.5000000  -0.5000000), wk =   0.0034722
        k(   44) = (   0.0833333   0.1666667   0.2500000), wk =   0.0277778
        k(   45) = (   0.0833333   0.1666667   0.3333333), wk =   0.0555556
        k(   46) = (   0.0833333   0.1666667   0.4166667), wk =   0.0555556
        k(   47) = (   0.0833333   0.1666667  -0.5000000), wk =   0.0555556
        k(   48) = (   0.0833333   0.1666667  -0.4166667), wk =   0.0277778
        k(   49) = (   0.0833333   0.2500000   0.3333333), wk =   0.0277778
        k(   50) = (   0.0833333   0.2500000   0.4166667), wk =   0.0555556
        k(   51) = (   0.0833333   0.2500000  -0.5000000), wk =   0.0555556
        k(   52) = (   0.0833333   0.2500000  -0.4166667), wk =   0.0555556
        k(   53) = (   0.0833333   0.2500000  -0.3333333), wk =   0.0555556
        k(   54) = (   0.0833333   0.2500000  -0.2500000), wk =   0.0555556
        k(   55) = (   0.0833333   0.2500000  -0.1666667), wk =   0.0277778
        k(   56) = (   0.0833333   0.3333333   0.4166667), wk =   0.0277778
        k(   57) = (   0.0833333   0.3333333  -0.5000000), wk =   0.0555556
        k(   58) = (   0.0833333   0.3333333  -0.4166667), wk =   0.0555556
        k(   59) = (   0.0833333   0.3333333  -0.3333333), wk =   0.0555556
        k(   60) = (   0.0833333   0.3333333  -0.2500000), wk =   0.0277778
        k(   61) = (   0.0833333   0.4166667  -0.5000000), wk =   0.0277778
        k(   62) = (   0.0833333   0.4166667  -0.4166667), wk =   0.0555556
        k(   63) = (   0.0833333   0.4166667  -0.3333333), wk =   0.0277778
        k(   64) = (   0.0833333  -0.5000000  -0.4166667), wk =   0.0138889
        k(   65) = (   0.1666667   0.3333333  -0.5000000), wk =   0.0277778
        k(   66) = (   0.1666667   0.3333333  -0.4166667), wk =   0.0555556
        k(   67) = (   0.1666667   0.3333333  -0.3333333), wk =   0.0277778
        k(   68) = (   0.1666667   0.4166667  -0.4166667), wk =   0.0277778
        k(   69) = (   0.1666667   0.4166667  -0.3333333), wk =   0.0555556
        k(   70) = (   0.1666667   0.4166667  -0.2500000), wk =   0.0277778
        k(   71) = (   0.1666667  -0.5000000  -0.3333333), wk =   0.0138889
        k(   72) = (   0.2500000  -0.5000000  -0.2500000), wk =   0.0069444

     Dense  grid:    81547 G-vectors     FFT dimensions: (  64,  64,  64)

     Smooth grid:    44399 G-vectors     FFT dimensions: (  50,  50,  50)

     Dynamical RAM for                 wfc:       0.18 MB

     Dynamical RAM for     wfc (w. buffer):       0.18 MB

     Dynamical RAM for           str. fact:       0.41 MB

     Dynamical RAM for           local pot:       0.00 MB

     Dynamical RAM for          nlocal pot:       0.51 MB

     Dynamical RAM for                qrad:       3.52 MB

     Dynamical RAM for          rho,v,vnew:       1.65 MB

     Dynamical RAM for           G-vectors:       0.83 MB

     Dynamical RAM for          h,s,v(r/c):       0.03 MB

     Dynamical RAM for          <psi|beta>:       0.01 MB

     Dynamical RAM for                 psi:       0.37 MB

     Dynamical RAM for                hpsi:       0.37 MB

     Dynamical RAM for                spsi:       0.37 MB

     Dynamical RAM for      wfcinit/wfcrot:       0.37 MB

     Dynamical RAM for           addusdens:      38.78 MB

     Estimated static dynamical RAM per process >       9.45 MB

     Estimated max dynamical RAM per process >      48.23 MB

     Estimated total dynamical RAM >     289.38 MB

     The potential is recalculated from file :
     /home/User/opencode_workspace/DFT/calculations/cdte/conv_nscf_k12/out/pwscf.save/charge-density

     Starting wfcs are   13 randomized atomic wfcs

     Band Structure Calculation
     Davidson diagonalization with overlap

     Computing kpt #:     1  of    72
     total cpu time spent up to now is        1.2 secs

     Computing kpt #:     2  of    72
     total cpu time spent up to now is        1.5 secs

     Computing kpt #:     3  of    72
     total cpu time spent up to now is        1.7 secs

     Computing kpt #:     4  of    72
     total cpu time spent up to now is        2.0 secs

     Computing kpt #:     5  of    72
     total cpu time spent up to now is        2.3 secs

     Computing kpt #:     6  of    72
     total cpu time spent up to now is        2.6 secs

     Computing kpt #:     7  of    72
     total cpu time spent up to now is        3.0 secs

     Computing kpt #:     8  of    72
     total cpu time spent up to now is        3.2 secs

     Computing kpt #:     9  of    72
     total cpu time spent up to now is        3.5 secs

     Computing kpt #:    10  of    72
     total cpu time spent up to now is        3.8 secs

     Computing kpt #:    11  of    72
     total cpu time spent up to now is        4.1 secs

     Computing kpt #:    12  of    72
     total cpu time spent up to now is        4.4 secs

     Computing kpt #:    13  of    72
     total cpu time spent up to now is        4.8 secs

     Computing kpt #:    14  of    72
     total cpu time spent up to now is        5.1 secs

     Computing kpt #:    15  of    72
     total cpu time spent up to now is        5.4 secs

     Computing kpt #:    16  of    72
     total cpu time spent up to now is        5.7 secs

     Computing kpt #:    17  of    72
     total cpu time spent up to now is        6.0 secs

     Computing kpt #:    18  of    72
     total cpu time spent up to now is        6.3 secs

     Computing kpt #:    19  of    72
     total cpu time spent up to now is        6.6 secs

     Computing kpt #:    20  of    72
     total cpu time spent up to now is        6.9 secs

     Computing kpt #:    21  of    72
     total cpu time spent up to now is        7.2 secs

     Computing kpt #:    22  of    72
     total cpu time spent up to now is        7.5 secs

     Computing kpt #:    23  of    72
     total cpu time spent up to now is        7.7 secs

     Computing kpt #:    24  of    72
     total cpu time spent up to now is        8.0 secs

     Computing kpt #:    25  of    72
     total cpu time spent up to now is        8.3 secs

     Computing kpt #:    26  of    72
     total cpu time spent up to now is        8.6 secs

     Computing kpt #:    27  of    72
     total cpu time spent up to now is        8.9 secs

     Computing kpt #:    28  of    72
     total cpu time spent up to now is        9.2 secs

     Computing kpt #:    29  of    72
     total cpu time spent up to now is        9.5 secs

     Computing kpt #:    30  of    72
     total cpu time spent up to now is        9.8 secs

     Computing kpt #:    31  of    72
     total cpu time spent up to now is       10.1 secs

     Computing kpt #:    32  of    72
     total cpu time spent up to now is       10.4 secs

     Computing kpt #:    33  of    72
     total cpu time spent up to now is       10.7 secs

     Computing kpt #:    34  of    72
     total cpu time spent up to now is       11.0 secs

     Computing kpt #:    35  of    72
     total cpu time spent up to now is       11.3 secs

     Computing kpt #:    36  of    72
     total cpu time spent up to now is       11.7 secs

     Computing kpt #:    37  of    72
     total cpu time spent up to now is       12.0 secs

     Computing kpt #:    38  of    72
     total cpu time spent up to now is       12.4 secs

     Computing kpt #:    39  of    72
     total cpu time spent up to now is       12.7 secs

     Computing kpt #:    40  of    72
     total cpu time spent up to now is       13.1 secs

     Computing kpt #:    41  of    72
     total cpu time spent up to now is       13.4 secs

     Computing kpt #:    42  of    72
     total cpu time spent up to now is       13.8 secs

     Computing kpt #:    43  of    72
     total cpu time spent up to now is       14.2 secs

     Computing kpt #:    44  of    72
     total cpu time spent up to now is       14.5 secs

     Computing kpt #:    45  of    72
     total cpu time spent up to now is       14.8 secs

     Computing kpt #:    46  of    72
     total cpu time spent up to now is       15.1 secs

     Computing kpt #:    47  of    72
     total cpu time spent up to now is       15.4 secs

     Computing kpt #:    48  of    72
     total cpu time spent up to now is       15.7 secs

     Computing kpt #:    49  of    72
     total cpu time spent up to now is       16.0 secs

     Computing kpt #:    50  of    72
     total cpu time spent up to now is       16.4 secs

     Computing kpt #:    51  of    72
     total cpu time spent up to now is       16.7 secs

     Computing kpt #:    52  of    72
     total cpu time spent up to now is       17.0 secs

     Computing kpt #:    53  of    72
     total cpu time spent up to now is       17.3 secs

     Computing kpt #:    54  of    72
     total cpu time spent up to now is       17.6 secs

     Computing kpt #:    55  of    72
     total cpu time spent up to now is       17.9 secs

     Computing kpt #:    56  of    72
     total cpu time spent up to now is       18.3 secs

     Computing kpt #:    57  of    72
     total cpu time spent up to now is       18.6 secs

     Computing kpt #:    58  of    72
     total cpu time spent up to now is       18.9 secs

     Computing kpt #:    59  of    72
     total cpu time spent up to now is       19.4 secs

     Computing kpt #:    60  of    72
     total cpu time spent up to now is       19.7 secs

     Computing kpt #:    61  of    72
     total cpu time spent up to now is       20.2 secs

     Computing kpt #:    62  of    72
     total cpu time spent up to now is       20.6 secs

     Computing kpt #:    63  of    72
     total cpu time spent up to now is       20.9 secs

     Computing kpt #:    64  of    72
     total cpu time spent up to now is       21.3 secs

     Computing kpt #:    65  of    72
     total cpu time spent up to now is       21.6 secs

     Computing kpt #:    66  of    72
     total cpu time spent up to now is       22.0 secs

     Computing kpt #:    67  of    72
     total cpu time spent up to now is       22.4 secs

     Computing kpt #:    68  of    72
     total cpu time spent up to now is       22.7 secs

     Computing kpt #:    69  of    72
     total cpu time spent up to now is       23.2 secs

     Computing kpt #:    70  of    72
     total cpu time spent up to now is       23.7 secs

     Computing kpt #:    71  of    72
     total cpu time spent up to now is       24.1 secs

     Computing kpt #:    72  of    72
     total cpu time spent up to now is       24.6 secs

     ethr =  5.56E-13,  avg # of iterations = 67.3

     total cpu time spent up to now is       24.6 secs

     End of band structure calculation

          k = 0.0000 0.0000 0.0000 (  5601 PWs)   bands (ev):

    -6.0546  -3.1524  -3.1524  -3.1524  -2.8917  -2.8917   5.1230   5.1230
     5.1230   5.8897   9.7316   9.7316   9.7316

     occupation numbers 
     1.0000   1.0000   1.0000   1.0000   1.0000   1.0000   1.0000   1.0000
     1.0000   0.0000   0.0000   0.0000   0.0000

          k = 0.0589 0.0589-0.0589 (  5609 PWs)   bands (ev):

    -6.0279  -3.1473  -3.1473  -3.1326  -2.8921  -2.8921   4.4054   5.0585
     5.0585   6.4625   9.6891   9.8342   9.8342

     occupation numbers 
     1.0000   1.0000   1.0000   1.0000   1.0000   1.0000   1.0000   1.0000
     1.0000   0.0000   0.0000   0.0000   0.0000

          k = 0.1179 0.1179-0.1179 (  5564 PWs)   bands (ev):

    -5.9548  -3.1337  -3.1337  -3.0691  -2.8926  -2.8926   3.3837   4.8946
     4.8946   6.9793   9.8566  10.0739  10.0739

     occupation numbers 
     1.0000   1.0000   1.0000   1.0000   1.0000   1.0000   1.0000   1.0000
     1.0000   0.0000   0.0000   0.0000   0.0000

          k = 0.1768 0.1768-0.1768 (  5561 PWs)   bands (ev):

    -5.8547  -3.1166  -3.1166  -2.9539  -2.8916  -2.8916   2.3948   4.6938
     4.6938   7.1100  10.2869  10.2869  10.4960

     occupation numbers 
     1.0000   1.0000   1.0000   1.0000   1.0000   1.0000   1.0000   1.0000
     1.0000   0.0000   0.0000   0.0000   0.0000

          k = 0.2357 0.2357-0.2357 (  5546 PWs)   bands (ev):

    -5.7551  -3.1015  -3.1015  -2.8881  -2.8881  -2.7899   1.5390   4.5129
     4.5129   7.0474  10.3587  10.3587  11.3940

     occupation numbers 
     1.0000   1.0000   1.0000   1.0000   1.0000   1.0000   1.0000   1.0000
     1.0000   0.0000   0.0000   0.0000   0.0000

          k = 0.2946 0.2946-0.2946 (  5564 PWs)   bands (ev):

    -5.6832  -3.0921  -3.0921  -2.8837  -2.8837  -2.6195   0.9263   4.3904
     4.3904   6.9678  10.3385  10.3385  12.0724

     occupation numbers 
     1.0000   1.0000   1.0000   1.0000   1.0000   1.0000   1.0000   1.0000
     1.0000   0.0000   0.0000   0.0000   0.0000

          k =-0.3536-0.3536 0.3536 (  5564 PWs)   bands (ev):

    -5.6572  -3.0890  -3.0890  -2.8816  -2.8816  -2.5405   0.6954   4.3473
     4.3473   6.9364  10.3200  10.3200  12.2269

     occupation numbers 
     1.0000   1.0000   1.0000   1.0000   1.0000   1.0000   1.0000   1.0000
     1.0000   0.0000   0.0000   0.0000   0.0000

          k = 0.1179 0.0000 0.0000 (  5609 PWs)   bands (ev):

    -6.0191  -3.1425  -3.1425  -3.1322  -2.8949  -2.8895   4.3657   4.9424
     4.9424   6.6662   9.4133  10.0000  10.0000

     occupation numbers 
     1.0000   1.0000   1.0000   1.0000   1.0000   1.0000   1.0000   1.0000
     1.0000   0.0000   0.0000   0.0000   0.0000

          k = 0.1768 0.0589-0.0589 (  5574 PWs)   bands (ev):

    -5.9615  -3.1329  -3.1289  -3.0854  -2.8973  -2.8876   3.5991   4.7442
     4.8068   7.1794   9.2883  10.2833  10.3026

     occupation numbers 
     1.0000   1.0000   1.0000   1.0000   1.0000   1.0000   1.0000   1.0000
     1.0000   0.0000   0.0000   0.0000   0.0000

          k = 0.2357 0.1179-0.1179 (  5558 PWs)   bands (ev):

    -5.8704  -3.1187  -3.1113  -2.9903  -2.8949  -2.8856   2.6693   4.5322
     4.6128   7.4332   9.5512  10.5754  10.5860

     occupation numbers 
     1.0000   1.0000   1.0000   1.0000   1.0000   1.0000   1.0000   1.0000
     1.0000   0.0000   0.0000   0.0000   0.0000

          k = 0.2946 0.1768-0.1768 (  5552 PWs)   bands (ev):

    -5.7709  -3.1034  -3.0954  -2.9084  -2.8828  -2.8237   1.8005   4.3608
     4.3827   7.4221   9.9412  10.6727  11.0031

     occupation numbers 
     1.0000   1.0000   1.0000   1.0000   1.0000   1.0000   1.0000   1.0000
     1.0000   0.0000   0.0000   0.0000   0.0000

          k = 0.3536 0.2357-0.2357 (  5544 PWs)   bands (ev):

    -5.6902  -3.0918  -3.0853  -2.8963  -2.8803  -2.6536   1.1168   4.1781
     4.2636   7.3439  10.0628  10.6168  11.7346

     occupation numbers 
     1.0000   1.0000   1.0000   1.0000   1.0000   1.0000   1.0000   1.0000
     1.0000   0.0000   0.0000   0.0000   0.0000

          k =-0.2946-0.4125 0.4125 (  5550 PWs)   bands (ev):

    -5.6493  -3.0856  -3.0819  -2.8885  -2.8809  -2.5344   0.7557   4.0398
     4.2563   7.2950  10.0968  10.5207  12.2949

     occupation numbers 
     1.0000   1.0000   1.0000   1.0000   1.0000   1.0000   1.0000   1.0000
     1.0000   0.0000   0.0000   0.0000   0.0000

          k =-0.2357-0.3536 0.3536 (  5549 PWs)   bands (ev):

    -5.6579  -3.0851  -3.0850  -2.8857  -2.8850  -2.5609   0.8324   3.9913
     4.3393   7.3027  10.1722  10.4502  12.2180

     occupation numbers 
     1.0000   1.0000   1.0000   1.0000   1.0000   1.0000   1.0000   1.0000
     1.0000   0.0000   0.0000   0.0000   0.0000

          k =-0.1768-0.2946 0.2946 (  5546 PWs)   bands (ev):

    -5.7140  -3.0946  -3.0900  -2.8924  -2.8871  -2.7097   1.3181   4.0427
     4.4981   7.3609  10.2799  10.3983  11.5224

     occupation numbers 
     1.0000   1.0000   1.0000   1.0000   1.0000   1.0000   1.0000   1.0000
     1.0000   0.0000   0.0000   0.0000   0.0000

          k =-0.1179-0.2357 0.2357 (  5556 PWs)   bands (ev):

    -5.8039  -3.1099  -3.1012  -2.9090  -2.8971  -2.8636   2.0746   4.1937
     4.7028   7.4201  10.2115  10.2944  10.7955

     occupation numbers 
     1.0000   1.0000   1.0000   1.0000   1.0000   1.0000   1.0000   1.0000
     1.0000   0.0000   0.0000   0.0000   0.0000

          k =-0.0589-0.1768 0.1768 (  5567 PWs)   bands (ev):

    -5.9037  -3.1274  -3.1171  -3.0227  -2.8977  -2.8863   2.9638   4.4348
     4.9056   7.3351   9.7375  10.0881  10.5438

     occupation numbers 
     1.0000   1.0000   1.0000   1.0000   1.0000   1.0000   1.0000   1.0000
     1.0000   0.0000   0.0000   0.0000   0.0000

          k =-0.0000-0.1179 0.1179 (  5571 PWs)   bands (ev):

    -5.9858  -3.1416  -3.1342  -3.1012  -2.8953  -2.8897   3.8292   4.7530
     5.0432   6.9307   9.5664   9.8818  10.2194

     occupation numbers 
     1.0000   1.0000   1.0000   1.0000   1.0000   1.0000   1.0000   1.0000
     1.0000   0.0000   0.0000   0.0000   0.0000

          k = 0.2357 0.0000 0.0000 (  5569 PWs)   bands (ev):

    -5.9219  -3.1146  -3.1146  -3.0700  -2.8998  -2.8835   3.3806   4.5167
     4.5167   7.6192   8.8405  10.6906  10.6906

     occupation numbers 
     1.0000   1.0000   1.0000   1.0000   1.0000   1.0000   1.0000   1.0000
     1.0000   0.0000   0.0000   0.0000   0.0000

          k = 0.2946 0.0589-0.0589 (  5559 PWs)   bands (ev):

    -5.8467  -3.1009  -3.0957  -3.0042  -2.8905  -2.8801   2.7416   4.2814
     4.2860   7.9322   8.7840  10.9403  11.0725

     occupation numbers 
     1.0000   1.0000   1.0000   1.0000   1.0000   1.0000   1.0000   1.0000
     1.0000   0.0000   0.0000   0.0000   0.0000

          k = 0.3536 0.1179-0.1179 (  5539 PWs)   bands (ev):

    -5.7566  -3.0894  -3.0781  -2.9419  -2.8772  -2.8159   1.9949   3.9969
     4.1081   7.9907   9.1793  10.8628  11.2631

     occupation numbers 
     1.0000   1.0000   1.0000   1.0000   1.0000   1.0000   1.0000   1.0000
     1.0000   0.0000   0.0000   0.0000   0.0000

          k = 0.4125 0.1768-0.1768 (  5551 PWs)   bands (ev):

    -5.6766  -3.0800  -3.0666  -2.9211  -2.8759  -2.6581   1.3336   3.7051
     4.0165   7.9380   9.6475  11.0455  11.2246

     occupation numbers 
     1.0000   1.0000   1.0000   1.0000   1.0000   1.0000   1.0000   1.0000
     1.0000   0.0000   0.0000   0.0000   0.0000

          k =-0.2357-0.4714 0.4714 (  5550 PWs)   bands (ev):

    -5.6276  -3.0746  -3.0626  -2.9071  -2.8785  -2.5161   0.9067   3.4713
     4.0260   7.9000   9.8333  11.0783  11.7346

     occupation numbers 
     1.0000   1.0000   1.0000   1.0000   1.0000   1.0000   1.0000   1.0000
     1.0000   0.0000   0.0000   0.0000   0.0000

          k =-0.1768-0.4125 0.4125 (  5555 PWs)   bands (ev):

    -5.6214  -3.0731  -3.0661  -2.8968  -2.8856  -2.4898   0.8463   3.3381
     4.1346   7.9089   9.9342  10.9224  12.1677

     occupation numbers 
     1.0000   1.0000   1.0000   1.0000   1.0000   1.0000   1.0000   1.0000
     1.0000   0.0000   0.0000   0.0000   0.0000

          k =-0.1179-0.3536 0.3536 (  5554 PWs)   bands (ev):

    -5.6594  -3.0767  -3.0757  -2.8943  -2.8931  -2.5997   1.1715   3.3361
     4.3235   7.9541  10.0848  10.7729  11.4977

     occupation numbers 
     1.0000   1.0000   1.0000   1.0000   1.0000   1.0000   1.0000   1.0000
     1.0000   0.0000   0.0000   0.0000   0.0000

          k =-0.0589-0.2946 0.2946 (  5547 PWs)   bands (ev):

    -5.7325  -3.0933  -3.0835  -2.9002  -2.8988  -2.7611   1.7525   3.4983
     4.5557   7.9706  10.1968  10.5769  10.6904

     occupation numbers 
     1.0000   1.0000   1.0000   1.0000   1.0000   1.0000   1.0000   1.0000
     1.0000   0.0000   0.0000   0.0000   0.0000

          k = 0.0000-0.2357 0.2357 (  5558 PWs)   bands (ev):

    -5.8221  -3.1123  -3.0978  -2.9416  -2.9010  -2.8674   2.4032   3.8696
     4.7737   7.7920   9.8367  10.3073  10.6391

     occupation numbers 
     1.0000   1.0000   1.0000   1.0000   1.0000   1.0000   1.0000   1.0000
     1.0000   0.0000   0.0000   0.0000   0.0000

          k = 0.3536 0.0000 0.0000 (  5537 PWs)   bands (ev):

    -5.7899  -3.0747  -3.0747  -2.9930  -2.8754  -2.8635   2.4548   4.0353
     4.0353   8.0646   8.4588  11.6198  11.6198

     occupation numbers 
     1.0000   1.0000   1.0000   1.0000   1.0000   1.0000   1.0000   1.0000
     1.0000   0.0000   0.0000   0.0000   0.0000

          k = 0.4125 0.0589-0.0589 (  5555 PWs)   bands (ev):

    -5.7160  -3.0606  -3.0549  -2.9689  -2.8718  -2.7785   1.9461   3.7559
     3.8402   8.0819   8.5314  11.4548  11.9967

     occupation numbers 
     1.0000   1.0000   1.0000   1.0000   1.0000   1.0000   1.0000   1.0000
     1.0000   0.0000   0.0000   0.0000   0.0000

          k = 0.4714 0.1179-0.1179 (  5549 PWs)   bands (ev):

    -5.6456  -3.0557  -3.0414  -2.9500  -2.8707  -2.6337   1.4265   3.3899
     3.7376   8.0871   8.9942  11.2479  12.0560

     occupation numbers 
     1.0000   1.0000   1.0000   1.0000   1.0000   1.0000   1.0000   1.0000
     1.0000   0.0000   0.0000   0.0000   0.0000

          k =-0.1768-0.5303 0.5303 (  5558 PWs)   bands (ev):

    -5.5976  -3.0553  -3.0365  -2.9321  -2.8742  -2.4867   1.0431   3.0421
     3.7442   8.0897   9.6346  11.3223  11.8949

     occupation numbers 
     1.0000   1.0000   1.0000   1.0000   1.0000   1.0000   1.0000   1.0000
     1.0000   0.0000   0.0000   0.0000   0.0000

          k =-0.1179-0.4714 0.4714 (  5549 PWs)   bands (ev):

    -5.5833  -3.0577  -3.0404  -2.9153  -2.8825  -2.4209   0.9161   2.8069
     3.8590   8.1493  10.0393  11.6533  11.8102

     occupation numbers 
     1.0000   1.0000   1.0000   1.0000   1.0000   1.0000   1.0000   1.0000
     1.0000   0.0000   0.0000   0.0000   0.0000

          k =-0.0589-0.4125 0.4125 (  5548 PWs)   bands (ev):

    -5.6059  -3.0622  -3.0529  -2.9034  -2.8923  -2.4803   1.0779   2.7570
     4.0627   8.2465  10.2173  11.3647  11.5911

     occupation numbers 
     1.0000   1.0000   1.0000   1.0000   1.0000   1.0000   1.0000   1.0000
     1.0000   0.0000   0.0000   0.0000   0.0000

          k = 0.0000-0.3536 0.3536 (  5556 PWs)   bands (ev):

    -5.6601  -3.0721  -3.0702  -2.8989  -2.8982  -2.6180   1.4091   2.9739
     4.3157   8.2640  10.3382  10.7924  10.9918

     occupation numbers 
     1.0000   1.0000   1.0000   1.0000   1.0000   1.0000   1.0000   1.0000
     1.0000   0.0000   0.0000   0.0000   0.0000

          k = 0.4714 0.0000 0.0000 (  5558 PWs)   bands (ev):

    -5.6605  -3.0326  -3.0326  -2.9822  -2.8672  -2.7004   1.6445   3.6236
     3.6236   7.8495   8.2828  12.4885  12.6669

     occupation numbers 
     1.0000   1.0000   1.0000   1.0000   1.0000   1.0000   1.0000   1.0000
     1.0000   0.0000   0.0000   0.0000   0.0000

          k = 0.5303 0.0589-0.0589 (  5545 PWs)   bands (ev):

    -5.6060  -3.0251  -3.0171  -2.9752  -2.8652  -2.5794   1.2854   3.3552
     3.5001   7.8877   8.2980  12.3114  12.9757

     occupation numbers 
     1.0000   1.0000   1.0000   1.0000   1.0000   1.0000   1.0000   1.0000
     1.0000   0.0000   0.0000   0.0000   0.0000

          k =-0.1179-0.5893 0.5893 (  5542 PWs)   bands (ev):

    -5.5671  -3.0311  -3.0113  -2.9571  -2.8680  -2.4500   1.0198   2.9636
     3.4903   7.9458   8.8361  12.1354  12.8593

     occupation numbers 
     1.0000   1.0000   1.0000   1.0000   1.0000   1.0000   1.0000   1.0000
     1.0000   0.0000   0.0000   0.0000   0.0000

          k =-0.0589-0.5303 0.5303 (  5538 PWs)   bands (ev):

    -5.5533  -3.0402  -3.0159  -2.9370  -2.8760  -2.3730   0.9255   2.6229
     3.5959   8.0292   9.6465  12.1348  12.5070

     occupation numbers 
     1.0000   1.0000   1.0000   1.0000   1.0000   1.0000   1.0000   1.0000
     1.0000   0.0000   0.0000   0.0000   0.0000

          k =-0.0000-0.4714 0.4714 (  5526 PWs)   bands (ev):

    -5.5675  -3.0505  -3.0306  -2.9183  -2.8856  -2.3888   0.9835   2.5081
     3.7994   8.1703  10.2455  11.9945  12.1524

     occupation numbers 
     1.0000   1.0000   1.0000   1.0000   1.0000   1.0000   1.0000   1.0000
     1.0000   0.0000   0.0000   0.0000   0.0000

          k = 0.5893 0.0000 0.0000 (  5550 PWs)   bands (ev):

    -5.5689  -3.0001  -3.0001  -2.9918  -2.8613  -2.4994   1.0460   3.3519
     3.3519   7.7065   7.9796  13.4307  13.7114

     occupation numbers 
     1.0000   1.0000   1.0000   1.0000   1.0000   1.0000   1.0000   1.0000
     1.0000   0.0000   0.0000   0.0000   0.0000

          k =-0.0589-0.6482 0.6482 (  5548 PWs)   bands (ev):

    -5.5445  -3.0089  -2.9939  -2.9767  -2.8618  -2.4168   0.8835   3.1413
     3.3180   7.7927   8.0788  13.2986  13.8068

     occupation numbers 
     1.0000   1.0000   1.0000   1.0000   1.0000   1.0000   1.0000   1.0000
     1.0000   0.0000   0.0000   0.0000   0.0000

          k = 0.0000-0.5893 0.5893 (  5546 PWs)   bands (ev):

    -5.5391  -3.0233  -2.9993  -2.9581  -2.8678  -2.3682   0.8650   2.8112
     3.4039   7.8781   8.7652  12.9314  13.3031

     occupation numbers 
     1.0000   1.0000   1.0000   1.0000   1.0000   1.0000   1.0000   1.0000
     1.0000   0.0000   0.0000   0.0000   0.0000

          k =-0.7071 0.0000 0.0000 (  5514 PWs)   bands (ev):

    -5.5362  -2.9963  -2.9879  -2.9879  -2.8591  -2.4028   0.8139   3.2572
     3.2572   7.7239   7.7877  13.9616  14.2981

     occupation numbers 
     1.0000   1.0000   1.0000   1.0000   1.0000   1.0000   1.0000   1.0000
     1.0000   0.0000   0.0000   0.0000   0.0000

          k = 0.2357 0.1179-0.0000 (  5556 PWs)   bands (ev):

    -5.8950  -3.1206  -3.1106  -3.0284  -2.8983  -2.8836   3.0226   4.3161
     4.7229   7.6185   9.1658  10.5161  10.6753

     occupation numbers 
     1.0000   1.0000   1.0000   1.0000   1.0000   1.0000   1.0000   1.0000
     1.0000   0.0000   0.0000   0.0000   0.0000

          k = 0.2946 0.1768-0.0589 (  5544 PWs)   bands (ev):

    -5.8044  -3.1051  -3.0928  -2.9417  -2.8889  -2.8618   2.2765   3.9539
     4.5553   7.8586   9.4356  10.6654  10.8675

     occupation numbers 
     1.0000   1.0000   1.0000   1.0000   1.0000   1.0000   1.0000   1.0000
     1.0000   0.0000   0.0000   0.0000   0.0000

          k = 0.3536 0.2357-0.1179 (  5539 PWs)   bands (ev):

    -5.7149  -3.0899  -3.0799  -2.9121  -2.8826  -2.7292   1.5471   3.7210
     4.3488   7.8615   9.8294  10.7245  11.1554

     occupation numbers 
     1.0000   1.0000   1.0000   1.0000   1.0000   1.0000   1.0000   1.0000
     1.0000   0.0000   0.0000   0.0000   0.0000

          k =-0.2946-0.4125 0.5303 (  5543 PWs)   bands (ev):

    -5.6504  -3.0800  -3.0724  -2.9010  -2.8817  -2.5692   1.0013   3.5976
     4.1846   7.8092   9.8967  10.8149  11.7932

     occupation numbers 
     1.0000   1.0000   1.0000   1.0000   1.0000   1.0000   1.0000   1.0000
     1.0000   0.0000   0.0000   0.0000   0.0000

          k =-0.2357-0.3536 0.4714 (  5544 PWs)   bands (ev):

    -5.6272  -3.0768  -3.0699  -2.8952  -2.8831  -2.4955   0.7933   3.5605
     4.1219   7.7855   9.8797  10.8207  12.2903

     occupation numbers 
     1.0000   1.0000   1.0000   1.0000   1.0000   1.0000   1.0000   1.0000
     1.0000   0.0000   0.0000   0.0000   0.0000

          k = 0.3536 0.1179 0.0000 (  5552 PWs)   bands (ev):

    -5.7721  -3.0847  -3.0758  -2.9624  -2.8778  -2.8405   2.2405   3.8359
     4.1861   8.1901   8.7386  10.9254  11.5363

     occupation numbers 
     1.0000   1.0000   1.0000   1.0000   1.0000   1.0000   1.0000   1.0000
     1.0000   0.0000   0.0000   0.0000   0.0000

          k = 0.4125 0.1768-0.0589 (  5545 PWs)   bands (ev):

    -5.6921  -3.0722  -3.0606  -2.9397  -2.8758  -2.7142   1.6681   3.4805
     4.0078   8.2901   9.1181  10.7109  11.8455

     occupation numbers 
     1.0000   1.0000   1.0000   1.0000   1.0000   1.0000   1.0000   1.0000
     1.0000   0.0000   0.0000   0.0000   0.0000

          k =-0.2357-0.4714 0.5893 (  5552 PWs)   bands (ev):

    -5.6285  -3.0649  -3.0514  -2.9246  -2.8770  -2.5562   1.1716   3.2222
     3.8663   8.2795   9.6177  10.7750  11.9139

     occupation numbers 
     1.0000   1.0000   1.0000   1.0000   1.0000   1.0000   1.0000   1.0000
     1.0000   0.0000   0.0000   0.0000   0.0000

          k =-0.1768-0.4125 0.5303 (  5549 PWs)   bands (ev):

    -5.5973  -3.0628  -3.0489  -2.9112  -2.8823  -2.4510   0.9047   3.0505
     3.8455   8.2885   9.7858  11.1377  12.1150

     occupation numbers 
     1.0000   1.0000   1.0000   1.0000   1.0000   1.0000   1.0000   1.0000
     1.0000   0.0000   0.0000   0.0000   0.0000

          k =-0.1179-0.3536 0.4714 (  5546 PWs)   bands (ev):

    -5.6056  -3.0641  -3.0538  -2.9060  -2.8868  -2.4726   0.9709   2.9881
     3.9545   8.3313   9.8518  11.0386  12.1232

     occupation numbers 
     1.0000   1.0000   1.0000   1.0000   1.0000   1.0000   1.0000   1.0000
     1.0000   0.0000   0.0000   0.0000   0.0000

          k =-0.0589-0.2946 0.4125 (  5550 PWs)   bands (ev):

    -5.6515  -3.0711  -3.0642  -2.9124  -2.8858  -2.6022   1.3286   3.0850
     4.1559   8.3647   9.9198  10.5185  11.6850

     occupation numbers 
     1.0000   1.0000   1.0000   1.0000   1.0000   1.0000   1.0000   1.0000
     1.0000   0.0000   0.0000   0.0000   0.0000

          k = 0.0000-0.2357 0.3536 (  5555 PWs)   bands (ev):

    -5.7241  -3.0873  -3.0760  -2.9213  -2.8862  -2.7558   1.8144   3.4032
     4.3860   8.2540   9.6199  10.4489  11.2815

     occupation numbers 
     1.0000   1.0000   1.0000   1.0000   1.0000   1.0000   1.0000   1.0000
     1.0000   0.0000   0.0000   0.0000   0.0000

          k = 0.4714 0.1179 0.0000 (  5555 PWs)   bands (ev):

    -5.6520  -3.0449  -3.0389  -2.9630  -2.8695  -2.6651   1.5511   3.4396
     3.6781   8.1759   8.5097  11.4250  12.6509

     occupation numbers 
     1.0000   1.0000   1.0000   1.0000   1.0000   1.0000   1.0000   1.0000
     1.0000   0.0000   0.0000   0.0000   0.0000

          k =-0.1768-0.5303 0.6482 (  5561 PWs)   bands (ev):

    -5.5978  -3.0408  -3.0293  -2.9490  -2.8711  -2.5223   1.1911   3.0991
     3.5416   8.2813   8.9378  11.2330  12.8301

     occupation numbers 
     1.0000   1.0000   1.0000   1.0000   1.0000   1.0000   1.0000   1.0000
     1.0000   0.0000   0.0000   0.0000   0.0000

          k =-0.1179-0.4714 0.5893 (  5548 PWs)   bands (ev):

    -5.5674  -3.0441  -3.0261  -2.9320  -2.8776  -2.4085   0.9732   2.7838
     3.5396   8.3311   9.6481  11.1928  12.6114

     occupation numbers 
     1.0000   1.0000   1.0000   1.0000   1.0000   1.0000   1.0000   1.0000
     1.0000   0.0000   0.0000   0.0000   0.0000

          k =-0.0589-0.4125 0.5303 (  5545 PWs)   bands (ev):

    -5.5675  -3.0496  -3.0322  -2.9169  -2.8864  -2.3884   0.9646   2.6087
     3.6720   8.4335  10.1024  11.2072  12.4760

     occupation numbers 
     1.0000   1.0000   1.0000   1.0000   1.0000   1.0000   1.0000   1.0000
     1.0000   0.0000   0.0000   0.0000   0.0000

          k = 0.0000-0.3536 0.4714 (  5550 PWs)   bands (ev):

    -5.5979  -3.0572  -3.0470  -2.9109  -2.8895  -2.4705   1.1222   2.6872
     3.8986   8.5229  10.2206  10.6068  12.3348

     occupation numbers 
     1.0000   1.0000   1.0000   1.0000   1.0000   1.0000   1.0000   1.0000
     1.0000   0.0000   0.0000   0.0000   0.0000

          k =-0.1179-0.5893 0.7071 (  5554 PWs)   bands (ev):

    -5.5670  -3.0166  -3.0108  -2.9680  -2.8651  -2.4713   1.0396   3.1968
     3.3163   8.0473   8.2566  12.3390  13.6227

     occupation numbers 
     1.0000   1.0000   1.0000   1.0000   1.0000   1.0000   1.0000   1.0000
     1.0000   0.0000   0.0000   0.0000   0.0000

          k =-0.0589-0.5303 0.6482 (  5548 PWs)   bands (ev):

    -5.5451  -3.0239  -3.0093  -2.9516  -2.8703  -2.3803   0.9133   2.8758
     3.2922   8.1783   8.8118  12.1551  13.0577

     occupation numbers 
     1.0000   1.0000   1.0000   1.0000   1.0000   1.0000   1.0000   1.0000
     1.0000   0.0000   0.0000   0.0000   0.0000

          k =-0.0000-0.4714 0.5893 (  5545 PWs)   bands (ev):

    -5.5455  -3.0361  -3.0157  -2.9338  -2.8791  -2.3493   0.9199   2.5982
     3.4314   8.2965   9.6571  11.9004  12.2259

     occupation numbers 
     1.0000   1.0000   1.0000   1.0000   1.0000   1.0000   1.0000   1.0000
     1.0000   0.0000   0.0000   0.0000   0.0000

          k =-0.7071 0.1179 0.0000 (  5550 PWs)   bands (ev):

    -5.5366  -3.0102  -2.9990  -2.9669  -2.8638  -2.3814   0.8414   3.1361
     3.1658   8.0514   8.0939  13.2448  13.3721

     occupation numbers 
     1.0000   1.0000   1.0000   1.0000   1.0000   1.0000   1.0000   1.0000
     1.0000   0.0000   0.0000   0.0000   0.0000

          k =-0.2357-0.4714 0.7071 (  5554 PWs)   bands (ev):

    -5.6289  -3.0564  -3.0486  -2.9326  -2.8777  -2.5759   1.3365   3.0482
     3.8044   8.6892   9.2798  10.4447  12.5638

     occupation numbers 
     1.0000   1.0000   1.0000   1.0000   1.0000   1.0000   1.0000   1.0000
     1.0000   0.0000   0.0000   0.0000   0.0000

          k =-0.1768-0.4125 0.6482 (  5557 PWs)   bands (ev):

    -5.5838  -3.0496  -3.0385  -2.9220  -2.8830  -2.4445   1.0595   2.8058
     3.6035   8.8123   9.6897  10.5067  12.7694

     occupation numbers 
     1.0000   1.0000   1.0000   1.0000   1.0000   1.0000   1.0000   1.0000
     1.0000   0.0000   0.0000   0.0000   0.0000

          k =-0.1179-0.3536 0.5893 (  5548 PWs)   bands (ev):

    -5.5675  -3.0485  -3.0339  -2.9155  -2.8873  -2.3880   0.9466   2.7337
     3.5215   8.8288   9.7608  10.8906  12.4549

     occupation numbers 
     1.0000   1.0000   1.0000   1.0000   1.0000   1.0000   1.0000   1.0000
     1.0000   0.0000   0.0000   0.0000   0.0000

          k =-0.1179-0.4714 0.7071 (  5547 PWs)   bands (ev):

    -5.5616  -3.0303  -3.0270  -2.9384  -2.8765  -2.4102   1.0168   2.8783
     3.2818   8.8170   9.0256  11.0175  12.9703

     occupation numbers 
     1.0000   1.0000   1.0000   1.0000   1.0000   1.0000   1.0000   1.0000
     1.0000   0.0000   0.0000   0.0000   0.0000

          k =-0.0589-0.4125 0.6482 (  5557 PWs)   bands (ev):

    -5.5457  -3.0338  -3.0229  -2.9255  -2.8850  -2.3450   0.9444   2.6999
     3.1910   8.9612   9.6853  10.9144  12.0179

     occupation numbers 
     1.0000   1.0000   1.0000   1.0000   1.0000   1.0000   1.0000   1.0000
     1.0000   0.0000   0.0000   0.0000   0.0000

          k = 0.0000-0.3536 0.5893 (  5556 PWs)   bands (ev):

    -5.5538  -3.0399  -3.0273  -2.9187  -2.8889  -2.3603   0.9756   2.6291
     3.3352   9.0245   9.9819  10.5708  12.0782

     occupation numbers 
     1.0000   1.0000   1.0000   1.0000   1.0000   1.0000   1.0000   1.0000
     1.0000   0.0000   0.0000   0.0000   0.0000

          k =-0.7071 0.2357 0.0000 (  5542 PWs)   bands (ev):

    -5.5375  -3.0201  -3.0195  -2.9389  -2.8772  -2.3402   0.9020   2.9074
     2.9990   8.8348   8.9131  11.8353  12.1226

     occupation numbers 
     1.0000   1.0000   1.0000   1.0000   1.0000   1.0000   1.0000   1.0000
     1.0000   0.0000   0.0000   0.0000   0.0000

          k =-0.7071 0.3536 0.0000 (  5540 PWs)   bands (ev):

    -5.5379  -3.0289  -3.0233  -2.9207  -2.8899  -2.3202   0.9359   2.7971
     2.9219   9.3811   9.8058  10.7059  11.4379

     occupation numbers 
     1.0000   1.0000   1.0000   1.0000   1.0000   1.0000   1.0000   1.0000
     1.0000   0.0000   0.0000   0.0000   0.0000

     the Fermi energy is     5.5728 ev
     (compare with:     5.1230 eV, computed in scf)

     Writing all to output data dir /home/User/opencode_workspace/DFT/calculations/cdte/conv_nscf_k12/out/pwscf.save/ :
     XML data file, pseudopotentials, collected wavefunctions

     init_run     :      0.54s CPU      0.60s WALL (       1 calls)
     electrons    :     20.84s CPU     23.76s WALL (       1 calls)

     Called by init_run:
     wfcinit      :      0.00s CPU      0.00s WALL (       1 calls)
     wfcinit:atom :      0.01s CPU      0.01s WALL (      72 calls)
     wfcinit:wfcr :      0.43s CPU      0.51s WALL (      72 calls)
     potinit      :      0.11s CPU      0.11s WALL (       1 calls)
     hinit0       :      0.27s CPU      0.29s WALL (       1 calls)

     Called by electrons:
     c_bands      :     20.83s CPU     23.74s WALL (       1 calls)
     v_of_rho     :      0.02s CPU      0.02s WALL (       1 calls)
     v_h          :      0.00s CPU      0.00s WALL (       1 calls)
     v_xc         :      0.02s CPU      0.02s WALL (       1 calls)
     newd         :      0.07s CPU      0.11s WALL (       1 calls)

     Called by c_bands:
     init_us_2    :      0.01s CPU      0.02s WALL (      72 calls)
     cegterg      :     20.28s CPU     23.09s WALL (     271 calls)

     Called by sum_band:

     Called by *egterg:
     cdiaghg      :      0.86s CPU      0.93s WALL (    4920 calls)
     cegterg:over :      0.93s CPU      1.02s WALL (    4848 calls)
     cegterg:upda :      0.29s CPU      0.31s WALL (    4848 calls)
     cegterg:last :      0.65s CPU      0.68s WALL (    2788 calls)
     h_psi        :     17.01s CPU     19.63s WALL (    5191 calls)
     s_psi        :      0.30s CPU      0.34s WALL (    5191 calls)
     g_psi        :      0.17s CPU      0.18s WALL (    4848 calls)

     Called by h_psi:
     h_psi:calbec :      0.81s CPU      0.91s WALL (    5191 calls)
     vloc_psi     :     15.75s CPU     18.22s WALL (    5191 calls)
                                        0.00s GPU  (    5191 calls)
     add_vuspsi   :      0.36s CPU      0.40s WALL (    5191 calls)

     General routines
     calbec       :      0.79s CPU      0.89s WALL (    5191 calls)
     fft          :      0.13s CPU      0.13s WALL (      13 calls)
     ffts         :      0.09s CPU      0.09s WALL (       1 calls)
     fftw         :     14.72s CPU     17.04s WALL (   76806 calls)
     interpolate  :      0.09s CPU      0.09s WALL (       1 calls)
     davcio       :      0.01s CPU      0.02s WALL (     144 calls)

     Parallel routines

     PWSCF        :     21.91s CPU     25.03s WALL


   This run was terminated on:  19: 8: 2  22Sep2026            

=------------------------------------------------------------------------------=
   JOB DONE.
=------------------------------------------------------------------------------=
