
     Program PWSCF v.7.5 starts on 22Sep2026 at 19:16:36 

     This program is part of the open-source Quantum ESPRESSO suite
     for quantum simulation of materials; please cite
         "P. Giannozzi et al., J. Phys.:Condens. Matter 21 395502 (2009);
         "P. Giannozzi et al., J. Phys.:Condens. Matter 29 465901 (2017);
         "P. Giannozzi et al., J. Chem. Phys. 152 154105 (2020);
          URL http://www.quantum-espresso.org", 
     in publications or presentations arising from this work. More details at
     http://www.quantum-espresso.org/quote

     Parallel version (MPI & OpenMP), running on       6 processor cores
     Number of MPI processes:                 6
     Threads/MPI process:                     1

     MPI processes distributed on     1 nodes
     1518 MiB available memory on the printing compute node when the environment starts

     Reading input from pw.in

     Current dimensions of program PWSCF are:
     Max number of different atomic species (ntypx) = 10
     Max number of k-points (npk) =  40000
     Max angular momentum in pseudopotentials (lmaxx) =  4
     file Hg.pbe-spn-rrkjus_psl.1.0.0.UPF: wavefunction(s)  5P renormalized
     file Te.pbe-n-rrkjus_psl.1.0.0.UPF: wavefunction(s)  5S renormalized

     Atomic positions and unit cell read from directory:
     /home/User/opencode_workspace/DFT/calculations/hgte/conv_nscf_e90/out/pwscf.save/

     Message from routine setup:
     using ibrav=0 with symmetry is DISCOURAGED, use correct ibrav instead

     R & G space division:  proc/nbgrp/npool/nimage =       6
     Subspace diagonalization in iterative solution of the eigenvalue problem:
     a serial algorithm will be used


     Parallelization info
     --------------------
     sticks:   dense  smooth     PW     G-vecs:    dense   smooth      PW
     Min         457     307     86                15965     8723    1323
     Max         459     308     87                15969     8725    1326
     Sum        2749    1843    517                95801    52345    7943

     Using Slab Decomposition



     bravais-lattice index     =            0
     lattice parameter (alat)  =       8.6227  a.u.
     unit-cell volume          =     453.3375 (a.u.)^3
     number of atoms/cell      =            2
     number of atomic types    =            2
     number of electrons       =        26.00
     number of Kohn-Sham states=           17
     kinetic-energy cutoff     =      90.0000  Ry
     charge density cutoff     =     540.0000  Ry
     Exchange-correlation= PBE
                           (   1   4   3   4   0   0   0)

     celldm(1)=   8.622745  celldm(2)=   0.000000  celldm(3)=   0.000000
     celldm(4)=   0.000000  celldm(5)=   0.000000  celldm(6)=   0.000000

     crystal axes: (cart. coord. in units of alat)
               a(1) = (   0.000000   0.707107   0.707107 )  
               a(2) = (   0.707107   0.000000   0.707107 )  
               a(3) = (   0.707107   0.707107   0.000000 )  

     reciprocal axes: (cart. coord. in units 2 pi/alat)
               b(1) = ( -0.707107  0.707107  0.707107 )  
               b(2) = (  0.707107 -0.707107  0.707107 )  
               b(3) = (  0.707107  0.707107 -0.707107 )  


     PseudoPot. # 1 for Hg read from file:
     /home/User/opencode_workspace/DFT/pseudopotentials/Hg.pbe-spn-rrkjus_psl.1.0.0.UPF
     MD5 check sum: f568566075d917e14d67c96ef6763253
     Pseudo is Ultrasoft + core correction, Zval = 20.0
     Generated using &quot;atomic&quot; code by A. Dal Corso  v.6.3
     Using radial grid of 1279 points,  6 beta functions with: 
                l(1) =   0
                l(2) =   0
                l(3) =   1
                l(4) =   1
                l(5) =   2
                l(6) =   2
     Q(r) pseudized with 0 coefficients 


     PseudoPot. # 2 for Te read from file:
     /home/User/opencode_workspace/DFT/pseudopotentials/Te.pbe-n-rrkjus_psl.1.0.0.UPF
     MD5 check sum: 203a1e86ef55f0cd9de2762a27c58f54
     Pseudo is Ultrasoft + core correction, Zval =  6.0
     Generated using &quot;atomic&quot; code by A. Dal Corso  v.6.3
     Using radial grid of 1245 points,  6 beta functions with: 
                l(1) =   0
                l(2) =   0
                l(3) =   1
                l(4) =   1
                l(5) =   2
                l(6) =   2
     Q(r) pseudized with 0 coefficients 


     atomic species   valence    mass     pseudopotential
     Hg               20.00   200.59200     Hg( 1.00)
     Te                6.00   127.60000     Te( 1.00)

     24 Sym. Ops. (no inversion) found


                                    s                        frac. trans.

      isym =  1     identity                                     

 cryst.   s( 1) = (     1          0          0      )
                  (     0          1          0      )
                  (     0          0          1      )

 cart.    s( 1) = (  1.0000000  0.0000000  0.0000000 )
                  (  0.0000000  1.0000000  0.0000000 )
                  (  0.0000000  0.0000000  1.0000000 )


      isym =  2     180 deg rotation - cart. axis [0,0,1]        

 cryst.   s( 2) = (     0          1         -1      )
                  (     1          0         -1      )
                  (     0          0         -1      )

 cart.    s( 2) = ( -1.0000000  0.0000000  0.0000000 )
                  (  0.0000000 -1.0000000  0.0000000 )
                  (  0.0000000  0.0000000  1.0000000 )


      isym =  3     180 deg rotation - cart. axis [0,1,0]        

 cryst.   s( 3) = (     0         -1          1      )
                  (     0         -1          0      )
                  (     1         -1          0      )

 cart.    s( 3) = ( -1.0000000  0.0000000  0.0000000 )
                  (  0.0000000  1.0000000  0.0000000 )
                  (  0.0000000  0.0000000 -1.0000000 )


      isym =  4     180 deg rotation - cart. axis [1,0,0]        

 cryst.   s( 4) = (    -1          0          0      )
                  (    -1          0          1      )
                  (    -1          1          0      )

 cart.    s( 4) = (  1.0000000  0.0000000  0.0000000 )
                  (  0.0000000 -1.0000000  0.0000000 )
                  (  0.0000000  0.0000000 -1.0000000 )


      isym =  5     120 deg rotation - cart. axis [-1,-1,-1]     

 cryst.   s( 5) = (     0          0          1      )
                  (     1          0          0      )
                  (     0          1          0      )

 cart.    s( 5) = (  0.0000000  1.0000000  0.0000000 )
                  (  0.0000000  0.0000000  1.0000000 )
                  (  1.0000000  0.0000000  0.0000000 )


      isym =  6     120 deg rotation - cart. axis [-1,1,1]       

 cryst.   s( 6) = (     1         -1          0      )
                  (     0         -1          1      )
                  (     0         -1          0      )

 cart.    s( 6) = (  0.0000000 -1.0000000  0.0000000 )
                  (  0.0000000  0.0000000  1.0000000 )
                  ( -1.0000000  0.0000000  0.0000000 )


      isym =  7     120 deg rotation - cart. axis [1,1,-1]       

 cryst.   s( 7) = (    -1          1          0      )
                  (    -1          0          0      )
                  (    -1          0          1      )

 cart.    s( 7) = (  0.0000000  1.0000000  0.0000000 )
                  (  0.0000000  0.0000000 -1.0000000 )
                  ( -1.0000000  0.0000000  0.0000000 )


      isym =  8     120 deg rotation - cart. axis [1,-1,1]       

 cryst.   s( 8) = (     0          0         -1      )
                  (     0          1         -1      )
                  (     1          0         -1      )

 cart.    s( 8) = (  0.0000000 -1.0000000  0.0000000 )
                  (  0.0000000  0.0000000 -1.0000000 )
                  (  1.0000000  0.0000000  0.0000000 )


      isym =  9     120 deg rotation - cart. axis [1,1,1]        

 cryst.   s( 9) = (     0          1          0      )
                  (     0          0          1      )
                  (     1          0          0      )

 cart.    s( 9) = (  0.0000000  0.0000000  1.0000000 )
                  (  1.0000000  0.0000000  0.0000000 )
                  (  0.0000000  1.0000000  0.0000000 )


      isym = 10     120 deg rotation - cart. axis [-1,1,-1]      

 cryst.   s(10) = (    -1          0          1      )
                  (    -1          1          0      )
                  (    -1          0          0      )

 cart.    s(10) = (  0.0000000  0.0000000  1.0000000 )
                  ( -1.0000000  0.0000000  0.0000000 )
                  (  0.0000000 -1.0000000  0.0000000 )


      isym = 11     120 deg rotation - cart. axis [1,-1,-1]      

 cryst.   s(11) = (     1          0         -1      )
                  (     0          0         -1      )
                  (     0          1         -1      )

 cart.    s(11) = (  0.0000000  0.0000000 -1.0000000 )
                  ( -1.0000000  0.0000000  0.0000000 )
                  (  0.0000000  1.0000000  0.0000000 )


      isym = 12     120 deg rotation - cart. axis [-1,-1,1]      

 cryst.   s(12) = (     0         -1          0      )
                  (     1         -1          0      )
                  (     0         -1          1      )

 cart.    s(12) = (  0.0000000  0.0000000 -1.0000000 )
                  (  1.0000000  0.0000000  0.0000000 )
                  (  0.0000000 -1.0000000  0.0000000 )


      isym = 13     inv. 180 deg rotation - cart. axis [1,1,0]   

 cryst.   s(13) = (     1          0         -1      )
                  (     0          1         -1      )
                  (     0          0         -1      )

 cart.    s(13) = (  0.0000000 -1.0000000  0.0000000 )
                  ( -1.0000000  0.0000000  0.0000000 )
                  (  0.0000000  0.0000000  1.0000000 )


      isym = 14     inv. 180 deg rotation - cart. axis [1,-1,0]  

 cryst.   s(14) = (     0          1          0      )
                  (     1          0          0      )
                  (     0          0          1      )

 cart.    s(14) = (  0.0000000  1.0000000  0.0000000 )
                  (  1.0000000  0.0000000  0.0000000 )
                  (  0.0000000  0.0000000  1.0000000 )


      isym = 15     inv.  90 deg rotation - cart. axis [0,0,-1]  

 cryst.   s(15) = (     0         -1          0      )
                  (     0         -1          1      )
                  (     1         -1          0      )

 cart.    s(15) = (  0.0000000 -1.0000000  0.0000000 )
                  (  1.0000000  0.0000000  0.0000000 )
                  (  0.0000000  0.0000000 -1.0000000 )


      isym = 16     inv.  90 deg rotation - cart. axis [0,0,1]   

 cryst.   s(16) = (    -1          0          1      )
                  (    -1          0          0      )
                  (    -1          1          0      )

 cart.    s(16) = (  0.0000000  1.0000000  0.0000000 )
                  ( -1.0000000  0.0000000  0.0000000 )
                  (  0.0000000  0.0000000 -1.0000000 )


      isym = 17     inv. 180 deg rotation - cart. axis [1,0,1]   

 cryst.   s(17) = (     1         -1          0      )
                  (     0         -1          0      )
                  (     0         -1          1      )

 cart.    s(17) = (  0.0000000  0.0000000 -1.0000000 )
                  (  0.0000000  1.0000000  0.0000000 )
                  ( -1.0000000  0.0000000  0.0000000 )


      isym = 18     inv. 180 deg rotation - cart. axis [-1,0,1]  

 cryst.   s(18) = (     0          0          1      )
                  (     0          1          0      )
                  (     1          0          0      )

 cart.    s(18) = (  0.0000000  0.0000000  1.0000000 )
                  (  0.0000000  1.0000000  0.0000000 )
                  (  1.0000000  0.0000000  0.0000000 )


      isym = 19     inv.  90 deg rotation - cart. axis [0,1,0]   

 cryst.   s(19) = (     0          0         -1      )
                  (     1          0         -1      )
                  (     0          1         -1      )

 cart.    s(19) = (  0.0000000  0.0000000 -1.0000000 )
                  (  0.0000000 -1.0000000  0.0000000 )
                  (  1.0000000  0.0000000  0.0000000 )


      isym = 20     inv.  90 deg rotation - cart. axis [0,-1,0]  

 cryst.   s(20) = (    -1          1          0      )
                  (    -1          0          1      )
                  (    -1          0          0      )

 cart.    s(20) = (  0.0000000  0.0000000  1.0000000 )
                  (  0.0000000 -1.0000000  0.0000000 )
                  ( -1.0000000  0.0000000  0.0000000 )


      isym = 21     inv. 180 deg rotation - cart. axis [0,1,1]   

 cryst.   s(21) = (    -1          0          0      )
                  (    -1          1          0      )
                  (    -1          0          1      )

 cart.    s(21) = (  1.0000000  0.0000000  0.0000000 )
                  (  0.0000000  0.0000000 -1.0000000 )
                  (  0.0000000 -1.0000000  0.0000000 )


      isym = 22     inv. 180 deg rotation - cart. axis [0,1,-1]  

 cryst.   s(22) = (     1          0          0      )
                  (     0          0          1      )
                  (     0          1          0      )

 cart.    s(22) = (  1.0000000  0.0000000  0.0000000 )
                  (  0.0000000  0.0000000  1.0000000 )
                  (  0.0000000  1.0000000  0.0000000 )


      isym = 23     inv.  90 deg rotation - cart. axis [-1,0,0]  

 cryst.   s(23) = (     0          1         -1      )
                  (     0          0         -1      )
                  (     1          0         -1      )

 cart.    s(23) = ( -1.0000000  0.0000000  0.0000000 )
                  (  0.0000000  0.0000000 -1.0000000 )
                  (  0.0000000  1.0000000  0.0000000 )


      isym = 24     inv.  90 deg rotation - cart. axis [1,0,0]   

 cryst.   s(24) = (     0         -1          1      )
                  (     1         -1          0      )
                  (     0         -1          0      )

 cart.    s(24) = ( -1.0000000  0.0000000  0.0000000 )
                  (  0.0000000  0.0000000  1.0000000 )
                  (  0.0000000 -1.0000000  0.0000000 )


   Cartesian axes

     site n.     atom                  positions (alat units)
         1        Hg     tau(   1) = (   0.0000000   0.0000000   0.0000000  )
         2        Te     tau(   2) = (   0.3535534   0.3535534   0.3535534  )

   Crystallographic axes

     site n.     atom                  positions (cryst. coord.)
         1        Hg     tau(   1) = (  0.0000000  0.0000000  0.0000000  )
         2        Te     tau(   2) = (  0.2500000  0.2500000  0.2500000  )

     number of k points=    29 (tetrahedron method)
                       cart. coord. in units 2pi/alat
        k(    1) = (   0.0000000   0.0000000   0.0000000), wk =   0.0039062
        k(    2) = (   0.0883883   0.0883883  -0.0883883), wk =   0.0312500
        k(    3) = (   0.1767767   0.1767767  -0.1767767), wk =   0.0312500
        k(    4) = (   0.2651650   0.2651650  -0.2651650), wk =   0.0312500
        k(    5) = (  -0.3535534  -0.3535534   0.3535534), wk =   0.0156250
        k(    6) = (   0.1767767   0.0000000   0.0000000), wk =   0.0234375
        k(    7) = (   0.2651650   0.0883883  -0.0883883), wk =   0.0937500
        k(    8) = (   0.3535534   0.1767767  -0.1767767), wk =   0.0937500
        k(    9) = (  -0.2651650  -0.4419417   0.4419417), wk =   0.0937500
        k(   10) = (  -0.1767767  -0.3535534   0.3535534), wk =   0.0937500
        k(   11) = (  -0.0883883  -0.2651650   0.2651650), wk =   0.0937500
        k(   12) = (   0.0000000  -0.1767767   0.1767767), wk =   0.0468750
        k(   13) = (   0.3535534   0.0000000   0.0000000), wk =   0.0234375
        k(   14) = (   0.4419417   0.0883883  -0.0883883), wk =   0.0937500
        k(   15) = (  -0.1767767  -0.5303301   0.5303301), wk =   0.0937500
        k(   16) = (  -0.0883883  -0.4419417   0.4419417), wk =   0.0937500
        k(   17) = (   0.0000000  -0.3535534   0.3535534), wk =   0.0468750
        k(   18) = (   0.5303301   0.0000000   0.0000000), wk =   0.0234375
        k(   19) = (  -0.0883883  -0.6187184   0.6187184), wk =   0.0937500
        k(   20) = (   0.0000000  -0.5303301   0.5303301), wk =   0.0468750
        k(   21) = (  -0.7071068   0.0000000   0.0000000), wk =   0.0117188
        k(   22) = (   0.3535534   0.1767767   0.0000000), wk =   0.0937500
        k(   23) = (  -0.2651650  -0.4419417   0.6187184), wk =   0.1875000
        k(   24) = (  -0.1767767  -0.3535534   0.5303301), wk =   0.0937500
        k(   25) = (  -0.1767767  -0.5303301   0.7071068), wk =   0.0937500
        k(   26) = (  -0.0883883  -0.4419417   0.6187184), wk =   0.1875000
        k(   27) = (   0.0000000  -0.3535534   0.5303301), wk =   0.0937500
        k(   28) = (  -0.7071068   0.1767767   0.0000000), wk =   0.0468750
        k(   29) = (  -0.7071068   0.3535534   0.0000000), wk =   0.0234375

                       cryst. coord.
        k(    1) = (   0.0000000   0.0000000   0.0000000), wk =   0.0039062
        k(    2) = (   0.0000000   0.0000000   0.1250000), wk =   0.0312500
        k(    3) = (   0.0000000   0.0000000   0.2500000), wk =   0.0312500
        k(    4) = (   0.0000000   0.0000000   0.3750000), wk =   0.0312500
        k(    5) = (   0.0000000   0.0000000  -0.5000000), wk =   0.0156250
        k(    6) = (   0.0000000   0.1250000   0.1250000), wk =   0.0234375
        k(    7) = (   0.0000000   0.1250000   0.2500000), wk =   0.0937500
        k(    8) = (   0.0000000   0.1250000   0.3750000), wk =   0.0937500
        k(    9) = (   0.0000000   0.1250000  -0.5000000), wk =   0.0937500
        k(   10) = (   0.0000000   0.1250000  -0.3750000), wk =   0.0937500
        k(   11) = (   0.0000000   0.1250000  -0.2500000), wk =   0.0937500
        k(   12) = (   0.0000000   0.1250000  -0.1250000), wk =   0.0468750
        k(   13) = (   0.0000000   0.2500000   0.2500000), wk =   0.0234375
        k(   14) = (   0.0000000   0.2500000   0.3750000), wk =   0.0937500
        k(   15) = (   0.0000000   0.2500000  -0.5000000), wk =   0.0937500
        k(   16) = (   0.0000000   0.2500000  -0.3750000), wk =   0.0937500
        k(   17) = (   0.0000000   0.2500000  -0.2500000), wk =   0.0468750
        k(   18) = (   0.0000000   0.3750000   0.3750000), wk =   0.0234375
        k(   19) = (   0.0000000   0.3750000  -0.5000000), wk =   0.0937500
        k(   20) = (   0.0000000   0.3750000  -0.3750000), wk =   0.0468750
        k(   21) = (   0.0000000  -0.5000000  -0.5000000), wk =   0.0117188
        k(   22) = (   0.1250000   0.2500000   0.3750000), wk =   0.0937500
        k(   23) = (   0.1250000   0.2500000  -0.5000000), wk =   0.1875000
        k(   24) = (   0.1250000   0.2500000  -0.3750000), wk =   0.0937500
        k(   25) = (   0.1250000   0.3750000  -0.5000000), wk =   0.0937500
        k(   26) = (   0.1250000   0.3750000  -0.3750000), wk =   0.1875000
        k(   27) = (   0.1250000   0.3750000  -0.2500000), wk =   0.0937500
        k(   28) = (   0.1250000  -0.5000000  -0.3750000), wk =   0.0468750
        k(   29) = (   0.2500000  -0.5000000  -0.2500000), wk =   0.0234375

     Dense  grid:    95801 G-vectors     FFT dimensions: (  64,  64,  64)

     Smooth grid:    52345 G-vectors     FFT dimensions: (  54,  54,  54)

     Dynamical RAM for                 wfc:       0.28 MB

     Dynamical RAM for     wfc (w. buffer):       0.28 MB

     Dynamical RAM for           str. fact:       0.49 MB

     Dynamical RAM for           local pot:       0.00 MB

     Dynamical RAM for          nlocal pot:       0.60 MB

     Dynamical RAM for                qrad:       3.73 MB

     Dynamical RAM for          rho,v,vnew:       1.76 MB

     Dynamical RAM for           G-vectors:       0.98 MB

     Dynamical RAM for          h,s,v(r/c):       0.05 MB

     Dynamical RAM for          <psi|beta>:       0.01 MB

     Dynamical RAM for                 psi:       0.56 MB

     Dynamical RAM for                hpsi:       0.56 MB

     Dynamical RAM for                spsi:       0.56 MB

     Dynamical RAM for      wfcinit/wfcrot:       0.57 MB

     Dynamical RAM for           addusdens:      45.56 MB

     Estimated static dynamical RAM per process >      10.29 MB

     Estimated max dynamical RAM per process >      55.85 MB

     Estimated total dynamical RAM >     335.07 MB

     The potential is recalculated from file :
     /home/User/opencode_workspace/DFT/calculations/hgte/conv_nscf_e90/out/pwscf.save/charge-density

     Starting wfcs are   14 randomized atomic wfcs +    3 random wfcs

     Band Structure Calculation
     Davidson diagonalization with overlap

     Computing kpt #:     1  of    29
     total cpu time spent up to now is        1.7 secs

     Computing kpt #:     2  of    29
     total cpu time spent up to now is        2.1 secs

     Computing kpt #:     3  of    29
     total cpu time spent up to now is        2.4 secs

     Computing kpt #:     4  of    29
     total cpu time spent up to now is        2.7 secs

     Computing kpt #:     5  of    29
     total cpu time spent up to now is        3.0 secs

     Computing kpt #:     6  of    29
     total cpu time spent up to now is        3.3 secs

     Computing kpt #:     7  of    29
     total cpu time spent up to now is        3.6 secs

     Computing kpt #:     8  of    29
     total cpu time spent up to now is        3.9 secs

     Computing kpt #:     9  of    29
     total cpu time spent up to now is        4.2 secs

     Computing kpt #:    10  of    29
     total cpu time spent up to now is        4.5 secs

     Computing kpt #:    11  of    29
     total cpu time spent up to now is        4.9 secs

     Computing kpt #:    12  of    29
     total cpu time spent up to now is        5.2 secs

     Computing kpt #:    13  of    29
     total cpu time spent up to now is        5.5 secs

     Computing kpt #:    14  of    29
     total cpu time spent up to now is        5.9 secs

     Computing kpt #:    15  of    29
     total cpu time spent up to now is        6.2 secs

     Computing kpt #:    16  of    29
     total cpu time spent up to now is        6.5 secs

     Computing kpt #:    17  of    29
     total cpu time spent up to now is        6.8 secs

     Computing kpt #:    18  of    29
     total cpu time spent up to now is        7.1 secs

     Computing kpt #:    19  of    29
     total cpu time spent up to now is        7.5 secs

     Computing kpt #:    20  of    29
     total cpu time spent up to now is        7.8 secs

     Computing kpt #:    21  of    29
     total cpu time spent up to now is        8.2 secs

     Computing kpt #:    22  of    29
     total cpu time spent up to now is        8.5 secs

     Computing kpt #:    23  of    29
     total cpu time spent up to now is        8.8 secs

     Computing kpt #:    24  of    29
     total cpu time spent up to now is        9.2 secs

     Computing kpt #:    25  of    29
     total cpu time spent up to now is        9.6 secs

     Computing kpt #:    26  of    29
     total cpu time spent up to now is        9.9 secs

     Computing kpt #:    27  of    29
     total cpu time spent up to now is       10.3 secs

     Computing kpt #:    28  of    29
     total cpu time spent up to now is       10.6 secs

     Computing kpt #:    29  of    29
     total cpu time spent up to now is       10.9 secs

     ethr =  3.85E-13,  avg # of iterations = 40.2

     total cpu time spent up to now is       10.9 secs

     End of band structure calculation

          k = 0.0000 0.0000 0.0000 (  6567 PWs)   bands (ev):

  -107.6612 -55.9903 -55.9903 -55.9903  -4.5633   0.0896   0.0896   0.0896
     0.6260   0.6260   6.7445   7.4607   7.4607   7.4607  11.6930  11.6930
    11.6930

     occupation numbers 
     1.0000   1.0000   1.0000   1.0000   1.0000   1.0000   1.0000   1.0000
     1.0000   1.0000   1.0000   1.0000   1.0000   0.0000   0.0000   0.0000
     0.0000

          k = 0.0884 0.0884-0.0884 (  6510 PWs)   bands (ev):

  -107.6612 -55.9903 -55.9902 -55.9902  -4.4852   0.1113   0.1113   0.1184
     0.6240   0.6240   5.6126   7.2840   7.2840   8.1274  11.6160  11.9285
    11.9285

     occupation numbers 
     1.0000   1.0000   1.0000   1.0000   1.0000   1.0000   1.0000   1.0000
     1.0000   1.0000   1.0000   1.0000   1.0000   0.0000   0.0000   0.0000
     0.0000

          k = 0.1768 0.1768-0.1768 (  6525 PWs)   bands (ev):

  -107.6612 -55.9904 -55.9903 -55.9903  -4.2872   0.1600   0.1600   0.2480
     0.6257   0.6257   4.0793   6.9121   6.9121   8.3319  12.3367  12.3367
    12.3678

     occupation numbers 
     1.0000   1.0000   1.0000   1.0000   1.0000   1.0000   1.0000   1.0000
     1.0000   1.0000   1.0000   1.0000   1.0000   0.0000   0.0000   0.0000
     0.0000

          k = 0.2652 0.2652-0.2652 (  6520 PWs)   bands (ev):

  -107.6612 -55.9905 -55.9902 -55.9902  -4.0752   0.2006   0.2006   0.5723
     0.6394   0.6394   2.6979   6.5891   6.5891   8.2221  12.5005  12.5005
    13.7590

     occupation numbers 
     1.0000   1.0000   1.0000   1.0000   1.0000   1.0000   1.0000   1.0000
     1.0000   1.0000   1.0000   1.0000   1.0000   0.0000   0.0000   0.0000
     0.0000

          k =-0.3536-0.3536 0.3536 (  6550 PWs)   bands (ev):

  -107.6612 -55.9906 -55.9903 -55.9903  -3.9830   0.2143   0.2143   0.6494
     0.6494   0.9373   1.9398   6.4649   6.4649   8.1613  12.5073  12.5073
    14.3216

     occupation numbers 
     1.0000   1.0000   1.0000   1.0000   1.0000   1.0000   1.0000   1.0000
     1.0000   1.0000   1.0000   1.0000   1.0000   0.0000   0.0000   0.0000
     0.0000

          k = 0.1768 0.0000 0.0000 (  6519 PWs)   bands (ev):

  -107.6612 -55.9903 -55.9902 -55.9902  -4.4589   0.1002   0.1323   0.1323
     0.6105   0.6358   5.5278   6.9974   6.9974   8.6175  11.0014  12.3093
    12.3093

     occupation numbers 
     1.0000   1.0000   1.0000   1.0000   1.0000   1.0000   1.0000   1.0000
     1.0000   1.0000   1.0000   1.0000   1.0000  -0.0000   0.0000   0.0000
     0.0000

          k = 0.2652 0.0884-0.0884 (  6529 PWs)   bands (ev):

  -107.6612 -55.9903 -55.9903 -55.9903  -4.3000   0.1410   0.1843   0.2117
     0.6044   0.6444   4.4148   6.5795   6.5872   9.0473  11.0588  12.7607
    12.8537

     occupation numbers 
     1.0000   1.0000   1.0000   1.0000   1.0000   1.0000   1.0000   1.0000
     1.0000   1.0000   1.0000   1.0000   1.0000  -0.0000   0.0000   0.0000
     0.0000

          k = 0.3536 0.1768-0.1768 (  6535 PWs)   bands (ev):

  -107.6612 -55.9905 -55.9903 -55.9903  -4.0901   0.1950   0.2304   0.4299
     0.6410   0.6537   3.0990   6.0990   6.2927   9.0504  11.7622  13.0586
    13.1307

     occupation numbers 
     1.0000   1.0000   1.0000   1.0000   1.0000   1.0000   1.0000   1.0000
     1.0000   1.0000   1.0000   1.0000   1.0000   0.0000   0.0000   0.0000
     0.0000

          k =-0.2652-0.4419 0.4419 (  6533 PWs)   bands (ev):

  -107.6612 -55.9905 -55.9903 -55.9903  -3.9551   0.2233   0.2464   0.6056
     0.6524   0.9073   2.1061   5.7473   6.2414   8.9624  12.0541  12.9344
    14.1569

     occupation numbers 
     1.0000   1.0000   1.0000   1.0000   1.0000   1.0000   1.0000   1.0000
     1.0000   1.0000   1.0000   1.0000   1.0000   0.0000   0.0000   0.0000
     0.0000

          k =-0.1768-0.3536 0.3536 (  6531 PWs)   bands (ev):

  -107.6612 -55.9905 -55.9903 -55.9902  -3.9860   0.2267   0.2313   0.6144
     0.6301   0.7814   2.3667   5.6520   6.4549   8.9550  12.2179  12.7418
    13.9296

     occupation numbers 
     1.0000   1.0000   1.0000   1.0000   1.0000   1.0000   1.0000   1.0000
     1.0000   1.0000   1.0000   1.0000   1.0000   0.0000   0.0000   0.0000
     0.0000

          k =-0.0884-0.2652 0.2652 (  6515 PWs)   bands (ev):

  -107.6612 -55.9904 -55.9903 -55.9902  -4.1613   0.1880   0.2037   0.3521
     0.6093   0.6551   3.5199   5.8849   6.8446   8.9794  12.1859  12.4601
    12.7955

     occupation numbers 
     1.0000   1.0000   1.0000   1.0000   1.0000   1.0000   1.0000   1.0000
     1.0000   1.0000   1.0000   1.0000   1.0000   0.0000   0.0000   0.0000
     0.0000

          k = 0.0000-0.1768 0.1768 (  6507 PWs)   bands (ev):

  -107.6611 -55.9903 -55.9902 -55.9902  -4.3665   0.1361   0.1520   0.1761
     0.6104   0.6363   4.7650   6.5027   7.2100   8.7122  11.5421  12.0539
    12.5790

     occupation numbers 
     1.0000   1.0000   1.0000   1.0000   1.0000   1.0000   1.0000   1.0000
     1.0000   1.0000   1.0000   1.0000   1.0000  -0.0000   0.0000   0.0000
     0.0000

          k = 0.3536 0.0000 0.0000 (  6486 PWs)   bands (ev):

  -107.6611 -55.9903 -55.9902 -55.9902  -4.1927   0.1593   0.2455   0.2455
     0.5987   0.6596   4.0724   6.1333   6.1333   9.4306  10.4296  13.6697
    13.6697

     occupation numbers 
     1.0000   1.0000   1.0000   1.0000   1.0000   1.0000   1.0000   1.0000
     1.0000   1.0000   1.0000   1.0000   1.0000   0.0000   0.0000   0.0000
     0.0000

          k = 0.4419 0.0884-0.0884 (  6535 PWs)   bands (ev):

  -107.6612 -55.9905 -55.9903 -55.9903  -4.0210   0.2188   0.3038   0.3531
     0.6643   0.6695   3.1995   5.5911   5.8110   9.5808  10.6744  13.4699
    14.1591

     occupation numbers 
     1.0000   1.0000   1.0000   1.0000   1.0000   1.0000   1.0000   1.0000
     1.0000   1.0000   1.0000   1.0000   1.0000   0.0000   0.0000   0.0000
     0.0000

          k =-0.1768-0.5303 0.5303 (  6536 PWs)   bands (ev):

  -107.6612 -55.9905 -55.9904 -55.9903  -3.8850   0.2536   0.3259   0.4990
     0.6627   0.9168   2.3290   5.0063   5.7616   9.6456  11.4990  13.5174
    14.0248

     occupation numbers 
     1.0000   1.0000   1.0000   1.0000   1.0000   1.0000   1.0000   1.0000
     1.0000   1.0000   1.0000   1.0000   1.0000   0.0000   0.0000   0.0000
     0.0000

          k =-0.0884-0.4419 0.4419 (  6530 PWs)   bands (ev):

  -107.6612 -55.9905 -55.9904 -55.9902  -3.8717   0.2593   0.3056   0.5862
     0.6335   0.9938   2.1611   4.7088   6.0075   9.6785  12.0110  13.6183
    14.0485

     occupation numbers 
     1.0000   1.0000   1.0000   1.0000   1.0000   1.0000   1.0000   1.0000
     1.0000   1.0000   1.0000   1.0000   1.0000   0.0000   0.0000   0.0000
     0.0000

          k = 0.0000-0.3536 0.3536 (  6537 PWs)   bands (ev):

  -107.6612 -55.9905 -55.9904 -55.9903  -3.9890   0.2458   0.2500   0.5352
     0.6090   0.7201   2.8417   4.9516   6.4450   9.5861  12.2387  12.9934
    13.0488

     occupation numbers 
     1.0000   1.0000   1.0000   1.0000   1.0000   1.0000   1.0000   1.0000
     1.0000   1.0000   1.0000   1.0000   1.0000   0.0000   0.0000   0.0000
     0.0000

          k = 0.5303 0.0000 0.0000 (  6534 PWs)   bands (ev):

  -107.6612 -55.9905 -55.9903 -55.9903  -3.9049   0.2463   0.3763   0.3763
     0.6835   0.7581   2.7561   5.4341   5.4341   9.3804  10.1630  14.8797
    15.2824

     occupation numbers 
     1.0000   1.0000   1.0000   1.0000   1.0000   1.0000   1.0000   1.0000
     1.0000   1.0000   1.0000   1.0000   1.0000   0.0000   0.0000   0.0000
     0.0000

          k =-0.0884-0.6187 0.6187 (  6537 PWs)   bands (ev):

  -107.6612 -55.9905 -55.9904 -55.9903  -3.8110   0.2747   0.4055   0.4352
     0.6813   1.0049   2.1918   4.9790   5.3356   9.5508  10.4255  14.6618
    15.4259

     occupation numbers 
     1.0000   1.0000   1.0000   1.0000   1.0000   1.0000   1.0000   1.0000
     1.0000   1.0000   1.0000   1.0000   1.0000   0.0000   0.0000   0.0000
     0.0000

          k = 0.0000-0.5303 0.5303 (  6533 PWs)   bands (ev):

  -107.6612 -55.9905 -55.9904 -55.9903  -3.7979   0.2814   0.3782   0.5132
     0.6557   1.1750   1.9672   4.5234   5.5587   9.7049  11.4747  14.5108
    14.6723

     occupation numbers 
     1.0000   1.0000   1.0000   1.0000   1.0000   1.0000   1.0000   1.0000
     1.0000   1.0000   1.0000   1.0000   1.0000   0.0000   0.0000   0.0000
     0.0000

          k =-0.7071 0.0000 0.0000 (  6526 PWs)   bands (ev):

  -107.6612 -55.9906 -55.9903 -55.9903  -3.7790   0.2655   0.4371   0.4371
     0.6934   1.0881   1.9991   5.1692   5.1692   9.3561   9.9393  15.6620
    16.3944

     occupation numbers 
     1.0000   1.0000   1.0000   1.0000   1.0000   1.0000   1.0000   1.0000
     1.0000   1.0000   1.0000   1.0000   1.0000   0.0000   0.0000   0.0000
     0.0000

          k = 0.3536 0.1768 0.0000 (  6520 PWs)   bands (ev):

  -107.6612 -55.9904 -55.9903 -55.9903  -4.1336   0.1910   0.2391   0.3211
     0.6130   0.6615   3.6195   5.6681   6.4307   9.5230  11.1404  12.7440
    13.5161

     occupation numbers 
     1.0000   1.0000   1.0000   1.0000   1.0000   1.0000   1.0000   1.0000
     1.0000   1.0000   1.0000   1.0000   1.0000   0.0000   0.0000   0.0000
     0.0000

          k =-0.2652-0.4419 0.6187 (  6536 PWs)   bands (ev):

  -107.6612 -55.9905 -55.9903 -55.9903  -3.9587   0.2436   0.2738   0.5104
     0.6465   0.7661   2.6548   5.1443   6.0800   9.7067  11.7783  12.6486
    14.0675

     occupation numbers 
     1.0000   1.0000   1.0000   1.0000   1.0000   1.0000   1.0000   1.0000
     1.0000   1.0000   1.0000   1.0000   1.0000   0.0000   0.0000   0.0000
     0.0000

          k =-0.1768-0.3536 0.5303 (  6538 PWs)   bands (ev):

  -107.6612 -55.9905 -55.9903 -55.9903  -3.8837   0.2567   0.2896   0.5899
     0.6343   1.0176   2.0749   5.0024   5.9081   9.7165  11.8860  13.0738
    14.5520

     occupation numbers 
     1.0000   1.0000   1.0000   1.0000   1.0000   1.0000   1.0000   1.0000
     1.0000   1.0000   1.0000   1.0000   1.0000   0.0000   0.0000   0.0000
     0.0000

          k =-0.1768-0.5303 0.7071 (  6555 PWs)   bands (ev):

  -107.6612 -55.9905 -55.9904 -55.9904  -3.8863   0.2714   0.3372   0.4401
     0.6684   0.8386   2.5719   5.0812   5.4960   9.8805  10.8115  13.3109
    15.2816

     occupation numbers 
     1.0000   1.0000   1.0000   1.0000   1.0000   1.0000   1.0000   1.0000
     1.0000   1.0000   1.0000   1.0000   1.0000   0.0000   0.0000   0.0000
     0.0000

          k =-0.0884-0.4419 0.6187 (  6555 PWs)   bands (ev):

  -107.6612 -55.9905 -55.9904 -55.9903  -3.8111   0.2935   0.3518   0.5299
     0.6390   1.1211   2.0544   4.6725   5.3648  10.1326  11.6188  13.1759
    14.5808

     occupation numbers 
     1.0000   1.0000   1.0000   1.0000   1.0000   1.0000   1.0000   1.0000
     1.0000   1.0000   1.0000   1.0000   1.0000   0.0000   0.0000   0.0000
     0.0000

          k = 0.0000-0.3536 0.5303 (  6555 PWs)   bands (ev):

  -107.6612 -55.9905 -55.9904 -55.9903  -3.8420   0.2885   0.3189   0.5711
     0.6199   1.0218   2.1983   4.5883   5.6452  10.1533  12.1425  12.6046
    14.8190

     occupation numbers 
     1.0000   1.0000   1.0000   1.0000   1.0000   1.0000   1.0000   1.0000
     1.0000   1.0000   1.0000   1.0000   1.0000   0.0000   0.0000   0.0000
     0.0000

          k =-0.7071 0.1768 0.0000 (  6554 PWs)   bands (ev):

  -107.6612 -55.9906 -55.9904 -55.9904  -3.7797   0.2944   0.3972   0.4738
     0.6678   1.1749   1.9536   4.9627   5.0218   9.8966  10.6458  14.5959
    14.7062

     occupation numbers 
     1.0000   1.0000   1.0000   1.0000   1.0000   1.0000   1.0000   1.0000
     1.0000   1.0000   1.0000   1.0000   1.0000   0.0000   0.0000   0.0000
     0.0000

          k =-0.7071 0.3536 0.0000 (  6588 PWs)   bands (ev):

  -107.6612 -55.9906 -55.9905 -55.9904  -3.7804   0.3158   0.3638   0.5744
     0.5881   1.2581   1.9047   4.7727   4.8929  10.5837  12.0834  12.7684
    13.6402

     occupation numbers 
     1.0000   1.0000   1.0000   1.0000   1.0000   1.0000   1.0000   1.0000
     1.0000   1.0000   1.0000   1.0000   1.0000   0.0000   0.0000   0.0000
     0.0000

     the Fermi energy is     7.4618 ev
     (compare with:     7.4607 eV, computed in scf)

     Writing all to output data dir /home/User/opencode_workspace/DFT/calculations/hgte/conv_nscf_e90/out/pwscf.save/ :
     XML data file, pseudopotentials, collected wavefunctions

     init_run     :      0.72s CPU      1.20s WALL (       1 calls)
     electrons    :      8.40s CPU      9.45s WALL (       1 calls)

     Called by init_run:
     wfcinit      :      0.00s CPU      0.00s WALL (       1 calls)
     wfcinit:atom :      0.01s CPU      0.01s WALL (      29 calls)
     wfcinit:wfcr :      0.27s CPU      0.32s WALL (      29 calls)
     potinit      :      0.13s CPU      0.14s WALL (       1 calls)
     hinit0       :      0.30s CPU      0.31s WALL (       1 calls)

     Called by electrons:
     c_bands      :      8.38s CPU      9.43s WALL (       1 calls)
     v_of_rho     :      0.03s CPU      0.03s WALL (       1 calls)
     v_h          :      0.00s CPU      0.00s WALL (       1 calls)
     v_xc         :      0.03s CPU      0.03s WALL (       1 calls)
     newd         :      0.17s CPU      0.63s WALL (       1 calls)

     Called by c_bands:
     init_us_2    :      0.01s CPU      0.01s WALL (      29 calls)
     cegterg      :      8.05s CPU      9.04s WALL (      67 calls)

     Called by sum_band:

     Called by *egterg:
     cdiaghg      :      0.35s CPU      0.38s WALL (    1194 calls)
     cegterg:over :      0.37s CPU      0.40s WALL (    1165 calls)
     cegterg:upda :      0.13s CPU      0.13s WALL (    1165 calls)
     cegterg:last :      0.32s CPU      0.33s WALL (     747 calls)
     h_psi        :      6.80s CPU      7.76s WALL (    1261 calls)
     s_psi        :      0.11s CPU      0.12s WALL (    1261 calls)
     g_psi        :      0.07s CPU      0.07s WALL (    1165 calls)

     Called by h_psi:
     h_psi:calbec :      0.28s CPU      0.31s WALL (    1261 calls)
     vloc_psi     :      6.38s CPU      7.29s WALL (    1261 calls)
                                        0.00s GPU  (    1261 calls)
     add_vuspsi   :      0.12s CPU      0.14s WALL (    1261 calls)

     General routines
     calbec       :      0.27s CPU      0.30s WALL (    1261 calls)
     fft          :      0.14s CPU      0.14s WALL (      13 calls)
     ffts         :      0.10s CPU      0.10s WALL (       1 calls)
     fftw         :      5.98s CPU      6.84s WALL (   25622 calls)
     interpolate  :      0.10s CPU      0.10s WALL (       1 calls)
     davcio       :      0.01s CPU      0.01s WALL (      58 calls)

     Parallel routines

     PWSCF        :      9.39s CPU     11.02s WALL


   This run was terminated on:  19:16:47  22Sep2026            

=------------------------------------------------------------------------------=
   JOB DONE.
=------------------------------------------------------------------------------=
