
     Program PWSCF v.7.5 starts on 22Sep2026 at 22:55:42 

     This program is part of the open-source Quantum ESPRESSO suite
     for quantum simulation of materials; please cite
         "P. Giannozzi et al., J. Phys.:Condens. Matter 21 395502 (2009);
         "P. Giannozzi et al., J. Phys.:Condens. Matter 29 465901 (2017);
         "P. Giannozzi et al., J. Chem. Phys. 152 154105 (2020);
          URL http://www.quantum-espresso.org", 
     in publications or presentations arising from this work. More details at
     http://www.quantum-espresso.org/quote

     Parallel version (MPI & OpenMP), running on       6 processor cores
     Number of MPI processes:                 6
     Threads/MPI process:                     1

     MPI processes distributed on     1 nodes
     16647 MiB available memory on the printing compute node when the environment starts

     Reading input from pw_bands.in

     Current dimensions of program PWSCF are:
     Max number of different atomic species (ntypx) = 10
     Max number of k-points (npk) =  40000
     Max angular momentum in pseudopotentials (lmaxx) =  4
     file Cd.rel-pbe-n-rrkjus_psl.1.0.0.UPF: wavefunction(s)  4D 4D renormalized
     file Te.rel-pbe-n-rrkjus_psl.1.0.0.UPF: wavefunction(s)  5S renormalized

     Atomic positions and unit cell read from directory:
     /home/User/opencode_workspace/DFT/calculations/cdte/production_bands_soc/out/pwscf.save/

     Message from routine setup:
     using ibrav=0 with symmetry is DISCOURAGED, use correct ibrav instead

     R & G space division:  proc/nbgrp/npool/nimage =       6
     Subspace diagonalization in iterative solution of the eigenvalue problem:
     a serial algorithm will be used


     Parallelization info
     --------------------
     sticks:   dense  smooth     PW     G-vecs:    dense   smooth      PW
     Min         647     431    120                26742    14503    2104
     Max         649     432    121                26743    14506    2105
     Sum        3889    2587    721               160453    87027   12627

     Using Slab Decomposition



     bravais-lattice index     =            0
     lattice parameter (alat)  =       8.8545  a.u.
     unit-cell volume          =     490.8777 (a.u.)^3
     number of atoms/cell      =            2
     number of atomic types    =            2
     number of electrons       =        18.00
     number of Kohn-Sham states=           21
     kinetic-energy cutoff     =     120.0000  Ry
     charge density cutoff     =     720.0000  Ry
     Exchange-correlation= PBE
                           (   1   4   3   4   0   0   0)
     Non magnetic calculation with spin-orbit


     celldm(1)=   8.854474  celldm(2)=   0.000000  celldm(3)=   0.000000
     celldm(4)=   0.000000  celldm(5)=   0.000000  celldm(6)=   0.000000

     crystal axes: (cart. coord. in units of alat)
               a(1) = (   0.000000   0.707107   0.707107 )  
               a(2) = (   0.707107   0.000000   0.707107 )  
               a(3) = (   0.707107   0.707107   0.000000 )  

     reciprocal axes: (cart. coord. in units 2 pi/alat)
               b(1) = ( -0.707107  0.707107  0.707107 )  
               b(2) = (  0.707107 -0.707107  0.707107 )  
               b(3) = (  0.707107  0.707107 -0.707107 )  


     PseudoPot. # 1 for Cd read from file:
     /home/User/opencode_workspace/DFT/pseudopotentials/Cd.rel-pbe-n-rrkjus_psl.1.0.0.UPF
     MD5 check sum: f55a83cceeb01967e8d662641edf05f4
     Pseudo is Ultrasoft + core correction, Zval = 12.0
     Generated using &quot;atomic&quot; code by A. Dal Corso  v.6.3
     Using radial grid of 1239 points, 10 beta functions with: 
                l(1) =   0
                l(2) =   0
                l(3) =   1
                l(4) =   1
                l(5) =   1
                l(6) =   1
                l(7) =   2
                l(8) =   2
                l(9) =   2
               l(10) =   2
     Q(r) pseudized with 0 coefficients 


     PseudoPot. # 2 for Te read from file:
     /home/User/opencode_workspace/DFT/pseudopotentials/Te.rel-pbe-n-rrkjus_psl.1.0.0.UPF
     MD5 check sum: 7fd30b6833abd190471e4dcc2367351b
     Pseudo is Ultrasoft + core correction, Zval =  6.0
     Generated using &quot;atomic&quot; code by A. Dal Corso  v.6.3
     Using radial grid of 1245 points, 10 beta functions with: 
                l(1) =   0
                l(2) =   0
                l(3) =   1
                l(4) =   1
                l(5) =   1
                l(6) =   1
                l(7) =   2
                l(8) =   2
                l(9) =   2
               l(10) =   2
     Q(r) pseudized with 0 coefficients 


     atomic species   valence    mass     pseudopotential
     Cd               12.00   112.41400     Cd( 1.00)
     Te                6.00   127.60000     Te( 1.00)

     24 Sym. Ops. (no inversion) found


                                    s                        frac. trans.

      isym =  1     identity                                     

 cryst.   s( 1) = (     1          0          0      )
                  (     0          1          0      )
                  (     0          0          1      )

 cart.    s( 1) = (  1.0000000  0.0000000  0.0000000 )
                  (  0.0000000  1.0000000  0.0000000 )
                  (  0.0000000  0.0000000  1.0000000 )


      isym =  2     180 deg rotation - cart. axis [0,0,1]        

 cryst.   s( 2) = (     0          1         -1      )
                  (     1          0         -1      )
                  (     0          0         -1      )

 cart.    s( 2) = ( -1.0000000  0.0000000  0.0000000 )
                  (  0.0000000 -1.0000000  0.0000000 )
                  (  0.0000000  0.0000000  1.0000000 )


      isym =  3     180 deg rotation - cart. axis [0,1,0]        

 cryst.   s( 3) = (     0         -1          1      )
                  (     0         -1          0      )
                  (     1         -1          0      )

 cart.    s( 3) = ( -1.0000000  0.0000000  0.0000000 )
                  (  0.0000000  1.0000000  0.0000000 )
                  (  0.0000000  0.0000000 -1.0000000 )


      isym =  4     180 deg rotation - cart. axis [1,0,0]        

 cryst.   s( 4) = (    -1          0          0      )
                  (    -1          0          1      )
                  (    -1          1          0      )

 cart.    s( 4) = (  1.0000000  0.0000000  0.0000000 )
                  (  0.0000000 -1.0000000  0.0000000 )
                  (  0.0000000  0.0000000 -1.0000000 )


      isym =  5     120 deg rotation - cart. axis [-1,-1,-1]     

 cryst.   s( 5) = (     0          0          1      )
                  (     1          0          0      )
                  (     0          1          0      )

 cart.    s( 5) = (  0.0000000  1.0000000  0.0000000 )
                  (  0.0000000  0.0000000  1.0000000 )
                  (  1.0000000  0.0000000  0.0000000 )


      isym =  6     120 deg rotation - cart. axis [-1,1,1]       

 cryst.   s( 6) = (     1         -1          0      )
                  (     0         -1          1      )
                  (     0         -1          0      )

 cart.    s( 6) = (  0.0000000 -1.0000000  0.0000000 )
                  (  0.0000000  0.0000000  1.0000000 )
                  ( -1.0000000  0.0000000  0.0000000 )


      isym =  7     120 deg rotation - cart. axis [1,1,-1]       

 cryst.   s( 7) = (    -1          1          0      )
                  (    -1          0          0      )
                  (    -1          0          1      )

 cart.    s( 7) = (  0.0000000  1.0000000  0.0000000 )
                  (  0.0000000  0.0000000 -1.0000000 )
                  ( -1.0000000  0.0000000  0.0000000 )


      isym =  8     120 deg rotation - cart. axis [1,-1,1]       

 cryst.   s( 8) = (     0          0         -1      )
                  (     0          1         -1      )
                  (     1          0         -1      )

 cart.    s( 8) = (  0.0000000 -1.0000000  0.0000000 )
                  (  0.0000000  0.0000000 -1.0000000 )
                  (  1.0000000  0.0000000  0.0000000 )


      isym =  9     120 deg rotation - cart. axis [1,1,1]        

 cryst.   s( 9) = (     0          1          0      )
                  (     0          0          1      )
                  (     1          0          0      )

 cart.    s( 9) = (  0.0000000  0.0000000  1.0000000 )
                  (  1.0000000  0.0000000  0.0000000 )
                  (  0.0000000  1.0000000  0.0000000 )


      isym = 10     120 deg rotation - cart. axis [-1,1,-1]      

 cryst.   s(10) = (    -1          0          1      )
                  (    -1          1          0      )
                  (    -1          0          0      )

 cart.    s(10) = (  0.0000000  0.0000000  1.0000000 )
                  ( -1.0000000  0.0000000  0.0000000 )
                  (  0.0000000 -1.0000000  0.0000000 )


      isym = 11     120 deg rotation - cart. axis [1,-1,-1]      

 cryst.   s(11) = (     1          0         -1      )
                  (     0          0         -1      )
                  (     0          1         -1      )

 cart.    s(11) = (  0.0000000  0.0000000 -1.0000000 )
                  ( -1.0000000  0.0000000  0.0000000 )
                  (  0.0000000  1.0000000  0.0000000 )


      isym = 12     120 deg rotation - cart. axis [-1,-1,1]      

 cryst.   s(12) = (     0         -1          0      )
                  (     1         -1          0      )
                  (     0         -1          1      )

 cart.    s(12) = (  0.0000000  0.0000000 -1.0000000 )
                  (  1.0000000  0.0000000  0.0000000 )
                  (  0.0000000 -1.0000000  0.0000000 )


      isym = 13     inv. 180 deg rotation - cart. axis [1,1,0]   

 cryst.   s(13) = (     1          0         -1      )
                  (     0          1         -1      )
                  (     0          0         -1      )

 cart.    s(13) = (  0.0000000 -1.0000000  0.0000000 )
                  ( -1.0000000  0.0000000  0.0000000 )
                  (  0.0000000  0.0000000  1.0000000 )


      isym = 14     inv. 180 deg rotation - cart. axis [1,-1,0]  

 cryst.   s(14) = (     0          1          0      )
                  (     1          0          0      )
                  (     0          0          1      )

 cart.    s(14) = (  0.0000000  1.0000000  0.0000000 )
                  (  1.0000000  0.0000000  0.0000000 )
                  (  0.0000000  0.0000000  1.0000000 )


      isym = 15     inv.  90 deg rotation - cart. axis [0,0,-1]  

 cryst.   s(15) = (     0         -1          0      )
                  (     0         -1          1      )
                  (     1         -1          0      )

 cart.    s(15) = (  0.0000000 -1.0000000  0.0000000 )
                  (  1.0000000  0.0000000  0.0000000 )
                  (  0.0000000  0.0000000 -1.0000000 )


      isym = 16     inv.  90 deg rotation - cart. axis [0,0,1]   

 cryst.   s(16) = (    -1          0          1      )
                  (    -1          0          0      )
                  (    -1          1          0      )

 cart.    s(16) = (  0.0000000  1.0000000  0.0000000 )
                  ( -1.0000000  0.0000000  0.0000000 )
                  (  0.0000000  0.0000000 -1.0000000 )


      isym = 17     inv. 180 deg rotation - cart. axis [1,0,1]   

 cryst.   s(17) = (     1         -1          0      )
                  (     0         -1          0      )
                  (     0         -1          1      )

 cart.    s(17) = (  0.0000000  0.0000000 -1.0000000 )
                  (  0.0000000  1.0000000  0.0000000 )
                  ( -1.0000000  0.0000000  0.0000000 )


      isym = 18     inv. 180 deg rotation - cart. axis [-1,0,1]  

 cryst.   s(18) = (     0          0          1      )
                  (     0          1          0      )
                  (     1          0          0      )

 cart.    s(18) = (  0.0000000  0.0000000  1.0000000 )
                  (  0.0000000  1.0000000  0.0000000 )
                  (  1.0000000  0.0000000  0.0000000 )


      isym = 19     inv.  90 deg rotation - cart. axis [0,1,0]   

 cryst.   s(19) = (     0          0         -1      )
                  (     1          0         -1      )
                  (     0          1         -1      )

 cart.    s(19) = (  0.0000000  0.0000000 -1.0000000 )
                  (  0.0000000 -1.0000000  0.0000000 )
                  (  1.0000000  0.0000000  0.0000000 )


      isym = 20     inv.  90 deg rotation - cart. axis [0,-1,0]  

 cryst.   s(20) = (    -1          1          0      )
                  (    -1          0          1      )
                  (    -1          0          0      )

 cart.    s(20) = (  0.0000000  0.0000000  1.0000000 )
                  (  0.0000000 -1.0000000  0.0000000 )
                  ( -1.0000000  0.0000000  0.0000000 )


      isym = 21     inv. 180 deg rotation - cart. axis [0,1,1]   

 cryst.   s(21) = (    -1          0          0      )
                  (    -1          1          0      )
                  (    -1          0          1      )

 cart.    s(21) = (  1.0000000  0.0000000  0.0000000 )
                  (  0.0000000  0.0000000 -1.0000000 )
                  (  0.0000000 -1.0000000  0.0000000 )


      isym = 22     inv. 180 deg rotation - cart. axis [0,1,-1]  

 cryst.   s(22) = (     1          0          0      )
                  (     0          0          1      )
                  (     0          1          0      )

 cart.    s(22) = (  1.0000000  0.0000000  0.0000000 )
                  (  0.0000000  0.0000000  1.0000000 )
                  (  0.0000000  1.0000000  0.0000000 )


      isym = 23     inv.  90 deg rotation - cart. axis [-1,0,0]  

 cryst.   s(23) = (     0          1         -1      )
                  (     0          0         -1      )
                  (     1          0         -1      )

 cart.    s(23) = ( -1.0000000  0.0000000  0.0000000 )
                  (  0.0000000  0.0000000 -1.0000000 )
                  (  0.0000000  1.0000000  0.0000000 )


      isym = 24     inv.  90 deg rotation - cart. axis [1,0,0]   

 cryst.   s(24) = (     0         -1          1      )
                  (     1         -1          0      )
                  (     0         -1          0      )

 cart.    s(24) = ( -1.0000000  0.0000000  0.0000000 )
                  (  0.0000000  0.0000000  1.0000000 )
                  (  0.0000000 -1.0000000  0.0000000 )


   Cartesian axes

     site n.     atom                  positions (alat units)
         1        Cd     tau(   1) = (   0.0000000   0.0000000   0.0000000  )
         2        Te     tau(   2) = (   0.3535534   0.3535534   0.3535534  )

   Crystallographic axes

     site n.     atom                  positions (cryst. coord.)
         1        Cd     tau(   1) = (  0.0000000  0.0000000  0.0000000  )
         2        Te     tau(   2) = (  0.2500000  0.2500000  0.2500000  )

     number of k points=  1401
                       cart. coord. in units 2pi/alat
        k(    1) = (   0.0000000   0.0000000   0.0000000), wk =   0.0007138
        k(    2) = (   0.0000000   0.0022097   0.0000000), wk =   0.0007138
        k(    3) = (   0.0000000   0.0044194   0.0000000), wk =   0.0007138
        k(    4) = (   0.0000000   0.0066291   0.0000000), wk =   0.0007138
        k(    5) = (   0.0000000   0.0088388   0.0000000), wk =   0.0007138
        k(    6) = (   0.0000000   0.0110485   0.0000000), wk =   0.0007138
        k(    7) = (   0.0000000   0.0132583   0.0000000), wk =   0.0007138
        k(    8) = (   0.0000000   0.0154680   0.0000000), wk =   0.0007138
        k(    9) = (   0.0000000   0.0176777   0.0000000), wk =   0.0007138
        k(   10) = (   0.0000000   0.0198874   0.0000000), wk =   0.0007138
        k(   11) = (   0.0000000   0.0220971   0.0000000), wk =   0.0007138
        k(   12) = (   0.0000000   0.0243068   0.0000000), wk =   0.0007138
        k(   13) = (   0.0000000   0.0265165   0.0000000), wk =   0.0007138
        k(   14) = (   0.0000000   0.0287262   0.0000000), wk =   0.0007138
        k(   15) = (   0.0000000   0.0309359   0.0000000), wk =   0.0007138
        k(   16) = (   0.0000000   0.0331456   0.0000000), wk =   0.0007138
        k(   17) = (   0.0000000   0.0353553   0.0000000), wk =   0.0007138
        k(   18) = (   0.0000000   0.0375650   0.0000000), wk =   0.0007138
        k(   19) = (   0.0000000   0.0397748   0.0000000), wk =   0.0007138
        k(   20) = (   0.0000000   0.0419845   0.0000000), wk =   0.0007138
        k(   21) = (   0.0000000   0.0441942   0.0000000), wk =   0.0007138
        k(   22) = (   0.0000000   0.0464039   0.0000000), wk =   0.0007138
        k(   23) = (   0.0000000   0.0486136   0.0000000), wk =   0.0007138
        k(   24) = (   0.0000000   0.0508233   0.0000000), wk =   0.0007138
        k(   25) = (   0.0000000   0.0530330   0.0000000), wk =   0.0007138
        k(   26) = (   0.0000000   0.0552427   0.0000000), wk =   0.0007138
        k(   27) = (   0.0000000   0.0574524   0.0000000), wk =   0.0007138
        k(   28) = (   0.0000000   0.0596621   0.0000000), wk =   0.0007138
        k(   29) = (   0.0000000   0.0618718   0.0000000), wk =   0.0007138
        k(   30) = (   0.0000000   0.0640816   0.0000000), wk =   0.0007138
        k(   31) = (   0.0000000   0.0662913   0.0000000), wk =   0.0007138
        k(   32) = (   0.0000000   0.0685010   0.0000000), wk =   0.0007138
        k(   33) = (   0.0000000   0.0707107   0.0000000), wk =   0.0007138
        k(   34) = (   0.0000000   0.0729204   0.0000000), wk =   0.0007138
        k(   35) = (   0.0000000   0.0751301   0.0000000), wk =   0.0007138
        k(   36) = (   0.0000000   0.0773398   0.0000000), wk =   0.0007138
        k(   37) = (   0.0000000   0.0795495   0.0000000), wk =   0.0007138
        k(   38) = (   0.0000000   0.0817592   0.0000000), wk =   0.0007138
        k(   39) = (   0.0000000   0.0839689   0.0000000), wk =   0.0007138
        k(   40) = (   0.0000000   0.0861786   0.0000000), wk =   0.0007138
        k(   41) = (   0.0000000   0.0883883   0.0000000), wk =   0.0007138
        k(   42) = (   0.0000000   0.0905981   0.0000000), wk =   0.0007138
        k(   43) = (   0.0000000   0.0928078   0.0000000), wk =   0.0007138
        k(   44) = (   0.0000000   0.0950175   0.0000000), wk =   0.0007138
        k(   45) = (   0.0000000   0.0972272   0.0000000), wk =   0.0007138
        k(   46) = (   0.0000000   0.0994369   0.0000000), wk =   0.0007138
        k(   47) = (   0.0000000   0.1016466   0.0000000), wk =   0.0007138
        k(   48) = (   0.0000000   0.1038563   0.0000000), wk =   0.0007138
        k(   49) = (   0.0000000   0.1060660   0.0000000), wk =   0.0007138
        k(   50) = (   0.0000000   0.1082757   0.0000000), wk =   0.0007138
        k(   51) = (   0.0000000   0.1104854   0.0000000), wk =   0.0007138
        k(   52) = (   0.0000000   0.1126951   0.0000000), wk =   0.0007138
        k(   53) = (   0.0000000   0.1149049   0.0000000), wk =   0.0007138
        k(   54) = (   0.0000000   0.1171146   0.0000000), wk =   0.0007138
        k(   55) = (   0.0000000   0.1193243   0.0000000), wk =   0.0007138
        k(   56) = (   0.0000000   0.1215340   0.0000000), wk =   0.0007138
        k(   57) = (   0.0000000   0.1237437   0.0000000), wk =   0.0007138
        k(   58) = (   0.0000000   0.1259534   0.0000000), wk =   0.0007138
        k(   59) = (   0.0000000   0.1281631   0.0000000), wk =   0.0007138
        k(   60) = (   0.0000000   0.1303728   0.0000000), wk =   0.0007138
        k(   61) = (   0.0000000   0.1325825   0.0000000), wk =   0.0007138
        k(   62) = (   0.0000000   0.1347922   0.0000000), wk =   0.0007138
        k(   63) = (   0.0000000   0.1370019   0.0000000), wk =   0.0007138
        k(   64) = (   0.0000000   0.1392116   0.0000000), wk =   0.0007138
        k(   65) = (   0.0000000   0.1414214   0.0000000), wk =   0.0007138
        k(   66) = (   0.0000000   0.1436311   0.0000000), wk =   0.0007138
        k(   67) = (   0.0000000   0.1458408   0.0000000), wk =   0.0007138
        k(   68) = (   0.0000000   0.1480505   0.0000000), wk =   0.0007138
        k(   69) = (   0.0000000   0.1502602   0.0000000), wk =   0.0007138
        k(   70) = (   0.0000000   0.1524699   0.0000000), wk =   0.0007138
        k(   71) = (   0.0000000   0.1546796   0.0000000), wk =   0.0007138
        k(   72) = (   0.0000000   0.1568893   0.0000000), wk =   0.0007138
        k(   73) = (   0.0000000   0.1590990   0.0000000), wk =   0.0007138
        k(   74) = (   0.0000000   0.1613087   0.0000000), wk =   0.0007138
        k(   75) = (   0.0000000   0.1635184   0.0000000), wk =   0.0007138
        k(   76) = (   0.0000000   0.1657282   0.0000000), wk =   0.0007138
        k(   77) = (   0.0000000   0.1679379   0.0000000), wk =   0.0007138
        k(   78) = (   0.0000000   0.1701476   0.0000000), wk =   0.0007138
        k(   79) = (   0.0000000   0.1723573   0.0000000), wk =   0.0007138
        k(   80) = (   0.0000000   0.1745670   0.0000000), wk =   0.0007138
        k(   81) = (   0.0000000   0.1767767   0.0000000), wk =   0.0007138
        k(   82) = (   0.0000000   0.1789864   0.0000000), wk =   0.0007138
        k(   83) = (   0.0000000   0.1811961   0.0000000), wk =   0.0007138
        k(   84) = (   0.0000000   0.1834058   0.0000000), wk =   0.0007138
        k(   85) = (   0.0000000   0.1856155   0.0000000), wk =   0.0007138
        k(   86) = (   0.0000000   0.1878252   0.0000000), wk =   0.0007138
        k(   87) = (   0.0000000   0.1900349   0.0000000), wk =   0.0007138
        k(   88) = (   0.0000000   0.1922447   0.0000000), wk =   0.0007138
        k(   89) = (   0.0000000   0.1944544   0.0000000), wk =   0.0007138
        k(   90) = (   0.0000000   0.1966641   0.0000000), wk =   0.0007138
        k(   91) = (   0.0000000   0.1988738   0.0000000), wk =   0.0007138
        k(   92) = (   0.0000000   0.2010835   0.0000000), wk =   0.0007138
        k(   93) = (   0.0000000   0.2032932   0.0000000), wk =   0.0007138
        k(   94) = (   0.0000000   0.2055029   0.0000000), wk =   0.0007138
        k(   95) = (   0.0000000   0.2077126   0.0000000), wk =   0.0007138
        k(   96) = (   0.0000000   0.2099223   0.0000000), wk =   0.0007138
        k(   97) = (   0.0000000   0.2121320   0.0000000), wk =   0.0007138
        k(   98) = (   0.0000000   0.2143417   0.0000000), wk =   0.0007138
        k(   99) = (   0.0000000   0.2165515   0.0000000), wk =   0.0007138
        k(  100) = (   0.0000000   0.2187612   0.0000000), wk =   0.0007138
        k(  101) = (   0.0000000   0.2209709   0.0000000), wk =   0.0007138
        k(  102) = (   0.0000000   0.2231806   0.0000000), wk =   0.0007138
        k(  103) = (   0.0000000   0.2253903   0.0000000), wk =   0.0007138
        k(  104) = (   0.0000000   0.2276000   0.0000000), wk =   0.0007138
        k(  105) = (   0.0000000   0.2298097   0.0000000), wk =   0.0007138
        k(  106) = (   0.0000000   0.2320194   0.0000000), wk =   0.0007138
        k(  107) = (   0.0000000   0.2342291   0.0000000), wk =   0.0007138
        k(  108) = (   0.0000000   0.2364388   0.0000000), wk =   0.0007138
        k(  109) = (   0.0000000   0.2386485   0.0000000), wk =   0.0007138
        k(  110) = (   0.0000000   0.2408582   0.0000000), wk =   0.0007138
        k(  111) = (   0.0000000   0.2430680   0.0000000), wk =   0.0007138
        k(  112) = (   0.0000000   0.2452777   0.0000000), wk =   0.0007138
        k(  113) = (   0.0000000   0.2474874   0.0000000), wk =   0.0007138
        k(  114) = (   0.0000000   0.2496971   0.0000000), wk =   0.0007138
        k(  115) = (   0.0000000   0.2519068   0.0000000), wk =   0.0007138
        k(  116) = (   0.0000000   0.2541165   0.0000000), wk =   0.0007138
        k(  117) = (   0.0000000   0.2563262   0.0000000), wk =   0.0007138
        k(  118) = (   0.0000000   0.2585359   0.0000000), wk =   0.0007138
        k(  119) = (   0.0000000   0.2607456   0.0000000), wk =   0.0007138
        k(  120) = (   0.0000000   0.2629553   0.0000000), wk =   0.0007138
        k(  121) = (   0.0000000   0.2651650   0.0000000), wk =   0.0007138
        k(  122) = (   0.0000000   0.2673748   0.0000000), wk =   0.0007138
        k(  123) = (   0.0000000   0.2695845   0.0000000), wk =   0.0007138
        k(  124) = (   0.0000000   0.2717942   0.0000000), wk =   0.0007138
        k(  125) = (   0.0000000   0.2740039   0.0000000), wk =   0.0007138
        k(  126) = (   0.0000000   0.2762136   0.0000000), wk =   0.0007138
        k(  127) = (   0.0000000   0.2784233   0.0000000), wk =   0.0007138
        k(  128) = (   0.0000000   0.2806330   0.0000000), wk =   0.0007138
        k(  129) = (   0.0000000   0.2828427   0.0000000), wk =   0.0007138
        k(  130) = (   0.0000000   0.2850524   0.0000000), wk =   0.0007138
        k(  131) = (   0.0000000   0.2872621   0.0000000), wk =   0.0007138
        k(  132) = (   0.0000000   0.2894718   0.0000000), wk =   0.0007138
        k(  133) = (   0.0000000   0.2916815   0.0000000), wk =   0.0007138
        k(  134) = (   0.0000000   0.2938913   0.0000000), wk =   0.0007138
        k(  135) = (   0.0000000   0.2961010   0.0000000), wk =   0.0007138
        k(  136) = (   0.0000000   0.2983107   0.0000000), wk =   0.0007138
        k(  137) = (   0.0000000   0.3005204   0.0000000), wk =   0.0007138
        k(  138) = (   0.0000000   0.3027301   0.0000000), wk =   0.0007138
        k(  139) = (   0.0000000   0.3049398   0.0000000), wk =   0.0007138
        k(  140) = (   0.0000000   0.3071495   0.0000000), wk =   0.0007138
        k(  141) = (   0.0000000   0.3093592   0.0000000), wk =   0.0007138
        k(  142) = (   0.0000000   0.3115689   0.0000000), wk =   0.0007138
        k(  143) = (   0.0000000   0.3137786   0.0000000), wk =   0.0007138
        k(  144) = (   0.0000000   0.3159883   0.0000000), wk =   0.0007138
        k(  145) = (   0.0000000   0.3181981   0.0000000), wk =   0.0007138
        k(  146) = (   0.0000000   0.3204078   0.0000000), wk =   0.0007138
        k(  147) = (   0.0000000   0.3226175   0.0000000), wk =   0.0007138
        k(  148) = (   0.0000000   0.3248272   0.0000000), wk =   0.0007138
        k(  149) = (   0.0000000   0.3270369   0.0000000), wk =   0.0007138
        k(  150) = (   0.0000000   0.3292466   0.0000000), wk =   0.0007138
        k(  151) = (   0.0000000   0.3314563   0.0000000), wk =   0.0007138
        k(  152) = (   0.0000000   0.3336660   0.0000000), wk =   0.0007138
        k(  153) = (   0.0000000   0.3358757   0.0000000), wk =   0.0007138
        k(  154) = (   0.0000000   0.3380854   0.0000000), wk =   0.0007138
        k(  155) = (   0.0000000   0.3402951   0.0000000), wk =   0.0007138
        k(  156) = (   0.0000000   0.3425048   0.0000000), wk =   0.0007138
        k(  157) = (   0.0000000   0.3447146   0.0000000), wk =   0.0007138
        k(  158) = (   0.0000000   0.3469243   0.0000000), wk =   0.0007138
        k(  159) = (   0.0000000   0.3491340   0.0000000), wk =   0.0007138
        k(  160) = (   0.0000000   0.3513437   0.0000000), wk =   0.0007138
        k(  161) = (   0.0000000   0.3535534   0.0000000), wk =   0.0007138
        k(  162) = (   0.0000000   0.3557631   0.0000000), wk =   0.0007138
        k(  163) = (   0.0000000   0.3579728   0.0000000), wk =   0.0007138
        k(  164) = (   0.0000000   0.3601825   0.0000000), wk =   0.0007138
        k(  165) = (   0.0000000   0.3623922   0.0000000), wk =   0.0007138
        k(  166) = (   0.0000000   0.3646019   0.0000000), wk =   0.0007138
        k(  167) = (   0.0000000   0.3668116   0.0000000), wk =   0.0007138
        k(  168) = (   0.0000000   0.3690214   0.0000000), wk =   0.0007138
        k(  169) = (   0.0000000   0.3712311   0.0000000), wk =   0.0007138
        k(  170) = (   0.0000000   0.3734408   0.0000000), wk =   0.0007138
        k(  171) = (   0.0000000   0.3756505   0.0000000), wk =   0.0007138
        k(  172) = (   0.0000000   0.3778602   0.0000000), wk =   0.0007138
        k(  173) = (   0.0000000   0.3800699   0.0000000), wk =   0.0007138
        k(  174) = (   0.0000000   0.3822796   0.0000000), wk =   0.0007138
        k(  175) = (   0.0000000   0.3844893   0.0000000), wk =   0.0007138
        k(  176) = (   0.0000000   0.3866990   0.0000000), wk =   0.0007138
        k(  177) = (   0.0000000   0.3889087   0.0000000), wk =   0.0007138
        k(  178) = (   0.0000000   0.3911184   0.0000000), wk =   0.0007138
        k(  179) = (   0.0000000   0.3933281   0.0000000), wk =   0.0007138
        k(  180) = (   0.0000000   0.3955379   0.0000000), wk =   0.0007138
        k(  181) = (   0.0000000   0.3977476   0.0000000), wk =   0.0007138
        k(  182) = (   0.0000000   0.3999573   0.0000000), wk =   0.0007138
        k(  183) = (   0.0000000   0.4021670   0.0000000), wk =   0.0007138
        k(  184) = (   0.0000000   0.4043767   0.0000000), wk =   0.0007138
        k(  185) = (   0.0000000   0.4065864   0.0000000), wk =   0.0007138
        k(  186) = (   0.0000000   0.4087961   0.0000000), wk =   0.0007138
        k(  187) = (   0.0000000   0.4110058   0.0000000), wk =   0.0007138
        k(  188) = (   0.0000000   0.4132155   0.0000000), wk =   0.0007138
        k(  189) = (   0.0000000   0.4154252   0.0000000), wk =   0.0007138
        k(  190) = (   0.0000000   0.4176349   0.0000000), wk =   0.0007138
        k(  191) = (   0.0000000   0.4198447   0.0000000), wk =   0.0007138
        k(  192) = (   0.0000000   0.4220544   0.0000000), wk =   0.0007138
        k(  193) = (   0.0000000   0.4242641   0.0000000), wk =   0.0007138
        k(  194) = (   0.0000000   0.4264738   0.0000000), wk =   0.0007138
        k(  195) = (   0.0000000   0.4286835   0.0000000), wk =   0.0007138
        k(  196) = (   0.0000000   0.4308932   0.0000000), wk =   0.0007138
        k(  197) = (   0.0000000   0.4331029   0.0000000), wk =   0.0007138
        k(  198) = (   0.0000000   0.4353126   0.0000000), wk =   0.0007138
        k(  199) = (   0.0000000   0.4375223   0.0000000), wk =   0.0007138
        k(  200) = (   0.0000000   0.4397320   0.0000000), wk =   0.0007138
        k(  201) = (   0.0000000   0.4419417   0.0000000), wk =   0.0007138
        k(  202) = (   0.0000000   0.4441514   0.0000000), wk =   0.0007138
        k(  203) = (   0.0000000   0.4463612   0.0000000), wk =   0.0007138
        k(  204) = (   0.0000000   0.4485709   0.0000000), wk =   0.0007138
        k(  205) = (   0.0000000   0.4507806   0.0000000), wk =   0.0007138
        k(  206) = (   0.0000000   0.4529903   0.0000000), wk =   0.0007138
        k(  207) = (   0.0000000   0.4552000   0.0000000), wk =   0.0007138
        k(  208) = (   0.0000000   0.4574097   0.0000000), wk =   0.0007138
        k(  209) = (   0.0000000   0.4596194   0.0000000), wk =   0.0007138
        k(  210) = (   0.0000000   0.4618291   0.0000000), wk =   0.0007138
        k(  211) = (   0.0000000   0.4640388   0.0000000), wk =   0.0007138
        k(  212) = (   0.0000000   0.4662485   0.0000000), wk =   0.0007138
        k(  213) = (   0.0000000   0.4684582   0.0000000), wk =   0.0007138
        k(  214) = (   0.0000000   0.4706680   0.0000000), wk =   0.0007138
        k(  215) = (   0.0000000   0.4728777   0.0000000), wk =   0.0007138
        k(  216) = (   0.0000000   0.4750874   0.0000000), wk =   0.0007138
        k(  217) = (   0.0000000   0.4772971   0.0000000), wk =   0.0007138
        k(  218) = (   0.0000000   0.4795068   0.0000000), wk =   0.0007138
        k(  219) = (   0.0000000   0.4817165   0.0000000), wk =   0.0007138
        k(  220) = (   0.0000000   0.4839262   0.0000000), wk =   0.0007138
        k(  221) = (   0.0000000   0.4861359   0.0000000), wk =   0.0007138
        k(  222) = (   0.0000000   0.4883456   0.0000000), wk =   0.0007138
        k(  223) = (   0.0000000   0.4905553   0.0000000), wk =   0.0007138
        k(  224) = (   0.0000000   0.4927650   0.0000000), wk =   0.0007138
        k(  225) = (   0.0000000   0.4949747   0.0000000), wk =   0.0007138
        k(  226) = (   0.0000000   0.4971845   0.0000000), wk =   0.0007138
        k(  227) = (   0.0000000   0.4993942   0.0000000), wk =   0.0007138
        k(  228) = (   0.0000000   0.5016039   0.0000000), wk =   0.0007138
        k(  229) = (   0.0000000   0.5038136   0.0000000), wk =   0.0007138
        k(  230) = (   0.0000000   0.5060233   0.0000000), wk =   0.0007138
        k(  231) = (   0.0000000   0.5082330   0.0000000), wk =   0.0007138
        k(  232) = (   0.0000000   0.5104427   0.0000000), wk =   0.0007138
        k(  233) = (   0.0000000   0.5126524   0.0000000), wk =   0.0007138
        k(  234) = (   0.0000000   0.5148621   0.0000000), wk =   0.0007138
        k(  235) = (   0.0000000   0.5170718   0.0000000), wk =   0.0007138
        k(  236) = (   0.0000000   0.5192815   0.0000000), wk =   0.0007138
        k(  237) = (   0.0000000   0.5214913   0.0000000), wk =   0.0007138
        k(  238) = (   0.0000000   0.5237010   0.0000000), wk =   0.0007138
        k(  239) = (   0.0000000   0.5259107   0.0000000), wk =   0.0007138
        k(  240) = (   0.0000000   0.5281204   0.0000000), wk =   0.0007138
        k(  241) = (   0.0000000   0.5303301   0.0000000), wk =   0.0007138
        k(  242) = (   0.0000000   0.5325398   0.0000000), wk =   0.0007138
        k(  243) = (   0.0000000   0.5347495   0.0000000), wk =   0.0007138
        k(  244) = (   0.0000000   0.5369592   0.0000000), wk =   0.0007138
        k(  245) = (   0.0000000   0.5391689   0.0000000), wk =   0.0007138
        k(  246) = (   0.0000000   0.5413786   0.0000000), wk =   0.0007138
        k(  247) = (   0.0000000   0.5435883   0.0000000), wk =   0.0007138
        k(  248) = (   0.0000000   0.5457980   0.0000000), wk =   0.0007138
        k(  249) = (   0.0000000   0.5480078   0.0000000), wk =   0.0007138
        k(  250) = (   0.0000000   0.5502175   0.0000000), wk =   0.0007138
        k(  251) = (   0.0000000   0.5524272   0.0000000), wk =   0.0007138
        k(  252) = (   0.0000000   0.5546369   0.0000000), wk =   0.0007138
        k(  253) = (   0.0000000   0.5568466   0.0000000), wk =   0.0007138
        k(  254) = (   0.0000000   0.5590563   0.0000000), wk =   0.0007138
        k(  255) = (   0.0000000   0.5612660   0.0000000), wk =   0.0007138
        k(  256) = (   0.0000000   0.5634757   0.0000000), wk =   0.0007138
        k(  257) = (   0.0000000   0.5656854   0.0000000), wk =   0.0007138
        k(  258) = (   0.0000000   0.5678951   0.0000000), wk =   0.0007138
        k(  259) = (   0.0000000   0.5701048   0.0000000), wk =   0.0007138
        k(  260) = (   0.0000000   0.5723146   0.0000000), wk =   0.0007138
        k(  261) = (   0.0000000   0.5745243   0.0000000), wk =   0.0007138
        k(  262) = (   0.0000000   0.5767340   0.0000000), wk =   0.0007138
        k(  263) = (   0.0000000   0.5789437   0.0000000), wk =   0.0007138
        k(  264) = (   0.0000000   0.5811534   0.0000000), wk =   0.0007138
        k(  265) = (   0.0000000   0.5833631   0.0000000), wk =   0.0007138
        k(  266) = (   0.0000000   0.5855728   0.0000000), wk =   0.0007138
        k(  267) = (   0.0000000   0.5877825   0.0000000), wk =   0.0007138
        k(  268) = (   0.0000000   0.5899922   0.0000000), wk =   0.0007138
        k(  269) = (   0.0000000   0.5922019   0.0000000), wk =   0.0007138
        k(  270) = (   0.0000000   0.5944116   0.0000000), wk =   0.0007138
        k(  271) = (   0.0000000   0.5966213   0.0000000), wk =   0.0007138
        k(  272) = (   0.0000000   0.5988311   0.0000000), wk =   0.0007138
        k(  273) = (   0.0000000   0.6010408   0.0000000), wk =   0.0007138
        k(  274) = (   0.0000000   0.6032505   0.0000000), wk =   0.0007138
        k(  275) = (   0.0000000   0.6054602   0.0000000), wk =   0.0007138
        k(  276) = (   0.0000000   0.6076699   0.0000000), wk =   0.0007138
        k(  277) = (   0.0000000   0.6098796   0.0000000), wk =   0.0007138
        k(  278) = (   0.0000000   0.6120893   0.0000000), wk =   0.0007138
        k(  279) = (   0.0000000   0.6142990   0.0000000), wk =   0.0007138
        k(  280) = (   0.0000000   0.6165087   0.0000000), wk =   0.0007138
        k(  281) = (   0.0000000   0.6187184   0.0000000), wk =   0.0007138
        k(  282) = (   0.0000000   0.6209281   0.0000000), wk =   0.0007138
        k(  283) = (   0.0000000   0.6231379   0.0000000), wk =   0.0007138
        k(  284) = (   0.0000000   0.6253476   0.0000000), wk =   0.0007138
        k(  285) = (   0.0000000   0.6275573   0.0000000), wk =   0.0007138
        k(  286) = (   0.0000000   0.6297670   0.0000000), wk =   0.0007138
        k(  287) = (   0.0000000   0.6319767   0.0000000), wk =   0.0007138
        k(  288) = (   0.0000000   0.6341864   0.0000000), wk =   0.0007138
        k(  289) = (   0.0000000   0.6363961   0.0000000), wk =   0.0007138
        k(  290) = (   0.0000000   0.6386058   0.0000000), wk =   0.0007138
        k(  291) = (   0.0000000   0.6408155   0.0000000), wk =   0.0007138
        k(  292) = (   0.0000000   0.6430252   0.0000000), wk =   0.0007138
        k(  293) = (   0.0000000   0.6452349   0.0000000), wk =   0.0007138
        k(  294) = (   0.0000000   0.6474446   0.0000000), wk =   0.0007138
        k(  295) = (   0.0000000   0.6496544   0.0000000), wk =   0.0007138
        k(  296) = (   0.0000000   0.6518641   0.0000000), wk =   0.0007138
        k(  297) = (   0.0000000   0.6540738   0.0000000), wk =   0.0007138
        k(  298) = (   0.0000000   0.6562835   0.0000000), wk =   0.0007138
        k(  299) = (   0.0000000   0.6584932   0.0000000), wk =   0.0007138
        k(  300) = (   0.0000000   0.6607029   0.0000000), wk =   0.0007138
        k(  301) = (   0.0000000   0.6629126   0.0000000), wk =   0.0007138
        k(  302) = (   0.0000000   0.6651223   0.0000000), wk =   0.0007138
        k(  303) = (   0.0000000   0.6673320   0.0000000), wk =   0.0007138
        k(  304) = (   0.0000000   0.6695417   0.0000000), wk =   0.0007138
        k(  305) = (   0.0000000   0.6717514   0.0000000), wk =   0.0007138
        k(  306) = (   0.0000000   0.6739612   0.0000000), wk =   0.0007138
        k(  307) = (   0.0000000   0.6761709   0.0000000), wk =   0.0007138
        k(  308) = (   0.0000000   0.6783806   0.0000000), wk =   0.0007138
        k(  309) = (   0.0000000   0.6805903   0.0000000), wk =   0.0007138
        k(  310) = (   0.0000000   0.6828000   0.0000000), wk =   0.0007138
        k(  311) = (   0.0000000   0.6850097   0.0000000), wk =   0.0007138
        k(  312) = (   0.0000000   0.6872194   0.0000000), wk =   0.0007138
        k(  313) = (   0.0000000   0.6894291   0.0000000), wk =   0.0007138
        k(  314) = (   0.0000000   0.6916388   0.0000000), wk =   0.0007138
        k(  315) = (   0.0000000   0.6938485   0.0000000), wk =   0.0007138
        k(  316) = (   0.0000000   0.6960582   0.0000000), wk =   0.0007138
        k(  317) = (   0.0000000   0.6982679   0.0000000), wk =   0.0007138
        k(  318) = (   0.0000000   0.7004777   0.0000000), wk =   0.0007138
        k(  319) = (   0.0000000   0.7026874   0.0000000), wk =   0.0007138
        k(  320) = (   0.0000000   0.7048971   0.0000000), wk =   0.0007138
        k(  321) = (   0.0000000   0.7071068   0.0000000), wk =   0.0007138
        k(  322) = (   0.0022097   0.7071068   0.0022097), wk =   0.0007138
        k(  323) = (   0.0044194   0.7071068   0.0044194), wk =   0.0007138
        k(  324) = (   0.0066291   0.7071068   0.0066291), wk =   0.0007138
        k(  325) = (   0.0088388   0.7071068   0.0088388), wk =   0.0007138
        k(  326) = (   0.0110485   0.7071068   0.0110485), wk =   0.0007138
        k(  327) = (   0.0132583   0.7071068   0.0132583), wk =   0.0007138
        k(  328) = (   0.0154680   0.7071068   0.0154680), wk =   0.0007138
        k(  329) = (   0.0176777   0.7071068   0.0176777), wk =   0.0007138
        k(  330) = (   0.0198874   0.7071068   0.0198874), wk =   0.0007138
        k(  331) = (   0.0220971   0.7071068   0.0220971), wk =   0.0007138
        k(  332) = (   0.0243068   0.7071068   0.0243068), wk =   0.0007138
        k(  333) = (   0.0265165   0.7071068   0.0265165), wk =   0.0007138
        k(  334) = (   0.0287262   0.7071068   0.0287262), wk =   0.0007138
        k(  335) = (   0.0309359   0.7071068   0.0309359), wk =   0.0007138
        k(  336) = (   0.0331456   0.7071068   0.0331456), wk =   0.0007138
        k(  337) = (   0.0353553   0.7071068   0.0353553), wk =   0.0007138
        k(  338) = (   0.0375650   0.7071068   0.0375650), wk =   0.0007138
        k(  339) = (   0.0397748   0.7071068   0.0397748), wk =   0.0007138
        k(  340) = (   0.0419845   0.7071068   0.0419845), wk =   0.0007138
        k(  341) = (   0.0441942   0.7071068   0.0441942), wk =   0.0007138
        k(  342) = (   0.0464039   0.7071068   0.0464039), wk =   0.0007138
        k(  343) = (   0.0486136   0.7071068   0.0486136), wk =   0.0007138
        k(  344) = (   0.0508233   0.7071068   0.0508233), wk =   0.0007138
        k(  345) = (   0.0530330   0.7071068   0.0530330), wk =   0.0007138
        k(  346) = (   0.0552427   0.7071068   0.0552427), wk =   0.0007138
        k(  347) = (   0.0574524   0.7071068   0.0574524), wk =   0.0007138
        k(  348) = (   0.0596621   0.7071068   0.0596621), wk =   0.0007138
        k(  349) = (   0.0618718   0.7071068   0.0618718), wk =   0.0007138
        k(  350) = (   0.0640816   0.7071068   0.0640816), wk =   0.0007138
        k(  351) = (   0.0662913   0.7071068   0.0662913), wk =   0.0007138
        k(  352) = (   0.0685010   0.7071068   0.0685010), wk =   0.0007138
        k(  353) = (   0.0707107   0.7071068   0.0707107), wk =   0.0007138
        k(  354) = (   0.0729204   0.7071068   0.0729204), wk =   0.0007138
        k(  355) = (   0.0751301   0.7071068   0.0751301), wk =   0.0007138
        k(  356) = (   0.0773398   0.7071068   0.0773398), wk =   0.0007138
        k(  357) = (   0.0795495   0.7071068   0.0795495), wk =   0.0007138
        k(  358) = (   0.0817592   0.7071068   0.0817592), wk =   0.0007138
        k(  359) = (   0.0839689   0.7071068   0.0839689), wk =   0.0007138
        k(  360) = (   0.0861786   0.7071068   0.0861786), wk =   0.0007138
        k(  361) = (   0.0883883   0.7071068   0.0883883), wk =   0.0007138
        k(  362) = (   0.0905981   0.7071068   0.0905981), wk =   0.0007138
        k(  363) = (   0.0928078   0.7071068   0.0928078), wk =   0.0007138
        k(  364) = (   0.0950175   0.7071068   0.0950175), wk =   0.0007138
        k(  365) = (   0.0972272   0.7071068   0.0972272), wk =   0.0007138
        k(  366) = (   0.0994369   0.7071068   0.0994369), wk =   0.0007138
        k(  367) = (   0.1016466   0.7071068   0.1016466), wk =   0.0007138
        k(  368) = (   0.1038563   0.7071068   0.1038563), wk =   0.0007138
        k(  369) = (   0.1060660   0.7071068   0.1060660), wk =   0.0007138
        k(  370) = (   0.1082757   0.7071068   0.1082757), wk =   0.0007138
        k(  371) = (   0.1104854   0.7071068   0.1104854), wk =   0.0007138
        k(  372) = (   0.1126951   0.7071068   0.1126951), wk =   0.0007138
        k(  373) = (   0.1149049   0.7071068   0.1149049), wk =   0.0007138
        k(  374) = (   0.1171146   0.7071068   0.1171146), wk =   0.0007138
        k(  375) = (   0.1193243   0.7071068   0.1193243), wk =   0.0007138
        k(  376) = (   0.1215340   0.7071068   0.1215340), wk =   0.0007138
        k(  377) = (   0.1237437   0.7071068   0.1237437), wk =   0.0007138
        k(  378) = (   0.1259534   0.7071068   0.1259534), wk =   0.0007138
        k(  379) = (   0.1281631   0.7071068   0.1281631), wk =   0.0007138
        k(  380) = (   0.1303728   0.7071068   0.1303728), wk =   0.0007138
        k(  381) = (   0.1325825   0.7071068   0.1325825), wk =   0.0007138
        k(  382) = (   0.1347922   0.7071068   0.1347922), wk =   0.0007138
        k(  383) = (   0.1370019   0.7071068   0.1370019), wk =   0.0007138
        k(  384) = (   0.1392116   0.7071068   0.1392116), wk =   0.0007138
        k(  385) = (   0.1414214   0.7071068   0.1414214), wk =   0.0007138
        k(  386) = (   0.1436311   0.7071068   0.1436311), wk =   0.0007138
        k(  387) = (   0.1458408   0.7071068   0.1458408), wk =   0.0007138
        k(  388) = (   0.1480505   0.7071068   0.1480505), wk =   0.0007138
        k(  389) = (   0.1502602   0.7071068   0.1502602), wk =   0.0007138
        k(  390) = (   0.1524699   0.7071068   0.1524699), wk =   0.0007138
        k(  391) = (   0.1546796   0.7071068   0.1546796), wk =   0.0007138
        k(  392) = (   0.1568893   0.7071068   0.1568893), wk =   0.0007138
        k(  393) = (   0.1590990   0.7071068   0.1590990), wk =   0.0007138
        k(  394) = (   0.1613087   0.7071068   0.1613087), wk =   0.0007138
        k(  395) = (   0.1635184   0.7071068   0.1635184), wk =   0.0007138
        k(  396) = (   0.1657282   0.7071068   0.1657282), wk =   0.0007138
        k(  397) = (   0.1679379   0.7071068   0.1679379), wk =   0.0007138
        k(  398) = (   0.1701476   0.7071068   0.1701476), wk =   0.0007138
        k(  399) = (   0.1723573   0.7071068   0.1723573), wk =   0.0007138
        k(  400) = (   0.1745670   0.7071068   0.1745670), wk =   0.0007138
        k(  401) = (   0.1767767   0.7071068   0.1767767), wk =   0.0007138
        k(  402) = (   0.1856155   0.7026874   0.1723573), wk =   0.0007138
        k(  403) = (   0.1944544   0.6982679   0.1679379), wk =   0.0007138
        k(  404) = (   0.2032932   0.6938485   0.1635184), wk =   0.0007138
        k(  405) = (   0.2121320   0.6894291   0.1590990), wk =   0.0007138
        k(  406) = (   0.2209709   0.6850097   0.1546796), wk =   0.0007138
        k(  407) = (   0.2298097   0.6805903   0.1502602), wk =   0.0007138
        k(  408) = (   0.2386485   0.6761709   0.1458408), wk =   0.0007138
        k(  409) = (   0.2474874   0.6717514   0.1414214), wk =   0.0007138
        k(  410) = (   0.2563262   0.6673320   0.1370019), wk =   0.0007138
        k(  411) = (   0.2651650   0.6629126   0.1325825), wk =   0.0007138
        k(  412) = (   0.2740039   0.6584932   0.1281631), wk =   0.0007138
        k(  413) = (   0.2828427   0.6540738   0.1237437), wk =   0.0007138
        k(  414) = (   0.2916815   0.6496544   0.1193243), wk =   0.0007138
        k(  415) = (   0.3005204   0.6452349   0.1149049), wk =   0.0007138
        k(  416) = (   0.3093592   0.6408155   0.1104854), wk =   0.0007138
        k(  417) = (   0.3181981   0.6363961   0.1060660), wk =   0.0007138
        k(  418) = (   0.3270369   0.6319767   0.1016466), wk =   0.0007138
        k(  419) = (   0.3358757   0.6275573   0.0972272), wk =   0.0007138
        k(  420) = (   0.3447146   0.6231379   0.0928078), wk =   0.0007138
        k(  421) = (   0.3535534   0.6187184   0.0883883), wk =   0.0007138
        k(  422) = (   0.3623922   0.6142990   0.0839689), wk =   0.0007138
        k(  423) = (   0.3712311   0.6098796   0.0795495), wk =   0.0007138
        k(  424) = (   0.3800699   0.6054602   0.0751301), wk =   0.0007138
        k(  425) = (   0.3889087   0.6010408   0.0707107), wk =   0.0007138
        k(  426) = (   0.3977476   0.5966213   0.0662913), wk =   0.0007138
        k(  427) = (   0.4065864   0.5922019   0.0618718), wk =   0.0007138
        k(  428) = (   0.4154252   0.5877825   0.0574524), wk =   0.0007138
        k(  429) = (   0.4242641   0.5833631   0.0530330), wk =   0.0007138
        k(  430) = (   0.4331029   0.5789437   0.0486136), wk =   0.0007138
        k(  431) = (   0.4419417   0.5745243   0.0441942), wk =   0.0007138
        k(  432) = (   0.4507806   0.5701048   0.0397748), wk =   0.0007138
        k(  433) = (   0.4596194   0.5656854   0.0353553), wk =   0.0007138
        k(  434) = (   0.4684582   0.5612660   0.0309359), wk =   0.0007138
        k(  435) = (   0.4772971   0.5568466   0.0265165), wk =   0.0007138
        k(  436) = (   0.4861359   0.5524272   0.0220971), wk =   0.0007138
        k(  437) = (   0.4949747   0.5480078   0.0176777), wk =   0.0007138
        k(  438) = (   0.5038136   0.5435883   0.0132583), wk =   0.0007138
        k(  439) = (   0.5126524   0.5391689   0.0088388), wk =   0.0007138
        k(  440) = (   0.5214913   0.5347495   0.0044194), wk =   0.0007138
        k(  441) = (   0.5303301   0.5303301   0.0000000), wk =   0.0007138
        k(  442) = (   0.5288569   0.5288569  -0.0000000), wk =   0.0007138
        k(  443) = (   0.5273838   0.5273838   0.0000000), wk =   0.0007138
        k(  444) = (   0.5259107   0.5259107   0.0000000), wk =   0.0007138
        k(  445) = (   0.5244375   0.5244375  -0.0000000), wk =   0.0007138
        k(  446) = (   0.5229644   0.5229644   0.0000000), wk =   0.0007138
        k(  447) = (   0.5214913   0.5214913   0.0000000), wk =   0.0007138
        k(  448) = (   0.5200181   0.5200181  -0.0000000), wk =   0.0007138
        k(  449) = (   0.5185450   0.5185450   0.0000000), wk =   0.0007138
        k(  450) = (   0.5170718   0.5170718   0.0000000), wk =   0.0007138
        k(  451) = (   0.5155987   0.5155987  -0.0000000), wk =   0.0007138
        k(  452) = (   0.5141256   0.5141256   0.0000000), wk =   0.0007138
        k(  453) = (   0.5126524   0.5126524   0.0000000), wk =   0.0007138
        k(  454) = (   0.5111793   0.5111793  -0.0000000), wk =   0.0007138
        k(  455) = (   0.5097061   0.5097061   0.0000000), wk =   0.0007138
        k(  456) = (   0.5082330   0.5082330   0.0000000), wk =   0.0007138
        k(  457) = (   0.5067599   0.5067599  -0.0000000), wk =   0.0007138
        k(  458) = (   0.5052867   0.5052867   0.0000000), wk =   0.0007138
        k(  459) = (   0.5038136   0.5038136   0.0000000), wk =   0.0007138
        k(  460) = (   0.5023404   0.5023404  -0.0000000), wk =   0.0007138
        k(  461) = (   0.5008673   0.5008673   0.0000000), wk =   0.0007138
        k(  462) = (   0.4993942   0.4993942   0.0000000), wk =   0.0007138
        k(  463) = (   0.4979210   0.4979210  -0.0000000), wk =   0.0007138
        k(  464) = (   0.4964479   0.4964479   0.0000000), wk =   0.0007138
        k(  465) = (   0.4949747   0.4949747   0.0000000), wk =   0.0007138
        k(  466) = (   0.4935016   0.4935016  -0.0000000), wk =   0.0007138
        k(  467) = (   0.4920285   0.4920285   0.0000000), wk =   0.0007138
        k(  468) = (   0.4905553   0.4905553   0.0000000), wk =   0.0007138
        k(  469) = (   0.4890822   0.4890822  -0.0000000), wk =   0.0007138
        k(  470) = (   0.4876091   0.4876091   0.0000000), wk =   0.0007138
        k(  471) = (   0.4861359   0.4861359   0.0000000), wk =   0.0007138
        k(  472) = (   0.4846628   0.4846628  -0.0000000), wk =   0.0007138
        k(  473) = (   0.4831896   0.4831896   0.0000000), wk =   0.0007138
        k(  474) = (   0.4817165   0.4817165   0.0000000), wk =   0.0007138
        k(  475) = (   0.4802434   0.4802434  -0.0000000), wk =   0.0007138
        k(  476) = (   0.4787702   0.4787702   0.0000000), wk =   0.0007138
        k(  477) = (   0.4772971   0.4772971   0.0000000), wk =   0.0007138
        k(  478) = (   0.4758239   0.4758239  -0.0000000), wk =   0.0007138
        k(  479) = (   0.4743508   0.4743508   0.0000000), wk =   0.0007138
        k(  480) = (   0.4728777   0.4728777   0.0000000), wk =   0.0007138
        k(  481) = (   0.4714045   0.4714045  -0.0000000), wk =   0.0007138
        k(  482) = (   0.4699314   0.4699314   0.0000000), wk =   0.0007138
        k(  483) = (   0.4684582   0.4684582   0.0000000), wk =   0.0007138
        k(  484) = (   0.4669851   0.4669851  -0.0000000), wk =   0.0007138
        k(  485) = (   0.4655120   0.4655120   0.0000000), wk =   0.0007138
        k(  486) = (   0.4640388   0.4640388   0.0000000), wk =   0.0007138
        k(  487) = (   0.4625657   0.4625657  -0.0000000), wk =   0.0007138
        k(  488) = (   0.4610925   0.4610925   0.0000000), wk =   0.0007138
        k(  489) = (   0.4596194   0.4596194   0.0000000), wk =   0.0007138
        k(  490) = (   0.4581463   0.4581463  -0.0000000), wk =   0.0007138
        k(  491) = (   0.4566731   0.4566731   0.0000000), wk =   0.0007138
        k(  492) = (   0.4552000   0.4552000   0.0000000), wk =   0.0007138
        k(  493) = (   0.4537269   0.4537269  -0.0000000), wk =   0.0007138
        k(  494) = (   0.4522537   0.4522537   0.0000000), wk =   0.0007138
        k(  495) = (   0.4507806   0.4507806   0.0000000), wk =   0.0007138
        k(  496) = (   0.4493074   0.4493074  -0.0000000), wk =   0.0007138
        k(  497) = (   0.4478343   0.4478343   0.0000000), wk =   0.0007138
        k(  498) = (   0.4463612   0.4463612   0.0000000), wk =   0.0007138
        k(  499) = (   0.4448880   0.4448880  -0.0000000), wk =   0.0007138
        k(  500) = (   0.4434149   0.4434149   0.0000000), wk =   0.0007138
        k(  501) = (   0.4419417   0.4419417   0.0000000), wk =   0.0007138
        k(  502) = (   0.4404686   0.4404686  -0.0000000), wk =   0.0007138
        k(  503) = (   0.4389955   0.4389955   0.0000000), wk =   0.0007138
        k(  504) = (   0.4375223   0.4375223   0.0000000), wk =   0.0007138
        k(  505) = (   0.4360492   0.4360492  -0.0000000), wk =   0.0007138
        k(  506) = (   0.4345760   0.4345760   0.0000000), wk =   0.0007138
        k(  507) = (   0.4331029   0.4331029   0.0000000), wk =   0.0007138
        k(  508) = (   0.4316298   0.4316298  -0.0000000), wk =   0.0007138
        k(  509) = (   0.4301566   0.4301566   0.0000000), wk =   0.0007138
        k(  510) = (   0.4286835   0.4286835   0.0000000), wk =   0.0007138
        k(  511) = (   0.4272103   0.4272103  -0.0000000), wk =   0.0007138
        k(  512) = (   0.4257372   0.4257372   0.0000000), wk =   0.0007138
        k(  513) = (   0.4242641   0.4242641   0.0000000), wk =   0.0007138
        k(  514) = (   0.4227909   0.4227909  -0.0000000), wk =   0.0007138
        k(  515) = (   0.4213178   0.4213178   0.0000000), wk =   0.0007138
        k(  516) = (   0.4198447   0.4198447   0.0000000), wk =   0.0007138
        k(  517) = (   0.4183715   0.4183715  -0.0000000), wk =   0.0007138
        k(  518) = (   0.4168984   0.4168984   0.0000000), wk =   0.0007138
        k(  519) = (   0.4154252   0.4154252   0.0000000), wk =   0.0007138
        k(  520) = (   0.4139521   0.4139521  -0.0000000), wk =   0.0007138
        k(  521) = (   0.4124790   0.4124790   0.0000000), wk =   0.0007138
        k(  522) = (   0.4110058   0.4110058   0.0000000), wk =   0.0007138
        k(  523) = (   0.4095327   0.4095327  -0.0000000), wk =   0.0007138
        k(  524) = (   0.4080595   0.4080595   0.0000000), wk =   0.0007138
        k(  525) = (   0.4065864   0.4065864   0.0000000), wk =   0.0007138
        k(  526) = (   0.4051133   0.4051133  -0.0000000), wk =   0.0007138
        k(  527) = (   0.4036401   0.4036401   0.0000000), wk =   0.0007138
        k(  528) = (   0.4021670   0.4021670   0.0000000), wk =   0.0007138
        k(  529) = (   0.4006938   0.4006938  -0.0000000), wk =   0.0007138
        k(  530) = (   0.3992207   0.3992207   0.0000000), wk =   0.0007138
        k(  531) = (   0.3977476   0.3977476   0.0000000), wk =   0.0007138
        k(  532) = (   0.3962744   0.3962744  -0.0000000), wk =   0.0007138
        k(  533) = (   0.3948013   0.3948013   0.0000000), wk =   0.0007138
        k(  534) = (   0.3933281   0.3933281   0.0000000), wk =   0.0007138
        k(  535) = (   0.3918550   0.3918550  -0.0000000), wk =   0.0007138
        k(  536) = (   0.3903819   0.3903819   0.0000000), wk =   0.0007138
        k(  537) = (   0.3889087   0.3889087   0.0000000), wk =   0.0007138
        k(  538) = (   0.3874356   0.3874356  -0.0000000), wk =   0.0007138
        k(  539) = (   0.3859625   0.3859625   0.0000000), wk =   0.0007138
        k(  540) = (   0.3844893   0.3844893   0.0000000), wk =   0.0007138
        k(  541) = (   0.3830162   0.3830162  -0.0000000), wk =   0.0007138
        k(  542) = (   0.3815430   0.3815430   0.0000000), wk =   0.0007138
        k(  543) = (   0.3800699   0.3800699   0.0000000), wk =   0.0007138
        k(  544) = (   0.3785968   0.3785968  -0.0000000), wk =   0.0007138
        k(  545) = (   0.3771236   0.3771236   0.0000000), wk =   0.0007138
        k(  546) = (   0.3756505   0.3756505   0.0000000), wk =   0.0007138
        k(  547) = (   0.3741773   0.3741773  -0.0000000), wk =   0.0007138
        k(  548) = (   0.3727042   0.3727042   0.0000000), wk =   0.0007138
        k(  549) = (   0.3712311   0.3712311   0.0000000), wk =   0.0007138
        k(  550) = (   0.3697579   0.3697579  -0.0000000), wk =   0.0007138
        k(  551) = (   0.3682848   0.3682848   0.0000000), wk =   0.0007138
        k(  552) = (   0.3668116   0.3668116   0.0000000), wk =   0.0007138
        k(  553) = (   0.3653385   0.3653385  -0.0000000), wk =   0.0007138
        k(  554) = (   0.3638654   0.3638654   0.0000000), wk =   0.0007138
        k(  555) = (   0.3623922   0.3623922   0.0000000), wk =   0.0007138
        k(  556) = (   0.3609191   0.3609191  -0.0000000), wk =   0.0007138
        k(  557) = (   0.3594459   0.3594459   0.0000000), wk =   0.0007138
        k(  558) = (   0.3579728   0.3579728   0.0000000), wk =   0.0007138
        k(  559) = (   0.3564997   0.3564997  -0.0000000), wk =   0.0007138
        k(  560) = (   0.3550265   0.3550265   0.0000000), wk =   0.0007138
        k(  561) = (   0.3535534   0.3535534   0.0000000), wk =   0.0007138
        k(  562) = (   0.3520803   0.3520803  -0.0000000), wk =   0.0007138
        k(  563) = (   0.3506071   0.3506071   0.0000000), wk =   0.0007138
        k(  564) = (   0.3491340   0.3491340   0.0000000), wk =   0.0007138
        k(  565) = (   0.3476608   0.3476608  -0.0000000), wk =   0.0007138
        k(  566) = (   0.3461877   0.3461877   0.0000000), wk =   0.0007138
        k(  567) = (   0.3447146   0.3447146   0.0000000), wk =   0.0007138
        k(  568) = (   0.3432414   0.3432414  -0.0000000), wk =   0.0007138
        k(  569) = (   0.3417683   0.3417683   0.0000000), wk =   0.0007138
        k(  570) = (   0.3402951   0.3402951   0.0000000), wk =   0.0007138
        k(  571) = (   0.3388220   0.3388220  -0.0000000), wk =   0.0007138
        k(  572) = (   0.3373489   0.3373489   0.0000000), wk =   0.0007138
        k(  573) = (   0.3358757   0.3358757   0.0000000), wk =   0.0007138
        k(  574) = (   0.3344026   0.3344026  -0.0000000), wk =   0.0007138
        k(  575) = (   0.3329294   0.3329294   0.0000000), wk =   0.0007138
        k(  576) = (   0.3314563   0.3314563   0.0000000), wk =   0.0007138
        k(  577) = (   0.3299832   0.3299832  -0.0000000), wk =   0.0007138
        k(  578) = (   0.3285100   0.3285100   0.0000000), wk =   0.0007138
        k(  579) = (   0.3270369   0.3270369   0.0000000), wk =   0.0007138
        k(  580) = (   0.3255637   0.3255637  -0.0000000), wk =   0.0007138
        k(  581) = (   0.3240906   0.3240906   0.0000000), wk =   0.0007138
        k(  582) = (   0.3226175   0.3226175   0.0000000), wk =   0.0007138
        k(  583) = (   0.3211443   0.3211443  -0.0000000), wk =   0.0007138
        k(  584) = (   0.3196712   0.3196712   0.0000000), wk =   0.0007138
        k(  585) = (   0.3181981   0.3181981   0.0000000), wk =   0.0007138
        k(  586) = (   0.3167249   0.3167249  -0.0000000), wk =   0.0007138
        k(  587) = (   0.3152518   0.3152518   0.0000000), wk =   0.0007138
        k(  588) = (   0.3137786   0.3137786   0.0000000), wk =   0.0007138
        k(  589) = (   0.3123055   0.3123055  -0.0000000), wk =   0.0007138
        k(  590) = (   0.3108324   0.3108324   0.0000000), wk =   0.0007138
        k(  591) = (   0.3093592   0.3093592   0.0000000), wk =   0.0007138
        k(  592) = (   0.3078861   0.3078861  -0.0000000), wk =   0.0007138
        k(  593) = (   0.3064129   0.3064129   0.0000000), wk =   0.0007138
        k(  594) = (   0.3049398   0.3049398   0.0000000), wk =   0.0007138
        k(  595) = (   0.3034667   0.3034667  -0.0000000), wk =   0.0007138
        k(  596) = (   0.3019935   0.3019935   0.0000000), wk =   0.0007138
        k(  597) = (   0.3005204   0.3005204   0.0000000), wk =   0.0007138
        k(  598) = (   0.2990472   0.2990472  -0.0000000), wk =   0.0007138
        k(  599) = (   0.2975741   0.2975741   0.0000000), wk =   0.0007138
        k(  600) = (   0.2961010   0.2961010   0.0000000), wk =   0.0007138
        k(  601) = (   0.2946278   0.2946278  -0.0000000), wk =   0.0007138
        k(  602) = (   0.2931547   0.2931547   0.0000000), wk =   0.0007138
        k(  603) = (   0.2916815   0.2916815   0.0000000), wk =   0.0007138
        k(  604) = (   0.2902084   0.2902084  -0.0000000), wk =   0.0007138
        k(  605) = (   0.2887353   0.2887353   0.0000000), wk =   0.0007138
        k(  606) = (   0.2872621   0.2872621   0.0000000), wk =   0.0007138
        k(  607) = (   0.2857890   0.2857890  -0.0000000), wk =   0.0007138
        k(  608) = (   0.2843159   0.2843159   0.0000000), wk =   0.0007138
        k(  609) = (   0.2828427   0.2828427   0.0000000), wk =   0.0007138
        k(  610) = (   0.2813696   0.2813696  -0.0000000), wk =   0.0007138
        k(  611) = (   0.2798964   0.2798964   0.0000000), wk =   0.0007138
        k(  612) = (   0.2784233   0.2784233   0.0000000), wk =   0.0007138
        k(  613) = (   0.2769502   0.2769502  -0.0000000), wk =   0.0007138
        k(  614) = (   0.2754770   0.2754770   0.0000000), wk =   0.0007138
        k(  615) = (   0.2740039   0.2740039   0.0000000), wk =   0.0007138
        k(  616) = (   0.2725307   0.2725307  -0.0000000), wk =   0.0007138
        k(  617) = (   0.2710576   0.2710576   0.0000000), wk =   0.0007138
        k(  618) = (   0.2695845   0.2695845   0.0000000), wk =   0.0007138
        k(  619) = (   0.2681113   0.2681113  -0.0000000), wk =   0.0007138
        k(  620) = (   0.2666382   0.2666382   0.0000000), wk =   0.0007138
        k(  621) = (   0.2651650   0.2651650   0.0000000), wk =   0.0007138
        k(  622) = (   0.2636919   0.2636919  -0.0000000), wk =   0.0007138
        k(  623) = (   0.2622188   0.2622188   0.0000000), wk =   0.0007138
        k(  624) = (   0.2607456   0.2607456   0.0000000), wk =   0.0007138
        k(  625) = (   0.2592725   0.2592725  -0.0000000), wk =   0.0007138
        k(  626) = (   0.2577993   0.2577993   0.0000000), wk =   0.0007138
        k(  627) = (   0.2563262   0.2563262   0.0000000), wk =   0.0007138
        k(  628) = (   0.2548531   0.2548531  -0.0000000), wk =   0.0007138
        k(  629) = (   0.2533799   0.2533799   0.0000000), wk =   0.0007138
        k(  630) = (   0.2519068   0.2519068   0.0000000), wk =   0.0007138
        k(  631) = (   0.2504337   0.2504337  -0.0000000), wk =   0.0007138
        k(  632) = (   0.2489605   0.2489605   0.0000000), wk =   0.0007138
        k(  633) = (   0.2474874   0.2474874   0.0000000), wk =   0.0007138
        k(  634) = (   0.2460142   0.2460142  -0.0000000), wk =   0.0007138
        k(  635) = (   0.2445411   0.2445411   0.0000000), wk =   0.0007138
        k(  636) = (   0.2430680   0.2430680   0.0000000), wk =   0.0007138
        k(  637) = (   0.2415948   0.2415948  -0.0000000), wk =   0.0007138
        k(  638) = (   0.2401217   0.2401217   0.0000000), wk =   0.0007138
        k(  639) = (   0.2386485   0.2386485   0.0000000), wk =   0.0007138
        k(  640) = (   0.2371754   0.2371754  -0.0000000), wk =   0.0007138
        k(  641) = (   0.2357023   0.2357023   0.0000000), wk =   0.0007138
        k(  642) = (   0.2342291   0.2342291   0.0000000), wk =   0.0007138
        k(  643) = (   0.2327560   0.2327560  -0.0000000), wk =   0.0007138
        k(  644) = (   0.2312828   0.2312828   0.0000000), wk =   0.0007138
        k(  645) = (   0.2298097   0.2298097   0.0000000), wk =   0.0007138
        k(  646) = (   0.2283366   0.2283366  -0.0000000), wk =   0.0007138
        k(  647) = (   0.2268634   0.2268634   0.0000000), wk =   0.0007138
        k(  648) = (   0.2253903   0.2253903   0.0000000), wk =   0.0007138
        k(  649) = (   0.2239171   0.2239171  -0.0000000), wk =   0.0007138
        k(  650) = (   0.2224440   0.2224440   0.0000000), wk =   0.0007138
        k(  651) = (   0.2209709   0.2209709   0.0000000), wk =   0.0007138
        k(  652) = (   0.2194977   0.2194977  -0.0000000), wk =   0.0007138
        k(  653) = (   0.2180246   0.2180246   0.0000000), wk =   0.0007138
        k(  654) = (   0.2165515   0.2165515   0.0000000), wk =   0.0007138
        k(  655) = (   0.2150783   0.2150783  -0.0000000), wk =   0.0007138
        k(  656) = (   0.2136052   0.2136052   0.0000000), wk =   0.0007138
        k(  657) = (   0.2121320   0.2121320   0.0000000), wk =   0.0007138
        k(  658) = (   0.2106589   0.2106589  -0.0000000), wk =   0.0007138
        k(  659) = (   0.2091858   0.2091858   0.0000000), wk =   0.0007138
        k(  660) = (   0.2077126   0.2077126   0.0000000), wk =   0.0007138
        k(  661) = (   0.2062395   0.2062395  -0.0000000), wk =   0.0007138
        k(  662) = (   0.2047663   0.2047663   0.0000000), wk =   0.0007138
        k(  663) = (   0.2032932   0.2032932   0.0000000), wk =   0.0007138
        k(  664) = (   0.2018201   0.2018201  -0.0000000), wk =   0.0007138
        k(  665) = (   0.2003469   0.2003469   0.0000000), wk =   0.0007138
        k(  666) = (   0.1988738   0.1988738   0.0000000), wk =   0.0007138
        k(  667) = (   0.1974006   0.1974006  -0.0000000), wk =   0.0007138
        k(  668) = (   0.1959275   0.1959275   0.0000000), wk =   0.0007138
        k(  669) = (   0.1944544   0.1944544   0.0000000), wk =   0.0007138
        k(  670) = (   0.1929812   0.1929812  -0.0000000), wk =   0.0007138
        k(  671) = (   0.1915081   0.1915081   0.0000000), wk =   0.0007138
        k(  672) = (   0.1900349   0.1900349   0.0000000), wk =   0.0007138
        k(  673) = (   0.1885618   0.1885618  -0.0000000), wk =   0.0007138
        k(  674) = (   0.1870887   0.1870887   0.0000000), wk =   0.0007138
        k(  675) = (   0.1856155   0.1856155   0.0000000), wk =   0.0007138
        k(  676) = (   0.1841424   0.1841424  -0.0000000), wk =   0.0007138
        k(  677) = (   0.1826693   0.1826693   0.0000000), wk =   0.0007138
        k(  678) = (   0.1811961   0.1811961   0.0000000), wk =   0.0007138
        k(  679) = (   0.1797230   0.1797230  -0.0000000), wk =   0.0007138
        k(  680) = (   0.1782498   0.1782498   0.0000000), wk =   0.0007138
        k(  681) = (   0.1767767   0.1767767   0.0000000), wk =   0.0007138
        k(  682) = (   0.1753036   0.1753036  -0.0000000), wk =   0.0007138
        k(  683) = (   0.1738304   0.1738304   0.0000000), wk =   0.0007138
        k(  684) = (   0.1723573   0.1723573   0.0000000), wk =   0.0007138
        k(  685) = (   0.1708841   0.1708841  -0.0000000), wk =   0.0007138
        k(  686) = (   0.1694110   0.1694110   0.0000000), wk =   0.0007138
        k(  687) = (   0.1679379   0.1679379   0.0000000), wk =   0.0007138
        k(  688) = (   0.1664647   0.1664647  -0.0000000), wk =   0.0007138
        k(  689) = (   0.1649916   0.1649916   0.0000000), wk =   0.0007138
        k(  690) = (   0.1635184   0.1635184   0.0000000), wk =   0.0007138
        k(  691) = (   0.1620453   0.1620453  -0.0000000), wk =   0.0007138
        k(  692) = (   0.1605722   0.1605722   0.0000000), wk =   0.0007138
        k(  693) = (   0.1590990   0.1590990   0.0000000), wk =   0.0007138
        k(  694) = (   0.1576259   0.1576259  -0.0000000), wk =   0.0007138
        k(  695) = (   0.1561527   0.1561527   0.0000000), wk =   0.0007138
        k(  696) = (   0.1546796   0.1546796   0.0000000), wk =   0.0007138
        k(  697) = (   0.1532065   0.1532065  -0.0000000), wk =   0.0007138
        k(  698) = (   0.1517333   0.1517333   0.0000000), wk =   0.0007138
        k(  699) = (   0.1502602   0.1502602   0.0000000), wk =   0.0007138
        k(  700) = (   0.1487871   0.1487871  -0.0000000), wk =   0.0007138
        k(  701) = (   0.1473139   0.1473139   0.0000000), wk =   0.0007138
        k(  702) = (   0.1458408   0.1458408   0.0000000), wk =   0.0007138
        k(  703) = (   0.1443676   0.1443676  -0.0000000), wk =   0.0007138
        k(  704) = (   0.1428945   0.1428945   0.0000000), wk =   0.0007138
        k(  705) = (   0.1414214   0.1414214   0.0000000), wk =   0.0007138
        k(  706) = (   0.1399482   0.1399482  -0.0000000), wk =   0.0007138
        k(  707) = (   0.1384751   0.1384751   0.0000000), wk =   0.0007138
        k(  708) = (   0.1370019   0.1370019   0.0000000), wk =   0.0007138
        k(  709) = (   0.1355288   0.1355288  -0.0000000), wk =   0.0007138
        k(  710) = (   0.1340557   0.1340557   0.0000000), wk =   0.0007138
        k(  711) = (   0.1325825   0.1325825   0.0000000), wk =   0.0007138
        k(  712) = (   0.1311094   0.1311094  -0.0000000), wk =   0.0007138
        k(  713) = (   0.1296362   0.1296362   0.0000000), wk =   0.0007138
        k(  714) = (   0.1281631   0.1281631   0.0000000), wk =   0.0007138
        k(  715) = (   0.1266900   0.1266900  -0.0000000), wk =   0.0007138
        k(  716) = (   0.1252168   0.1252168   0.0000000), wk =   0.0007138
        k(  717) = (   0.1237437   0.1237437   0.0000000), wk =   0.0007138
        k(  718) = (   0.1222705   0.1222705  -0.0000000), wk =   0.0007138
        k(  719) = (   0.1207974   0.1207974   0.0000000), wk =   0.0007138
        k(  720) = (   0.1193243   0.1193243   0.0000000), wk =   0.0007138
        k(  721) = (   0.1178511   0.1178511  -0.0000000), wk =   0.0007138
        k(  722) = (   0.1163780   0.1163780   0.0000000), wk =   0.0007138
        k(  723) = (   0.1149049   0.1149049   0.0000000), wk =   0.0007138
        k(  724) = (   0.1134317   0.1134317  -0.0000000), wk =   0.0007138
        k(  725) = (   0.1119586   0.1119586   0.0000000), wk =   0.0007138
        k(  726) = (   0.1104854   0.1104854   0.0000000), wk =   0.0007138
        k(  727) = (   0.1090123   0.1090123  -0.0000000), wk =   0.0007138
        k(  728) = (   0.1075392   0.1075392   0.0000000), wk =   0.0007138
        k(  729) = (   0.1060660   0.1060660   0.0000000), wk =   0.0007138
        k(  730) = (   0.1045929   0.1045929  -0.0000000), wk =   0.0007138
        k(  731) = (   0.1031197   0.1031197   0.0000000), wk =   0.0007138
        k(  732) = (   0.1016466   0.1016466   0.0000000), wk =   0.0007138
        k(  733) = (   0.1001735   0.1001735  -0.0000000), wk =   0.0007138
        k(  734) = (   0.0987003   0.0987003   0.0000000), wk =   0.0007138
        k(  735) = (   0.0972272   0.0972272   0.0000000), wk =   0.0007138
        k(  736) = (   0.0957540   0.0957540  -0.0000000), wk =   0.0007138
        k(  737) = (   0.0942809   0.0942809   0.0000000), wk =   0.0007138
        k(  738) = (   0.0928078   0.0928078   0.0000000), wk =   0.0007138
        k(  739) = (   0.0913346   0.0913346  -0.0000000), wk =   0.0007138
        k(  740) = (   0.0898615   0.0898615   0.0000000), wk =   0.0007138
        k(  741) = (   0.0883883   0.0883883   0.0000000), wk =   0.0007138
        k(  742) = (   0.0869152   0.0869152  -0.0000000), wk =   0.0007138
        k(  743) = (   0.0854421   0.0854421   0.0000000), wk =   0.0007138
        k(  744) = (   0.0839689   0.0839689   0.0000000), wk =   0.0007138
        k(  745) = (   0.0824958   0.0824958  -0.0000000), wk =   0.0007138
        k(  746) = (   0.0810227   0.0810227   0.0000000), wk =   0.0007138
        k(  747) = (   0.0795495   0.0795495   0.0000000), wk =   0.0007138
        k(  748) = (   0.0780764   0.0780764  -0.0000000), wk =   0.0007138
        k(  749) = (   0.0766032   0.0766032   0.0000000), wk =   0.0007138
        k(  750) = (   0.0751301   0.0751301   0.0000000), wk =   0.0007138
        k(  751) = (   0.0736570   0.0736570  -0.0000000), wk =   0.0007138
        k(  752) = (   0.0721838   0.0721838   0.0000000), wk =   0.0007138
        k(  753) = (   0.0707107   0.0707107   0.0000000), wk =   0.0007138
        k(  754) = (   0.0692375   0.0692375  -0.0000000), wk =   0.0007138
        k(  755) = (   0.0677644   0.0677644   0.0000000), wk =   0.0007138
        k(  756) = (   0.0662913   0.0662913   0.0000000), wk =   0.0007138
        k(  757) = (   0.0648181   0.0648181  -0.0000000), wk =   0.0007138
        k(  758) = (   0.0633450   0.0633450   0.0000000), wk =   0.0007138
        k(  759) = (   0.0618718   0.0618718   0.0000000), wk =   0.0007138
        k(  760) = (   0.0603987   0.0603987  -0.0000000), wk =   0.0007138
        k(  761) = (   0.0589256   0.0589256   0.0000000), wk =   0.0007138
        k(  762) = (   0.0574524   0.0574524   0.0000000), wk =   0.0007138
        k(  763) = (   0.0559793   0.0559793  -0.0000000), wk =   0.0007138
        k(  764) = (   0.0545061   0.0545061   0.0000000), wk =   0.0007138
        k(  765) = (   0.0530330   0.0530330   0.0000000), wk =   0.0007138
        k(  766) = (   0.0515599   0.0515599  -0.0000000), wk =   0.0007138
        k(  767) = (   0.0500867   0.0500867   0.0000000), wk =   0.0007138
        k(  768) = (   0.0486136   0.0486136   0.0000000), wk =   0.0007138
        k(  769) = (   0.0471405   0.0471405  -0.0000000), wk =   0.0007138
        k(  770) = (   0.0456673   0.0456673   0.0000000), wk =   0.0007138
        k(  771) = (   0.0441942   0.0441942   0.0000000), wk =   0.0007138
        k(  772) = (   0.0427210   0.0427210  -0.0000000), wk =   0.0007138
        k(  773) = (   0.0412479   0.0412479   0.0000000), wk =   0.0007138
        k(  774) = (   0.0397748   0.0397748   0.0000000), wk =   0.0007138
        k(  775) = (   0.0383016   0.0383016  -0.0000000), wk =   0.0007138
        k(  776) = (   0.0368285   0.0368285   0.0000000), wk =   0.0007138
        k(  777) = (   0.0353553   0.0353553   0.0000000), wk =   0.0007138
        k(  778) = (   0.0338822   0.0338822  -0.0000000), wk =   0.0007138
        k(  779) = (   0.0324091   0.0324091   0.0000000), wk =   0.0007138
        k(  780) = (   0.0309359   0.0309359   0.0000000), wk =   0.0007138
        k(  781) = (   0.0294628   0.0294628  -0.0000000), wk =   0.0007138
        k(  782) = (   0.0279896   0.0279896   0.0000000), wk =   0.0007138
        k(  783) = (   0.0265165   0.0265165   0.0000000), wk =   0.0007138
        k(  784) = (   0.0250434   0.0250434  -0.0000000), wk =   0.0007138
        k(  785) = (   0.0235702   0.0235702   0.0000000), wk =   0.0007138
        k(  786) = (   0.0220971   0.0220971   0.0000000), wk =   0.0007138
        k(  787) = (   0.0206239   0.0206239  -0.0000000), wk =   0.0007138
        k(  788) = (   0.0191508   0.0191508   0.0000000), wk =   0.0007138
        k(  789) = (   0.0176777   0.0176777   0.0000000), wk =   0.0007138
        k(  790) = (   0.0162045   0.0162045  -0.0000000), wk =   0.0007138
        k(  791) = (   0.0147314   0.0147314   0.0000000), wk =   0.0007138
        k(  792) = (   0.0132583   0.0132583   0.0000000), wk =   0.0007138
        k(  793) = (   0.0117851   0.0117851  -0.0000000), wk =   0.0007138
        k(  794) = (   0.0103120   0.0103120   0.0000000), wk =   0.0007138
        k(  795) = (   0.0088388   0.0088388   0.0000000), wk =   0.0007138
        k(  796) = (   0.0073657   0.0073657  -0.0000000), wk =   0.0007138
        k(  797) = (   0.0058926   0.0058926   0.0000000), wk =   0.0007138
        k(  798) = (   0.0044194   0.0044194   0.0000000), wk =   0.0007138
        k(  799) = (   0.0029463   0.0029463  -0.0000000), wk =   0.0007138
        k(  800) = (   0.0014731   0.0014731   0.0000000), wk =   0.0007138
        k(  801) = (   0.0000000   0.0000000   0.0000000), wk =   0.0007138
        k(  802) = (   0.0012627   0.0012627   0.0012627), wk =   0.0007138
        k(  803) = (   0.0025254   0.0025254   0.0025254), wk =   0.0007138
        k(  804) = (   0.0037881   0.0037881   0.0037881), wk =   0.0007138
        k(  805) = (   0.0050508   0.0050508   0.0050508), wk =   0.0007138
        k(  806) = (   0.0063135   0.0063135   0.0063135), wk =   0.0007138
        k(  807) = (   0.0075761   0.0075761   0.0075761), wk =   0.0007138
        k(  808) = (   0.0088388   0.0088388   0.0088388), wk =   0.0007138
        k(  809) = (   0.0101015   0.0101015   0.0101015), wk =   0.0007138
        k(  810) = (   0.0113642   0.0113642   0.0113642), wk =   0.0007138
        k(  811) = (   0.0126269   0.0126269   0.0126269), wk =   0.0007138
        k(  812) = (   0.0138896   0.0138896   0.0138896), wk =   0.0007138
        k(  813) = (   0.0151523   0.0151523   0.0151523), wk =   0.0007138
        k(  814) = (   0.0164150   0.0164150   0.0164150), wk =   0.0007138
        k(  815) = (   0.0176777   0.0176777   0.0176777), wk =   0.0007138
        k(  816) = (   0.0189404   0.0189404   0.0189404), wk =   0.0007138
        k(  817) = (   0.0202031   0.0202031   0.0202031), wk =   0.0007138
        k(  818) = (   0.0214657   0.0214657   0.0214657), wk =   0.0007138
        k(  819) = (   0.0227284   0.0227284   0.0227284), wk =   0.0007138
        k(  820) = (   0.0239911   0.0239911   0.0239911), wk =   0.0007138
        k(  821) = (   0.0252538   0.0252538   0.0252538), wk =   0.0007138
        k(  822) = (   0.0265165   0.0265165   0.0265165), wk =   0.0007138
        k(  823) = (   0.0277792   0.0277792   0.0277792), wk =   0.0007138
        k(  824) = (   0.0290419   0.0290419   0.0290419), wk =   0.0007138
        k(  825) = (   0.0303046   0.0303046   0.0303046), wk =   0.0007138
        k(  826) = (   0.0315673   0.0315673   0.0315673), wk =   0.0007138
        k(  827) = (   0.0328300   0.0328300   0.0328300), wk =   0.0007138
        k(  828) = (   0.0340926   0.0340926   0.0340926), wk =   0.0007138
        k(  829) = (   0.0353553   0.0353553   0.0353553), wk =   0.0007138
        k(  830) = (   0.0366180   0.0366180   0.0366180), wk =   0.0007138
        k(  831) = (   0.0378807   0.0378807   0.0378807), wk =   0.0007138
        k(  832) = (   0.0391434   0.0391434   0.0391434), wk =   0.0007138
        k(  833) = (   0.0404061   0.0404061   0.0404061), wk =   0.0007138
        k(  834) = (   0.0416688   0.0416688   0.0416688), wk =   0.0007138
        k(  835) = (   0.0429315   0.0429315   0.0429315), wk =   0.0007138
        k(  836) = (   0.0441942   0.0441942   0.0441942), wk =   0.0007138
        k(  837) = (   0.0454569   0.0454569   0.0454569), wk =   0.0007138
        k(  838) = (   0.0467196   0.0467196   0.0467196), wk =   0.0007138
        k(  839) = (   0.0479822   0.0479822   0.0479822), wk =   0.0007138
        k(  840) = (   0.0492449   0.0492449   0.0492449), wk =   0.0007138
        k(  841) = (   0.0505076   0.0505076   0.0505076), wk =   0.0007138
        k(  842) = (   0.0517703   0.0517703   0.0517703), wk =   0.0007138
        k(  843) = (   0.0530330   0.0530330   0.0530330), wk =   0.0007138
        k(  844) = (   0.0542957   0.0542957   0.0542957), wk =   0.0007138
        k(  845) = (   0.0555584   0.0555584   0.0555584), wk =   0.0007138
        k(  846) = (   0.0568211   0.0568211   0.0568211), wk =   0.0007138
        k(  847) = (   0.0580838   0.0580838   0.0580838), wk =   0.0007138
        k(  848) = (   0.0593465   0.0593465   0.0593465), wk =   0.0007138
        k(  849) = (   0.0606092   0.0606092   0.0606092), wk =   0.0007138
        k(  850) = (   0.0618718   0.0618718   0.0618718), wk =   0.0007138
        k(  851) = (   0.0631345   0.0631345   0.0631345), wk =   0.0007138
        k(  852) = (   0.0643972   0.0643972   0.0643972), wk =   0.0007138
        k(  853) = (   0.0656599   0.0656599   0.0656599), wk =   0.0007138
        k(  854) = (   0.0669226   0.0669226   0.0669226), wk =   0.0007138
        k(  855) = (   0.0681853   0.0681853   0.0681853), wk =   0.0007138
        k(  856) = (   0.0694480   0.0694480   0.0694480), wk =   0.0007138
        k(  857) = (   0.0707107   0.0707107   0.0707107), wk =   0.0007138
        k(  858) = (   0.0719734   0.0719734   0.0719734), wk =   0.0007138
        k(  859) = (   0.0732361   0.0732361   0.0732361), wk =   0.0007138
        k(  860) = (   0.0744988   0.0744988   0.0744988), wk =   0.0007138
        k(  861) = (   0.0757614   0.0757614   0.0757614), wk =   0.0007138
        k(  862) = (   0.0770241   0.0770241   0.0770241), wk =   0.0007138
        k(  863) = (   0.0782868   0.0782868   0.0782868), wk =   0.0007138
        k(  864) = (   0.0795495   0.0795495   0.0795495), wk =   0.0007138
        k(  865) = (   0.0808122   0.0808122   0.0808122), wk =   0.0007138
        k(  866) = (   0.0820749   0.0820749   0.0820749), wk =   0.0007138
        k(  867) = (   0.0833376   0.0833376   0.0833376), wk =   0.0007138
        k(  868) = (   0.0846003   0.0846003   0.0846003), wk =   0.0007138
        k(  869) = (   0.0858630   0.0858630   0.0858630), wk =   0.0007138
        k(  870) = (   0.0871257   0.0871257   0.0871257), wk =   0.0007138
        k(  871) = (   0.0883883   0.0883883   0.0883883), wk =   0.0007138
        k(  872) = (   0.0896510   0.0896510   0.0896510), wk =   0.0007138
        k(  873) = (   0.0909137   0.0909137   0.0909137), wk =   0.0007138
        k(  874) = (   0.0921764   0.0921764   0.0921764), wk =   0.0007138
        k(  875) = (   0.0934391   0.0934391   0.0934391), wk =   0.0007138
        k(  876) = (   0.0947018   0.0947018   0.0947018), wk =   0.0007138
        k(  877) = (   0.0959645   0.0959645   0.0959645), wk =   0.0007138
        k(  878) = (   0.0972272   0.0972272   0.0972272), wk =   0.0007138
        k(  879) = (   0.0984899   0.0984899   0.0984899), wk =   0.0007138
        k(  880) = (   0.0997526   0.0997526   0.0997526), wk =   0.0007138
        k(  881) = (   0.1010153   0.1010153   0.1010153), wk =   0.0007138
        k(  882) = (   0.1022779   0.1022779   0.1022779), wk =   0.0007138
        k(  883) = (   0.1035406   0.1035406   0.1035406), wk =   0.0007138
        k(  884) = (   0.1048033   0.1048033   0.1048033), wk =   0.0007138
        k(  885) = (   0.1060660   0.1060660   0.1060660), wk =   0.0007138
        k(  886) = (   0.1073287   0.1073287   0.1073287), wk =   0.0007138
        k(  887) = (   0.1085914   0.1085914   0.1085914), wk =   0.0007138
        k(  888) = (   0.1098541   0.1098541   0.1098541), wk =   0.0007138
        k(  889) = (   0.1111168   0.1111168   0.1111168), wk =   0.0007138
        k(  890) = (   0.1123795   0.1123795   0.1123795), wk =   0.0007138
        k(  891) = (   0.1136422   0.1136422   0.1136422), wk =   0.0007138
        k(  892) = (   0.1149049   0.1149049   0.1149049), wk =   0.0007138
        k(  893) = (   0.1161675   0.1161675   0.1161675), wk =   0.0007138
        k(  894) = (   0.1174302   0.1174302   0.1174302), wk =   0.0007138
        k(  895) = (   0.1186929   0.1186929   0.1186929), wk =   0.0007138
        k(  896) = (   0.1199556   0.1199556   0.1199556), wk =   0.0007138
        k(  897) = (   0.1212183   0.1212183   0.1212183), wk =   0.0007138
        k(  898) = (   0.1224810   0.1224810   0.1224810), wk =   0.0007138
        k(  899) = (   0.1237437   0.1237437   0.1237437), wk =   0.0007138
        k(  900) = (   0.1250064   0.1250064   0.1250064), wk =   0.0007138
        k(  901) = (   0.1262691   0.1262691   0.1262691), wk =   0.0007138
        k(  902) = (   0.1275318   0.1275318   0.1275318), wk =   0.0007138
        k(  903) = (   0.1287944   0.1287944   0.1287944), wk =   0.0007138
        k(  904) = (   0.1300571   0.1300571   0.1300571), wk =   0.0007138
        k(  905) = (   0.1313198   0.1313198   0.1313198), wk =   0.0007138
        k(  906) = (   0.1325825   0.1325825   0.1325825), wk =   0.0007138
        k(  907) = (   0.1338452   0.1338452   0.1338452), wk =   0.0007138
        k(  908) = (   0.1351079   0.1351079   0.1351079), wk =   0.0007138
        k(  909) = (   0.1363706   0.1363706   0.1363706), wk =   0.0007138
        k(  910) = (   0.1376333   0.1376333   0.1376333), wk =   0.0007138
        k(  911) = (   0.1388960   0.1388960   0.1388960), wk =   0.0007138
        k(  912) = (   0.1401587   0.1401587   0.1401587), wk =   0.0007138
        k(  913) = (   0.1414214   0.1414214   0.1414214), wk =   0.0007138
        k(  914) = (   0.1426840   0.1426840   0.1426840), wk =   0.0007138
        k(  915) = (   0.1439467   0.1439467   0.1439467), wk =   0.0007138
        k(  916) = (   0.1452094   0.1452094   0.1452094), wk =   0.0007138
        k(  917) = (   0.1464721   0.1464721   0.1464721), wk =   0.0007138
        k(  918) = (   0.1477348   0.1477348   0.1477348), wk =   0.0007138
        k(  919) = (   0.1489975   0.1489975   0.1489975), wk =   0.0007138
        k(  920) = (   0.1502602   0.1502602   0.1502602), wk =   0.0007138
        k(  921) = (   0.1515229   0.1515229   0.1515229), wk =   0.0007138
        k(  922) = (   0.1527856   0.1527856   0.1527856), wk =   0.0007138
        k(  923) = (   0.1540483   0.1540483   0.1540483), wk =   0.0007138
        k(  924) = (   0.1553110   0.1553110   0.1553110), wk =   0.0007138
        k(  925) = (   0.1565736   0.1565736   0.1565736), wk =   0.0007138
        k(  926) = (   0.1578363   0.1578363   0.1578363), wk =   0.0007138
        k(  927) = (   0.1590990   0.1590990   0.1590990), wk =   0.0007138
        k(  928) = (   0.1603617   0.1603617   0.1603617), wk =   0.0007138
        k(  929) = (   0.1616244   0.1616244   0.1616244), wk =   0.0007138
        k(  930) = (   0.1628871   0.1628871   0.1628871), wk =   0.0007138
        k(  931) = (   0.1641498   0.1641498   0.1641498), wk =   0.0007138
        k(  932) = (   0.1654125   0.1654125   0.1654125), wk =   0.0007138
        k(  933) = (   0.1666752   0.1666752   0.1666752), wk =   0.0007138
        k(  934) = (   0.1679379   0.1679379   0.1679379), wk =   0.0007138
        k(  935) = (   0.1692006   0.1692006   0.1692006), wk =   0.0007138
        k(  936) = (   0.1704632   0.1704632   0.1704632), wk =   0.0007138
        k(  937) = (   0.1717259   0.1717259   0.1717259), wk =   0.0007138
        k(  938) = (   0.1729886   0.1729886   0.1729886), wk =   0.0007138
        k(  939) = (   0.1742513   0.1742513   0.1742513), wk =   0.0007138
        k(  940) = (   0.1755140   0.1755140   0.1755140), wk =   0.0007138
        k(  941) = (   0.1767767   0.1767767   0.1767767), wk =   0.0007138
        k(  942) = (   0.1780394   0.1780394   0.1780394), wk =   0.0007138
        k(  943) = (   0.1793021   0.1793021   0.1793021), wk =   0.0007138
        k(  944) = (   0.1805648   0.1805648   0.1805648), wk =   0.0007138
        k(  945) = (   0.1818275   0.1818275   0.1818275), wk =   0.0007138
        k(  946) = (   0.1830901   0.1830901   0.1830901), wk =   0.0007138
        k(  947) = (   0.1843528   0.1843528   0.1843528), wk =   0.0007138
        k(  948) = (   0.1856155   0.1856155   0.1856155), wk =   0.0007138
        k(  949) = (   0.1868782   0.1868782   0.1868782), wk =   0.0007138
        k(  950) = (   0.1881409   0.1881409   0.1881409), wk =   0.0007138
        k(  951) = (   0.1894036   0.1894036   0.1894036), wk =   0.0007138
        k(  952) = (   0.1906663   0.1906663   0.1906663), wk =   0.0007138
        k(  953) = (   0.1919290   0.1919290   0.1919290), wk =   0.0007138
        k(  954) = (   0.1931917   0.1931917   0.1931917), wk =   0.0007138
        k(  955) = (   0.1944544   0.1944544   0.1944544), wk =   0.0007138
        k(  956) = (   0.1957171   0.1957171   0.1957171), wk =   0.0007138
        k(  957) = (   0.1969797   0.1969797   0.1969797), wk =   0.0007138
        k(  958) = (   0.1982424   0.1982424   0.1982424), wk =   0.0007138
        k(  959) = (   0.1995051   0.1995051   0.1995051), wk =   0.0007138
        k(  960) = (   0.2007678   0.2007678   0.2007678), wk =   0.0007138
        k(  961) = (   0.2020305   0.2020305   0.2020305), wk =   0.0007138
        k(  962) = (   0.2032932   0.2032932   0.2032932), wk =   0.0007138
        k(  963) = (   0.2045559   0.2045559   0.2045559), wk =   0.0007138
        k(  964) = (   0.2058186   0.2058186   0.2058186), wk =   0.0007138
        k(  965) = (   0.2070813   0.2070813   0.2070813), wk =   0.0007138
        k(  966) = (   0.2083440   0.2083440   0.2083440), wk =   0.0007138
        k(  967) = (   0.2096067   0.2096067   0.2096067), wk =   0.0007138
        k(  968) = (   0.2108693   0.2108693   0.2108693), wk =   0.0007138
        k(  969) = (   0.2121320   0.2121320   0.2121320), wk =   0.0007138
        k(  970) = (   0.2133947   0.2133947   0.2133947), wk =   0.0007138
        k(  971) = (   0.2146574   0.2146574   0.2146574), wk =   0.0007138
        k(  972) = (   0.2159201   0.2159201   0.2159201), wk =   0.0007138
        k(  973) = (   0.2171828   0.2171828   0.2171828), wk =   0.0007138
        k(  974) = (   0.2184455   0.2184455   0.2184455), wk =   0.0007138
        k(  975) = (   0.2197082   0.2197082   0.2197082), wk =   0.0007138
        k(  976) = (   0.2209709   0.2209709   0.2209709), wk =   0.0007138
        k(  977) = (   0.2222336   0.2222336   0.2222336), wk =   0.0007138
        k(  978) = (   0.2234963   0.2234963   0.2234963), wk =   0.0007138
        k(  979) = (   0.2247589   0.2247589   0.2247589), wk =   0.0007138
        k(  980) = (   0.2260216   0.2260216   0.2260216), wk =   0.0007138
        k(  981) = (   0.2272843   0.2272843   0.2272843), wk =   0.0007138
        k(  982) = (   0.2285470   0.2285470   0.2285470), wk =   0.0007138
        k(  983) = (   0.2298097   0.2298097   0.2298097), wk =   0.0007138
        k(  984) = (   0.2310724   0.2310724   0.2310724), wk =   0.0007138
        k(  985) = (   0.2323351   0.2323351   0.2323351), wk =   0.0007138
        k(  986) = (   0.2335978   0.2335978   0.2335978), wk =   0.0007138
        k(  987) = (   0.2348605   0.2348605   0.2348605), wk =   0.0007138
        k(  988) = (   0.2361232   0.2361232   0.2361232), wk =   0.0007138
        k(  989) = (   0.2373858   0.2373858   0.2373858), wk =   0.0007138
        k(  990) = (   0.2386485   0.2386485   0.2386485), wk =   0.0007138
        k(  991) = (   0.2399112   0.2399112   0.2399112), wk =   0.0007138
        k(  992) = (   0.2411739   0.2411739   0.2411739), wk =   0.0007138
        k(  993) = (   0.2424366   0.2424366   0.2424366), wk =   0.0007138
        k(  994) = (   0.2436993   0.2436993   0.2436993), wk =   0.0007138
        k(  995) = (   0.2449620   0.2449620   0.2449620), wk =   0.0007138
        k(  996) = (   0.2462247   0.2462247   0.2462247), wk =   0.0007138
        k(  997) = (   0.2474874   0.2474874   0.2474874), wk =   0.0007138
        k(  998) = (   0.2487501   0.2487501   0.2487501), wk =   0.0007138
        k(  999) = (   0.2500128   0.2500128   0.2500128), wk =   0.0007138
        k( 1000) = (   0.2512754   0.2512754   0.2512754), wk =   0.0007138
        k( 1001) = (   0.2525381   0.2525381   0.2525381), wk =   0.0007138
        k( 1002) = (   0.2538008   0.2538008   0.2538008), wk =   0.0007138
        k( 1003) = (   0.2550635   0.2550635   0.2550635), wk =   0.0007138
        k( 1004) = (   0.2563262   0.2563262   0.2563262), wk =   0.0007138
        k( 1005) = (   0.2575889   0.2575889   0.2575889), wk =   0.0007138
        k( 1006) = (   0.2588516   0.2588516   0.2588516), wk =   0.0007138
        k( 1007) = (   0.2601143   0.2601143   0.2601143), wk =   0.0007138
        k( 1008) = (   0.2613770   0.2613770   0.2613770), wk =   0.0007138
        k( 1009) = (   0.2626397   0.2626397   0.2626397), wk =   0.0007138
        k( 1010) = (   0.2639024   0.2639024   0.2639024), wk =   0.0007138
        k( 1011) = (   0.2651650   0.2651650   0.2651650), wk =   0.0007138
        k( 1012) = (   0.2664277   0.2664277   0.2664277), wk =   0.0007138
        k( 1013) = (   0.2676904   0.2676904   0.2676904), wk =   0.0007138
        k( 1014) = (   0.2689531   0.2689531   0.2689531), wk =   0.0007138
        k( 1015) = (   0.2702158   0.2702158   0.2702158), wk =   0.0007138
        k( 1016) = (   0.2714785   0.2714785   0.2714785), wk =   0.0007138
        k( 1017) = (   0.2727412   0.2727412   0.2727412), wk =   0.0007138
        k( 1018) = (   0.2740039   0.2740039   0.2740039), wk =   0.0007138
        k( 1019) = (   0.2752666   0.2752666   0.2752666), wk =   0.0007138
        k( 1020) = (   0.2765293   0.2765293   0.2765293), wk =   0.0007138
        k( 1021) = (   0.2777919   0.2777919   0.2777919), wk =   0.0007138
        k( 1022) = (   0.2790546   0.2790546   0.2790546), wk =   0.0007138
        k( 1023) = (   0.2803173   0.2803173   0.2803173), wk =   0.0007138
        k( 1024) = (   0.2815800   0.2815800   0.2815800), wk =   0.0007138
        k( 1025) = (   0.2828427   0.2828427   0.2828427), wk =   0.0007138
        k( 1026) = (   0.2841054   0.2841054   0.2841054), wk =   0.0007138
        k( 1027) = (   0.2853681   0.2853681   0.2853681), wk =   0.0007138
        k( 1028) = (   0.2866308   0.2866308   0.2866308), wk =   0.0007138
        k( 1029) = (   0.2878935   0.2878935   0.2878935), wk =   0.0007138
        k( 1030) = (   0.2891562   0.2891562   0.2891562), wk =   0.0007138
        k( 1031) = (   0.2904189   0.2904189   0.2904189), wk =   0.0007138
        k( 1032) = (   0.2916815   0.2916815   0.2916815), wk =   0.0007138
        k( 1033) = (   0.2929442   0.2929442   0.2929442), wk =   0.0007138
        k( 1034) = (   0.2942069   0.2942069   0.2942069), wk =   0.0007138
        k( 1035) = (   0.2954696   0.2954696   0.2954696), wk =   0.0007138
        k( 1036) = (   0.2967323   0.2967323   0.2967323), wk =   0.0007138
        k( 1037) = (   0.2979950   0.2979950   0.2979950), wk =   0.0007138
        k( 1038) = (   0.2992577   0.2992577   0.2992577), wk =   0.0007138
        k( 1039) = (   0.3005204   0.3005204   0.3005204), wk =   0.0007138
        k( 1040) = (   0.3017831   0.3017831   0.3017831), wk =   0.0007138
        k( 1041) = (   0.3030458   0.3030458   0.3030458), wk =   0.0007138
        k( 1042) = (   0.3043085   0.3043085   0.3043085), wk =   0.0007138
        k( 1043) = (   0.3055711   0.3055711   0.3055711), wk =   0.0007138
        k( 1044) = (   0.3068338   0.3068338   0.3068338), wk =   0.0007138
        k( 1045) = (   0.3080965   0.3080965   0.3080965), wk =   0.0007138
        k( 1046) = (   0.3093592   0.3093592   0.3093592), wk =   0.0007138
        k( 1047) = (   0.3106219   0.3106219   0.3106219), wk =   0.0007138
        k( 1048) = (   0.3118846   0.3118846   0.3118846), wk =   0.0007138
        k( 1049) = (   0.3131473   0.3131473   0.3131473), wk =   0.0007138
        k( 1050) = (   0.3144100   0.3144100   0.3144100), wk =   0.0007138
        k( 1051) = (   0.3156727   0.3156727   0.3156727), wk =   0.0007138
        k( 1052) = (   0.3169354   0.3169354   0.3169354), wk =   0.0007138
        k( 1053) = (   0.3181981   0.3181981   0.3181981), wk =   0.0007138
        k( 1054) = (   0.3194607   0.3194607   0.3194607), wk =   0.0007138
        k( 1055) = (   0.3207234   0.3207234   0.3207234), wk =   0.0007138
        k( 1056) = (   0.3219861   0.3219861   0.3219861), wk =   0.0007138
        k( 1057) = (   0.3232488   0.3232488   0.3232488), wk =   0.0007138
        k( 1058) = (   0.3245115   0.3245115   0.3245115), wk =   0.0007138
        k( 1059) = (   0.3257742   0.3257742   0.3257742), wk =   0.0007138
        k( 1060) = (   0.3270369   0.3270369   0.3270369), wk =   0.0007138
        k( 1061) = (   0.3282996   0.3282996   0.3282996), wk =   0.0007138
        k( 1062) = (   0.3295623   0.3295623   0.3295623), wk =   0.0007138
        k( 1063) = (   0.3308250   0.3308250   0.3308250), wk =   0.0007138
        k( 1064) = (   0.3320876   0.3320876   0.3320876), wk =   0.0007138
        k( 1065) = (   0.3333503   0.3333503   0.3333503), wk =   0.0007138
        k( 1066) = (   0.3346130   0.3346130   0.3346130), wk =   0.0007138
        k( 1067) = (   0.3358757   0.3358757   0.3358757), wk =   0.0007138
        k( 1068) = (   0.3371384   0.3371384   0.3371384), wk =   0.0007138
        k( 1069) = (   0.3384011   0.3384011   0.3384011), wk =   0.0007138
        k( 1070) = (   0.3396638   0.3396638   0.3396638), wk =   0.0007138
        k( 1071) = (   0.3409265   0.3409265   0.3409265), wk =   0.0007138
        k( 1072) = (   0.3421892   0.3421892   0.3421892), wk =   0.0007138
        k( 1073) = (   0.3434519   0.3434519   0.3434519), wk =   0.0007138
        k( 1074) = (   0.3447146   0.3447146   0.3447146), wk =   0.0007138
        k( 1075) = (   0.3459772   0.3459772   0.3459772), wk =   0.0007138
        k( 1076) = (   0.3472399   0.3472399   0.3472399), wk =   0.0007138
        k( 1077) = (   0.3485026   0.3485026   0.3485026), wk =   0.0007138
        k( 1078) = (   0.3497653   0.3497653   0.3497653), wk =   0.0007138
        k( 1079) = (   0.3510280   0.3510280   0.3510280), wk =   0.0007138
        k( 1080) = (   0.3522907   0.3522907   0.3522907), wk =   0.0007138
        k( 1081) = (   0.3535534   0.3535534   0.3535534), wk =   0.0007138
        k( 1082) = (   0.3535534   0.3553212   0.3517856), wk =   0.0007138
        k( 1083) = (   0.3535534   0.3570889   0.3500179), wk =   0.0007138
        k( 1084) = (   0.3535534   0.3588567   0.3482501), wk =   0.0007138
        k( 1085) = (   0.3535534   0.3606245   0.3464823), wk =   0.0007138
        k( 1086) = (   0.3535534   0.3623922   0.3447146), wk =   0.0007138
        k( 1087) = (   0.3535534   0.3641600   0.3429468), wk =   0.0007138
        k( 1088) = (   0.3535534   0.3659278   0.3411790), wk =   0.0007138
        k( 1089) = (   0.3535534   0.3676955   0.3394113), wk =   0.0007138
        k( 1090) = (   0.3535534   0.3694633   0.3376435), wk =   0.0007138
        k( 1091) = (   0.3535534   0.3712311   0.3358757), wk =   0.0007138
        k( 1092) = (   0.3535534   0.3729988   0.3341080), wk =   0.0007138
        k( 1093) = (   0.3535534   0.3747666   0.3323402), wk =   0.0007138
        k( 1094) = (   0.3535534   0.3765344   0.3305724), wk =   0.0007138
        k( 1095) = (   0.3535534   0.3783021   0.3288047), wk =   0.0007138
        k( 1096) = (   0.3535534   0.3800699   0.3270369), wk =   0.0007138
        k( 1097) = (   0.3535534   0.3818377   0.3252691), wk =   0.0007138
        k( 1098) = (   0.3535534   0.3836054   0.3235014), wk =   0.0007138
        k( 1099) = (   0.3535534   0.3853732   0.3217336), wk =   0.0007138
        k( 1100) = (   0.3535534   0.3871410   0.3199658), wk =   0.0007138
        k( 1101) = (   0.3535534   0.3889087   0.3181981), wk =   0.0007138
        k( 1102) = (   0.3535534   0.3906765   0.3164303), wk =   0.0007138
        k( 1103) = (   0.3535534   0.3924443   0.3146625), wk =   0.0007138
        k( 1104) = (   0.3535534   0.3942120   0.3128948), wk =   0.0007138
        k( 1105) = (   0.3535534   0.3959798   0.3111270), wk =   0.0007138
        k( 1106) = (   0.3535534   0.3977476   0.3093592), wk =   0.0007138
        k( 1107) = (   0.3535534   0.3995153   0.3075914), wk =   0.0007138
        k( 1108) = (   0.3535534   0.4012831   0.3058237), wk =   0.0007138
        k( 1109) = (   0.3535534   0.4030509   0.3040559), wk =   0.0007138
        k( 1110) = (   0.3535534   0.4048186   0.3022881), wk =   0.0007138
        k( 1111) = (   0.3535534   0.4065864   0.3005204), wk =   0.0007138
        k( 1112) = (   0.3535534   0.4083542   0.2987526), wk =   0.0007138
        k( 1113) = (   0.3535534   0.4101219   0.2969848), wk =   0.0007138
        k( 1114) = (   0.3535534   0.4118897   0.2952171), wk =   0.0007138
        k( 1115) = (   0.3535534   0.4136575   0.2934493), wk =   0.0007138
        k( 1116) = (   0.3535534   0.4154252   0.2916815), wk =   0.0007138
        k( 1117) = (   0.3535534   0.4171930   0.2899138), wk =   0.0007138
        k( 1118) = (   0.3535534   0.4189608   0.2881460), wk =   0.0007138
        k( 1119) = (   0.3535534   0.4207285   0.2863782), wk =   0.0007138
        k( 1120) = (   0.3535534   0.4224963   0.2846105), wk =   0.0007138
        k( 1121) = (   0.3535534   0.4242641   0.2828427), wk =   0.0007138
        k( 1122) = (   0.3535534   0.4260318   0.2810749), wk =   0.0007138
        k( 1123) = (   0.3535534   0.4277996   0.2793072), wk =   0.0007138
        k( 1124) = (   0.3535534   0.4295674   0.2775394), wk =   0.0007138
        k( 1125) = (   0.3535534   0.4313351   0.2757716), wk =   0.0007138
        k( 1126) = (   0.3535534   0.4331029   0.2740039), wk =   0.0007138
        k( 1127) = (   0.3535534   0.4348707   0.2722361), wk =   0.0007138
        k( 1128) = (   0.3535534   0.4366384   0.2704683), wk =   0.0007138
        k( 1129) = (   0.3535534   0.4384062   0.2687006), wk =   0.0007138
        k( 1130) = (   0.3535534   0.4401740   0.2669328), wk =   0.0007138
        k( 1131) = (   0.3535534   0.4419417   0.2651650), wk =   0.0007138
        k( 1132) = (   0.3535534   0.4437095   0.2633973), wk =   0.0007138
        k( 1133) = (   0.3535534   0.4454773   0.2616295), wk =   0.0007138
        k( 1134) = (   0.3535534   0.4472450   0.2598617), wk =   0.0007138
        k( 1135) = (   0.3535534   0.4490128   0.2580940), wk =   0.0007138
        k( 1136) = (   0.3535534   0.4507806   0.2563262), wk =   0.0007138
        k( 1137) = (   0.3535534   0.4525483   0.2545584), wk =   0.0007138
        k( 1138) = (   0.3535534   0.4543161   0.2527907), wk =   0.0007138
        k( 1139) = (   0.3535534   0.4560839   0.2510229), wk =   0.0007138
        k( 1140) = (   0.3535534   0.4578516   0.2492551), wk =   0.0007138
        k( 1141) = (   0.3535534   0.4596194   0.2474874), wk =   0.0007138
        k( 1142) = (   0.3535534   0.4613872   0.2457196), wk =   0.0007138
        k( 1143) = (   0.3535534   0.4631549   0.2439518), wk =   0.0007138
        k( 1144) = (   0.3535534   0.4649227   0.2421841), wk =   0.0007138
        k( 1145) = (   0.3535534   0.4666905   0.2404163), wk =   0.0007138
        k( 1146) = (   0.3535534   0.4684582   0.2386485), wk =   0.0007138
        k( 1147) = (   0.3535534   0.4702260   0.2368808), wk =   0.0007138
        k( 1148) = (   0.3535534   0.4719938   0.2351130), wk =   0.0007138
        k( 1149) = (   0.3535534   0.4737615   0.2333452), wk =   0.0007138
        k( 1150) = (   0.3535534   0.4755293   0.2315775), wk =   0.0007138
        k( 1151) = (   0.3535534   0.4772971   0.2298097), wk =   0.0007138
        k( 1152) = (   0.3535534   0.4790648   0.2280419), wk =   0.0007138
        k( 1153) = (   0.3535534   0.4808326   0.2262742), wk =   0.0007138
        k( 1154) = (   0.3535534   0.4826004   0.2245064), wk =   0.0007138
        k( 1155) = (   0.3535534   0.4843681   0.2227386), wk =   0.0007138
        k( 1156) = (   0.3535534   0.4861359   0.2209709), wk =   0.0007138
        k( 1157) = (   0.3535534   0.4879037   0.2192031), wk =   0.0007138
        k( 1158) = (   0.3535534   0.4896714   0.2174353), wk =   0.0007138
        k( 1159) = (   0.3535534   0.4914392   0.2156676), wk =   0.0007138
        k( 1160) = (   0.3535534   0.4932070   0.2138998), wk =   0.0007138
        k( 1161) = (   0.3535534   0.4949747   0.2121320), wk =   0.0007138
        k( 1162) = (   0.3535534   0.4967425   0.2103643), wk =   0.0007138
        k( 1163) = (   0.3535534   0.4985103   0.2085965), wk =   0.0007138
        k( 1164) = (   0.3535534   0.5002780   0.2068287), wk =   0.0007138
        k( 1165) = (   0.3535534   0.5020458   0.2050610), wk =   0.0007138
        k( 1166) = (   0.3535534   0.5038136   0.2032932), wk =   0.0007138
        k( 1167) = (   0.3535534   0.5055813   0.2015254), wk =   0.0007138
        k( 1168) = (   0.3535534   0.5073491   0.1997577), wk =   0.0007138
        k( 1169) = (   0.3535534   0.5091169   0.1979899), wk =   0.0007138
        k( 1170) = (   0.3535534   0.5108846   0.1962221), wk =   0.0007138
        k( 1171) = (   0.3535534   0.5126524   0.1944544), wk =   0.0007138
        k( 1172) = (   0.3535534   0.5144202   0.1926866), wk =   0.0007138
        k( 1173) = (   0.3535534   0.5161880   0.1909188), wk =   0.0007138
        k( 1174) = (   0.3535534   0.5179557   0.1891511), wk =   0.0007138
        k( 1175) = (   0.3535534   0.5197235   0.1873833), wk =   0.0007138
        k( 1176) = (   0.3535534   0.5214913   0.1856155), wk =   0.0007138
        k( 1177) = (   0.3535534   0.5232590   0.1838478), wk =   0.0007138
        k( 1178) = (   0.3535534   0.5250268   0.1820800), wk =   0.0007138
        k( 1179) = (   0.3535534   0.5267946   0.1803122), wk =   0.0007138
        k( 1180) = (   0.3535534   0.5285623   0.1785445), wk =   0.0007138
        k( 1181) = (   0.3535534   0.5303301   0.1767767), wk =   0.0007138
        k( 1182) = (   0.3535534   0.5320979   0.1750089), wk =   0.0007138
        k( 1183) = (   0.3535534   0.5338656   0.1732412), wk =   0.0007138
        k( 1184) = (   0.3535534   0.5356334   0.1714734), wk =   0.0007138
        k( 1185) = (   0.3535534   0.5374012   0.1697056), wk =   0.0007138
        k( 1186) = (   0.3535534   0.5391689   0.1679379), wk =   0.0007138
        k( 1187) = (   0.3535534   0.5409367   0.1661701), wk =   0.0007138
        k( 1188) = (   0.3535534   0.5427045   0.1644023), wk =   0.0007138
        k( 1189) = (   0.3535534   0.5444722   0.1626346), wk =   0.0007138
        k( 1190) = (   0.3535534   0.5462400   0.1608668), wk =   0.0007138
        k( 1191) = (   0.3535534   0.5480078   0.1590990), wk =   0.0007138
        k( 1192) = (   0.3535534   0.5497755   0.1573313), wk =   0.0007138
        k( 1193) = (   0.3535534   0.5515433   0.1555635), wk =   0.0007138
        k( 1194) = (   0.3535534   0.5533111   0.1537957), wk =   0.0007138
        k( 1195) = (   0.3535534   0.5550788   0.1520280), wk =   0.0007138
        k( 1196) = (   0.3535534   0.5568466   0.1502602), wk =   0.0007138
        k( 1197) = (   0.3535534   0.5586144   0.1484924), wk =   0.0007138
        k( 1198) = (   0.3535534   0.5603821   0.1467247), wk =   0.0007138
        k( 1199) = (   0.3535534   0.5621499   0.1449569), wk =   0.0007138
        k( 1200) = (   0.3535534   0.5639177   0.1431891), wk =   0.0007138
        k( 1201) = (   0.3535534   0.5656854   0.1414214), wk =   0.0007138
        k( 1202) = (   0.3535534   0.5674532   0.1396536), wk =   0.0007138
        k( 1203) = (   0.3535534   0.5692210   0.1378858), wk =   0.0007138
        k( 1204) = (   0.3535534   0.5709887   0.1361181), wk =   0.0007138
        k( 1205) = (   0.3535534   0.5727565   0.1343503), wk =   0.0007138
        k( 1206) = (   0.3535534   0.5745243   0.1325825), wk =   0.0007138
        k( 1207) = (   0.3535534   0.5762920   0.1308148), wk =   0.0007138
        k( 1208) = (   0.3535534   0.5780598   0.1290470), wk =   0.0007138
        k( 1209) = (   0.3535534   0.5798276   0.1272792), wk =   0.0007138
        k( 1210) = (   0.3535534   0.5815953   0.1255115), wk =   0.0007138
        k( 1211) = (   0.3535534   0.5833631   0.1237437), wk =   0.0007138
        k( 1212) = (   0.3535534   0.5851309   0.1219759), wk =   0.0007138
        k( 1213) = (   0.3535534   0.5868986   0.1202082), wk =   0.0007138
        k( 1214) = (   0.3535534   0.5886664   0.1184404), wk =   0.0007138
        k( 1215) = (   0.3535534   0.5904342   0.1166726), wk =   0.0007138
        k( 1216) = (   0.3535534   0.5922019   0.1149049), wk =   0.0007138
        k( 1217) = (   0.3535534   0.5939697   0.1131371), wk =   0.0007138
        k( 1218) = (   0.3535534   0.5957375   0.1113693), wk =   0.0007138
        k( 1219) = (   0.3535534   0.5975052   0.1096016), wk =   0.0007138
        k( 1220) = (   0.3535534   0.5992730   0.1078338), wk =   0.0007138
        k( 1221) = (   0.3535534   0.6010408   0.1060660), wk =   0.0007138
        k( 1222) = (   0.3535534   0.6028085   0.1042983), wk =   0.0007138
        k( 1223) = (   0.3535534   0.6045763   0.1025305), wk =   0.0007138
        k( 1224) = (   0.3535534   0.6063441   0.1007627), wk =   0.0007138
        k( 1225) = (   0.3535534   0.6081118   0.0989949), wk =   0.0007138
        k( 1226) = (   0.3535534   0.6098796   0.0972272), wk =   0.0007138
        k( 1227) = (   0.3535534   0.6116474   0.0954594), wk =   0.0007138
        k( 1228) = (   0.3535534   0.6134151   0.0936916), wk =   0.0007138
        k( 1229) = (   0.3535534   0.6151829   0.0919239), wk =   0.0007138
        k( 1230) = (   0.3535534   0.6169507   0.0901561), wk =   0.0007138
        k( 1231) = (   0.3535534   0.6187184   0.0883883), wk =   0.0007138
        k( 1232) = (   0.3535534   0.6204862   0.0866206), wk =   0.0007138
        k( 1233) = (   0.3535534   0.6222540   0.0848528), wk =   0.0007138
        k( 1234) = (   0.3535534   0.6240217   0.0830850), wk =   0.0007138
        k( 1235) = (   0.3535534   0.6257895   0.0813173), wk =   0.0007138
        k( 1236) = (   0.3535534   0.6275573   0.0795495), wk =   0.0007138
        k( 1237) = (   0.3535534   0.6293250   0.0777817), wk =   0.0007138
        k( 1238) = (   0.3535534   0.6310928   0.0760140), wk =   0.0007138
        k( 1239) = (   0.3535534   0.6328606   0.0742462), wk =   0.0007138
        k( 1240) = (   0.3535534   0.6346283   0.0724784), wk =   0.0007138
        k( 1241) = (   0.3535534   0.6363961   0.0707107), wk =   0.0007138
        k( 1242) = (   0.3535534   0.6381639   0.0689429), wk =   0.0007138
        k( 1243) = (   0.3535534   0.6399316   0.0671751), wk =   0.0007138
        k( 1244) = (   0.3535534   0.6416994   0.0654074), wk =   0.0007138
        k( 1245) = (   0.3535534   0.6434672   0.0636396), wk =   0.0007138
        k( 1246) = (   0.3535534   0.6452349   0.0618718), wk =   0.0007138
        k( 1247) = (   0.3535534   0.6470027   0.0601041), wk =   0.0007138
        k( 1248) = (   0.3535534   0.6487705   0.0583363), wk =   0.0007138
        k( 1249) = (   0.3535534   0.6505382   0.0565685), wk =   0.0007138
        k( 1250) = (   0.3535534   0.6523060   0.0548008), wk =   0.0007138
        k( 1251) = (   0.3535534   0.6540738   0.0530330), wk =   0.0007138
        k( 1252) = (   0.3535534   0.6558415   0.0512652), wk =   0.0007138
        k( 1253) = (   0.3535534   0.6576093   0.0494975), wk =   0.0007138
        k( 1254) = (   0.3535534   0.6593771   0.0477297), wk =   0.0007138
        k( 1255) = (   0.3535534   0.6611448   0.0459619), wk =   0.0007138
        k( 1256) = (   0.3535534   0.6629126   0.0441942), wk =   0.0007138
        k( 1257) = (   0.3535534   0.6646804   0.0424264), wk =   0.0007138
        k( 1258) = (   0.3535534   0.6664481   0.0406586), wk =   0.0007138
        k( 1259) = (   0.3535534   0.6682159   0.0388909), wk =   0.0007138
        k( 1260) = (   0.3535534   0.6699837   0.0371231), wk =   0.0007138
        k( 1261) = (   0.3535534   0.6717514   0.0353553), wk =   0.0007138
        k( 1262) = (   0.3535534   0.6735192   0.0335876), wk =   0.0007138
        k( 1263) = (   0.3535534   0.6752870   0.0318198), wk =   0.0007138
        k( 1264) = (   0.3535534   0.6770547   0.0300520), wk =   0.0007138
        k( 1265) = (   0.3535534   0.6788225   0.0282843), wk =   0.0007138
        k( 1266) = (   0.3535534   0.6805903   0.0265165), wk =   0.0007138
        k( 1267) = (   0.3535534   0.6823580   0.0247487), wk =   0.0007138
        k( 1268) = (   0.3535534   0.6841258   0.0229810), wk =   0.0007138
        k( 1269) = (   0.3535534   0.6858936   0.0212132), wk =   0.0007138
        k( 1270) = (   0.3535534   0.6876613   0.0194454), wk =   0.0007138
        k( 1271) = (   0.3535534   0.6894291   0.0176777), wk =   0.0007138
        k( 1272) = (   0.3535534   0.6911969   0.0159099), wk =   0.0007138
        k( 1273) = (   0.3535534   0.6929646   0.0141421), wk =   0.0007138
        k( 1274) = (   0.3535534   0.6947324   0.0123744), wk =   0.0007138
        k( 1275) = (   0.3535534   0.6965002   0.0106066), wk =   0.0007138
        k( 1276) = (   0.3535534   0.6982679   0.0088388), wk =   0.0007138
        k( 1277) = (   0.3535534   0.7000357   0.0070711), wk =   0.0007138
        k( 1278) = (   0.3535534   0.7018035   0.0053033), wk =   0.0007138
        k( 1279) = (   0.3535534   0.7035712   0.0035355), wk =   0.0007138
        k( 1280) = (   0.3535534   0.7053390   0.0017678), wk =   0.0007138
        k( 1281) = (   0.3535534   0.7071068   0.0000000), wk =   0.0007138
        k( 1282) = (   0.3506071   0.7071068   0.0000000), wk =   0.0007138
        k( 1283) = (   0.3476608   0.7071068   0.0000000), wk =   0.0007138
        k( 1284) = (   0.3447146   0.7071068   0.0000000), wk =   0.0007138
        k( 1285) = (   0.3417683   0.7071068   0.0000000), wk =   0.0007138
        k( 1286) = (   0.3388220   0.7071068   0.0000000), wk =   0.0007138
        k( 1287) = (   0.3358757   0.7071068   0.0000000), wk =   0.0007138
        k( 1288) = (   0.3329294   0.7071068   0.0000000), wk =   0.0007138
        k( 1289) = (   0.3299832   0.7071068   0.0000000), wk =   0.0007138
        k( 1290) = (   0.3270369   0.7071068   0.0000000), wk =   0.0007138
        k( 1291) = (   0.3240906   0.7071068   0.0000000), wk =   0.0007138
        k( 1292) = (   0.3211443   0.7071068   0.0000000), wk =   0.0007138
        k( 1293) = (   0.3181981   0.7071068   0.0000000), wk =   0.0007138
        k( 1294) = (   0.3152518   0.7071068   0.0000000), wk =   0.0007138
        k( 1295) = (   0.3123055   0.7071068   0.0000000), wk =   0.0007138
        k( 1296) = (   0.3093592   0.7071068   0.0000000), wk =   0.0007138
        k( 1297) = (   0.3064129   0.7071068   0.0000000), wk =   0.0007138
        k( 1298) = (   0.3034667   0.7071068   0.0000000), wk =   0.0007138
        k( 1299) = (   0.3005204   0.7071068   0.0000000), wk =   0.0007138
        k( 1300) = (   0.2975741   0.7071068   0.0000000), wk =   0.0007138
        k( 1301) = (   0.2946278   0.7071068   0.0000000), wk =   0.0007138
        k( 1302) = (   0.2916815   0.7071068  -0.0000000), wk =   0.0007138
        k( 1303) = (   0.2887353   0.7071068   0.0000000), wk =   0.0007138
        k( 1304) = (   0.2857890   0.7071068   0.0000000), wk =   0.0007138
        k( 1305) = (   0.2828427   0.7071068   0.0000000), wk =   0.0007138
        k( 1306) = (   0.2798964   0.7071068   0.0000000), wk =   0.0007138
        k( 1307) = (   0.2769502   0.7071068  -0.0000000), wk =   0.0007138
        k( 1308) = (   0.2740039   0.7071068   0.0000000), wk =   0.0007138
        k( 1309) = (   0.2710576   0.7071068   0.0000000), wk =   0.0007138
        k( 1310) = (   0.2681113   0.7071068  -0.0000000), wk =   0.0007138
        k( 1311) = (   0.2651650   0.7071068   0.0000000), wk =   0.0007138
        k( 1312) = (   0.2622188   0.7071068   0.0000000), wk =   0.0007138
        k( 1313) = (   0.2592725   0.7071068   0.0000000), wk =   0.0007138
        k( 1314) = (   0.2563262   0.7071068   0.0000000), wk =   0.0007138
        k( 1315) = (   0.2533799   0.7071068   0.0000000), wk =   0.0007138
        k( 1316) = (   0.2504337   0.7071068   0.0000000), wk =   0.0007138
        k( 1317) = (   0.2474874   0.7071068   0.0000000), wk =   0.0007138
        k( 1318) = (   0.2445411   0.7071068   0.0000000), wk =   0.0007138
        k( 1319) = (   0.2415948   0.7071068   0.0000000), wk =   0.0007138
        k( 1320) = (   0.2386485   0.7071068   0.0000000), wk =   0.0007138
        k( 1321) = (   0.2357023   0.7071068   0.0000000), wk =   0.0007138
        k( 1322) = (   0.2327560   0.7071068   0.0000000), wk =   0.0007138
        k( 1323) = (   0.2298097   0.7071068   0.0000000), wk =   0.0007138
        k( 1324) = (   0.2268634   0.7071068  -0.0000000), wk =   0.0007138
        k( 1325) = (   0.2239171   0.7071068   0.0000000), wk =   0.0007138
        k( 1326) = (   0.2209709   0.7071068   0.0000000), wk =   0.0007138
        k( 1327) = (   0.2180246   0.7071068   0.0000000), wk =   0.0007138
        k( 1328) = (   0.2150783   0.7071068   0.0000000), wk =   0.0007138
        k( 1329) = (   0.2121320   0.7071068   0.0000000), wk =   0.0007138
        k( 1330) = (   0.2091858   0.7071068   0.0000000), wk =   0.0007138
        k( 1331) = (   0.2062395   0.7071068   0.0000000), wk =   0.0007138
        k( 1332) = (   0.2032932   0.7071068  -0.0000000), wk =   0.0007138
        k( 1333) = (   0.2003469   0.7071068   0.0000000), wk =   0.0007138
        k( 1334) = (   0.1974006   0.7071068   0.0000000), wk =   0.0007138
        k( 1335) = (   0.1944544   0.7071068   0.0000000), wk =   0.0007138
        k( 1336) = (   0.1915081   0.7071068   0.0000000), wk =   0.0007138
        k( 1337) = (   0.1885618   0.7071068   0.0000000), wk =   0.0007138
        k( 1338) = (   0.1856155   0.7071068   0.0000000), wk =   0.0007138
        k( 1339) = (   0.1826693   0.7071068   0.0000000), wk =   0.0007138
        k( 1340) = (   0.1797230   0.7071068   0.0000000), wk =   0.0007138
        k( 1341) = (   0.1767767   0.7071068   0.0000000), wk =   0.0007138
        k( 1342) = (   0.1738304   0.7071068   0.0000000), wk =   0.0007138
        k( 1343) = (   0.1708841   0.7071068   0.0000000), wk =   0.0007138
        k( 1344) = (   0.1679379   0.7071068   0.0000000), wk =   0.0007138
        k( 1345) = (   0.1649916   0.7071068   0.0000000), wk =   0.0007138
        k( 1346) = (   0.1620453   0.7071068   0.0000000), wk =   0.0007138
        k( 1347) = (   0.1590990   0.7071068   0.0000000), wk =   0.0007138
        k( 1348) = (   0.1561527   0.7071068   0.0000000), wk =   0.0007138
        k( 1349) = (   0.1532065   0.7071068   0.0000000), wk =   0.0007138
        k( 1350) = (   0.1502602   0.7071068   0.0000000), wk =   0.0007138
        k( 1351) = (   0.1473139   0.7071068   0.0000000), wk =   0.0007138
        k( 1352) = (   0.1443676   0.7071068   0.0000000), wk =   0.0007138
        k( 1353) = (   0.1414214   0.7071068   0.0000000), wk =   0.0007138
        k( 1354) = (   0.1384751   0.7071068  -0.0000000), wk =   0.0007138
        k( 1355) = (   0.1355288   0.7071068  -0.0000000), wk =   0.0007138
        k( 1356) = (   0.1325825   0.7071068   0.0000000), wk =   0.0007138
        k( 1357) = (   0.1296362   0.7071068   0.0000000), wk =   0.0007138
        k( 1358) = (   0.1266900   0.7071068   0.0000000), wk =   0.0007138
        k( 1359) = (   0.1237437   0.7071068  -0.0000000), wk =   0.0007138
        k( 1360) = (   0.1207974   0.7071068   0.0000000), wk =   0.0007138
        k( 1361) = (   0.1178511   0.7071068   0.0000000), wk =   0.0007138
        k( 1362) = (   0.1149049   0.7071068  -0.0000000), wk =   0.0007138
        k( 1363) = (   0.1119586   0.7071068  -0.0000000), wk =   0.0007138
        k( 1364) = (   0.1090123   0.7071068   0.0000000), wk =   0.0007138
        k( 1365) = (   0.1060660   0.7071068   0.0000000), wk =   0.0007138
        k( 1366) = (   0.1031197   0.7071068  -0.0000000), wk =   0.0007138
        k( 1367) = (   0.1001735   0.7071068   0.0000000), wk =   0.0007138
        k( 1368) = (   0.0972272   0.7071068   0.0000000), wk =   0.0007138
        k( 1369) = (   0.0942809   0.7071068  -0.0000000), wk =   0.0007138
        k( 1370) = (   0.0913346   0.7071068  -0.0000000), wk =   0.0007138
        k( 1371) = (   0.0883883   0.7071068   0.0000000), wk =   0.0007138
        k( 1372) = (   0.0854421   0.7071068   0.0000000), wk =   0.0007138
        k( 1373) = (   0.0824958   0.7071068   0.0000000), wk =   0.0007138
        k( 1374) = (   0.0795495   0.7071068  -0.0000000), wk =   0.0007138
        k( 1375) = (   0.0766032   0.7071068   0.0000000), wk =   0.0007138
        k( 1376) = (   0.0736570   0.7071068   0.0000000), wk =   0.0007138
        k( 1377) = (   0.0707107   0.7071068  -0.0000000), wk =   0.0007138
        k( 1378) = (   0.0677644   0.7071068   0.0000000), wk =   0.0007138
        k( 1379) = (   0.0648181   0.7071068   0.0000000), wk =   0.0007138
        k( 1380) = (   0.0618718   0.7071068   0.0000000), wk =   0.0007138
        k( 1381) = (   0.0589256   0.7071068   0.0000000), wk =   0.0007138
        k( 1382) = (   0.0559793   0.7071068   0.0000000), wk =   0.0007138
        k( 1383) = (   0.0530330   0.7071068   0.0000000), wk =   0.0007138
        k( 1384) = (   0.0500867   0.7071068  -0.0000000), wk =   0.0007138
        k( 1385) = (   0.0471405   0.7071068  -0.0000000), wk =   0.0007138
        k( 1386) = (   0.0441942   0.7071068   0.0000000), wk =   0.0007138
        k( 1387) = (   0.0412479   0.7071068   0.0000000), wk =   0.0007138
        k( 1388) = (   0.0383016   0.7071068   0.0000000), wk =   0.0007138
        k( 1389) = (   0.0353553   0.7071068   0.0000000), wk =   0.0007138
        k( 1390) = (   0.0324091   0.7071068   0.0000000), wk =   0.0007138
        k( 1391) = (   0.0294628   0.7071068   0.0000000), wk =   0.0007138
        k( 1392) = (   0.0265165   0.7071068  -0.0000000), wk =   0.0007138
        k( 1393) = (   0.0235702   0.7071068   0.0000000), wk =   0.0007138
        k( 1394) = (   0.0206239   0.7071068   0.0000000), wk =   0.0007138
        k( 1395) = (   0.0176777   0.7071068   0.0000000), wk =   0.0007138
        k( 1396) = (   0.0147314   0.7071068   0.0000000), wk =   0.0007138
        k( 1397) = (   0.0117851   0.7071068   0.0000000), wk =   0.0007138
        k( 1398) = (   0.0088388   0.7071068   0.0000000), wk =   0.0007138
        k( 1399) = (   0.0058926   0.7071068  -0.0000000), wk =   0.0007138
        k( 1400) = (   0.0029463   0.7071068   0.0000000), wk =   0.0007138
        k( 1401) = (   0.0000000   0.7071068   0.0000000), wk =   0.0007138

                       cryst. coord.
        k(    1) = (   0.0000000   0.0000000   0.0000000), wk =   0.0007138
        k(    2) = (   0.0015625   0.0000000   0.0015625), wk =   0.0007138
        k(    3) = (   0.0031250   0.0000000   0.0031250), wk =   0.0007138
        k(    4) = (   0.0046875   0.0000000   0.0046875), wk =   0.0007138
        k(    5) = (   0.0062500   0.0000000   0.0062500), wk =   0.0007138
        k(    6) = (   0.0078125   0.0000000   0.0078125), wk =   0.0007138
        k(    7) = (   0.0093750   0.0000000   0.0093750), wk =   0.0007138
        k(    8) = (   0.0109375   0.0000000   0.0109375), wk =   0.0007138
        k(    9) = (   0.0125000   0.0000000   0.0125000), wk =   0.0007138
        k(   10) = (   0.0140625   0.0000000   0.0140625), wk =   0.0007138
        k(   11) = (   0.0156250   0.0000000   0.0156250), wk =   0.0007138
        k(   12) = (   0.0171875   0.0000000   0.0171875), wk =   0.0007138
        k(   13) = (   0.0187500   0.0000000   0.0187500), wk =   0.0007138
        k(   14) = (   0.0203125   0.0000000   0.0203125), wk =   0.0007138
        k(   15) = (   0.0218750   0.0000000   0.0218750), wk =   0.0007138
        k(   16) = (   0.0234375   0.0000000   0.0234375), wk =   0.0007138
        k(   17) = (   0.0250000   0.0000000   0.0250000), wk =   0.0007138
        k(   18) = (   0.0265625   0.0000000   0.0265625), wk =   0.0007138
        k(   19) = (   0.0281250   0.0000000   0.0281250), wk =   0.0007138
        k(   20) = (   0.0296875   0.0000000   0.0296875), wk =   0.0007138
        k(   21) = (   0.0312500   0.0000000   0.0312500), wk =   0.0007138
        k(   22) = (   0.0328125   0.0000000   0.0328125), wk =   0.0007138
        k(   23) = (   0.0343750   0.0000000   0.0343750), wk =   0.0007138
        k(   24) = (   0.0359375   0.0000000   0.0359375), wk =   0.0007138
        k(   25) = (   0.0375000   0.0000000   0.0375000), wk =   0.0007138
        k(   26) = (   0.0390625   0.0000000   0.0390625), wk =   0.0007138
        k(   27) = (   0.0406250   0.0000000   0.0406250), wk =   0.0007138
        k(   28) = (   0.0421875   0.0000000   0.0421875), wk =   0.0007138
        k(   29) = (   0.0437500   0.0000000   0.0437500), wk =   0.0007138
        k(   30) = (   0.0453125   0.0000000   0.0453125), wk =   0.0007138
        k(   31) = (   0.0468750   0.0000000   0.0468750), wk =   0.0007138
        k(   32) = (   0.0484375   0.0000000   0.0484375), wk =   0.0007138
        k(   33) = (   0.0500000   0.0000000   0.0500000), wk =   0.0007138
        k(   34) = (   0.0515625   0.0000000   0.0515625), wk =   0.0007138
        k(   35) = (   0.0531250   0.0000000   0.0531250), wk =   0.0007138
        k(   36) = (   0.0546875   0.0000000   0.0546875), wk =   0.0007138
        k(   37) = (   0.0562500   0.0000000   0.0562500), wk =   0.0007138
        k(   38) = (   0.0578125   0.0000000   0.0578125), wk =   0.0007138
        k(   39) = (   0.0593750   0.0000000   0.0593750), wk =   0.0007138
        k(   40) = (   0.0609375   0.0000000   0.0609375), wk =   0.0007138
        k(   41) = (   0.0625000   0.0000000   0.0625000), wk =   0.0007138
        k(   42) = (   0.0640625   0.0000000   0.0640625), wk =   0.0007138
        k(   43) = (   0.0656250   0.0000000   0.0656250), wk =   0.0007138
        k(   44) = (   0.0671875   0.0000000   0.0671875), wk =   0.0007138
        k(   45) = (   0.0687500   0.0000000   0.0687500), wk =   0.0007138
        k(   46) = (   0.0703125   0.0000000   0.0703125), wk =   0.0007138
        k(   47) = (   0.0718750   0.0000000   0.0718750), wk =   0.0007138
        k(   48) = (   0.0734375   0.0000000   0.0734375), wk =   0.0007138
        k(   49) = (   0.0750000   0.0000000   0.0750000), wk =   0.0007138
        k(   50) = (   0.0765625   0.0000000   0.0765625), wk =   0.0007138
        k(   51) = (   0.0781250   0.0000000   0.0781250), wk =   0.0007138
        k(   52) = (   0.0796875   0.0000000   0.0796875), wk =   0.0007138
        k(   53) = (   0.0812500   0.0000000   0.0812500), wk =   0.0007138
        k(   54) = (   0.0828125   0.0000000   0.0828125), wk =   0.0007138
        k(   55) = (   0.0843750   0.0000000   0.0843750), wk =   0.0007138
        k(   56) = (   0.0859375   0.0000000   0.0859375), wk =   0.0007138
        k(   57) = (   0.0875000   0.0000000   0.0875000), wk =   0.0007138
        k(   58) = (   0.0890625   0.0000000   0.0890625), wk =   0.0007138
        k(   59) = (   0.0906250   0.0000000   0.0906250), wk =   0.0007138
        k(   60) = (   0.0921875   0.0000000   0.0921875), wk =   0.0007138
        k(   61) = (   0.0937500   0.0000000   0.0937500), wk =   0.0007138
        k(   62) = (   0.0953125   0.0000000   0.0953125), wk =   0.0007138
        k(   63) = (   0.0968750   0.0000000   0.0968750), wk =   0.0007138
        k(   64) = (   0.0984375   0.0000000   0.0984375), wk =   0.0007138
        k(   65) = (   0.1000000   0.0000000   0.1000000), wk =   0.0007138
        k(   66) = (   0.1015625   0.0000000   0.1015625), wk =   0.0007138
        k(   67) = (   0.1031250   0.0000000   0.1031250), wk =   0.0007138
        k(   68) = (   0.1046875   0.0000000   0.1046875), wk =   0.0007138
        k(   69) = (   0.1062500   0.0000000   0.1062500), wk =   0.0007138
        k(   70) = (   0.1078125   0.0000000   0.1078125), wk =   0.0007138
        k(   71) = (   0.1093750   0.0000000   0.1093750), wk =   0.0007138
        k(   72) = (   0.1109375   0.0000000   0.1109375), wk =   0.0007138
        k(   73) = (   0.1125000   0.0000000   0.1125000), wk =   0.0007138
        k(   74) = (   0.1140625   0.0000000   0.1140625), wk =   0.0007138
        k(   75) = (   0.1156250   0.0000000   0.1156250), wk =   0.0007138
        k(   76) = (   0.1171875   0.0000000   0.1171875), wk =   0.0007138
        k(   77) = (   0.1187500   0.0000000   0.1187500), wk =   0.0007138
        k(   78) = (   0.1203125   0.0000000   0.1203125), wk =   0.0007138
        k(   79) = (   0.1218750   0.0000000   0.1218750), wk =   0.0007138
        k(   80) = (   0.1234375   0.0000000   0.1234375), wk =   0.0007138
        k(   81) = (   0.1250000   0.0000000   0.1250000), wk =   0.0007138
        k(   82) = (   0.1265625   0.0000000   0.1265625), wk =   0.0007138
        k(   83) = (   0.1281250   0.0000000   0.1281250), wk =   0.0007138
        k(   84) = (   0.1296875   0.0000000   0.1296875), wk =   0.0007138
        k(   85) = (   0.1312500   0.0000000   0.1312500), wk =   0.0007138
        k(   86) = (   0.1328125   0.0000000   0.1328125), wk =   0.0007138
        k(   87) = (   0.1343750   0.0000000   0.1343750), wk =   0.0007138
        k(   88) = (   0.1359375   0.0000000   0.1359375), wk =   0.0007138
        k(   89) = (   0.1375000   0.0000000   0.1375000), wk =   0.0007138
        k(   90) = (   0.1390625   0.0000000   0.1390625), wk =   0.0007138
        k(   91) = (   0.1406250   0.0000000   0.1406250), wk =   0.0007138
        k(   92) = (   0.1421875   0.0000000   0.1421875), wk =   0.0007138
        k(   93) = (   0.1437500   0.0000000   0.1437500), wk =   0.0007138
        k(   94) = (   0.1453125   0.0000000   0.1453125), wk =   0.0007138
        k(   95) = (   0.1468750   0.0000000   0.1468750), wk =   0.0007138
        k(   96) = (   0.1484375   0.0000000   0.1484375), wk =   0.0007138
        k(   97) = (   0.1500000   0.0000000   0.1500000), wk =   0.0007138
        k(   98) = (   0.1515625   0.0000000   0.1515625), wk =   0.0007138
        k(   99) = (   0.1531250   0.0000000   0.1531250), wk =   0.0007138
        k(  100) = (   0.1546875   0.0000000   0.1546875), wk =   0.0007138
        k(  101) = (   0.1562500   0.0000000   0.1562500), wk =   0.0007138
        k(  102) = (   0.1578125   0.0000000   0.1578125), wk =   0.0007138
        k(  103) = (   0.1593750   0.0000000   0.1593750), wk =   0.0007138
        k(  104) = (   0.1609375   0.0000000   0.1609375), wk =   0.0007138
        k(  105) = (   0.1625000   0.0000000   0.1625000), wk =   0.0007138
        k(  106) = (   0.1640625   0.0000000   0.1640625), wk =   0.0007138
        k(  107) = (   0.1656250   0.0000000   0.1656250), wk =   0.0007138
        k(  108) = (   0.1671875   0.0000000   0.1671875), wk =   0.0007138
        k(  109) = (   0.1687500   0.0000000   0.1687500), wk =   0.0007138
        k(  110) = (   0.1703125   0.0000000   0.1703125), wk =   0.0007138
        k(  111) = (   0.1718750   0.0000000   0.1718750), wk =   0.0007138
        k(  112) = (   0.1734375   0.0000000   0.1734375), wk =   0.0007138
        k(  113) = (   0.1750000   0.0000000   0.1750000), wk =   0.0007138
        k(  114) = (   0.1765625   0.0000000   0.1765625), wk =   0.0007138
        k(  115) = (   0.1781250   0.0000000   0.1781250), wk =   0.0007138
        k(  116) = (   0.1796875   0.0000000   0.1796875), wk =   0.0007138
        k(  117) = (   0.1812500   0.0000000   0.1812500), wk =   0.0007138
        k(  118) = (   0.1828125   0.0000000   0.1828125), wk =   0.0007138
        k(  119) = (   0.1843750   0.0000000   0.1843750), wk =   0.0007138
        k(  120) = (   0.1859375   0.0000000   0.1859375), wk =   0.0007138
        k(  121) = (   0.1875000   0.0000000   0.1875000), wk =   0.0007138
        k(  122) = (   0.1890625   0.0000000   0.1890625), wk =   0.0007138
        k(  123) = (   0.1906250   0.0000000   0.1906250), wk =   0.0007138
        k(  124) = (   0.1921875   0.0000000   0.1921875), wk =   0.0007138
        k(  125) = (   0.1937500   0.0000000   0.1937500), wk =   0.0007138
        k(  126) = (   0.1953125   0.0000000   0.1953125), wk =   0.0007138
        k(  127) = (   0.1968750   0.0000000   0.1968750), wk =   0.0007138
        k(  128) = (   0.1984375   0.0000000   0.1984375), wk =   0.0007138
        k(  129) = (   0.2000000   0.0000000   0.2000000), wk =   0.0007138
        k(  130) = (   0.2015625   0.0000000   0.2015625), wk =   0.0007138
        k(  131) = (   0.2031250   0.0000000   0.2031250), wk =   0.0007138
        k(  132) = (   0.2046875   0.0000000   0.2046875), wk =   0.0007138
        k(  133) = (   0.2062500   0.0000000   0.2062500), wk =   0.0007138
        k(  134) = (   0.2078125   0.0000000   0.2078125), wk =   0.0007138
        k(  135) = (   0.2093750   0.0000000   0.2093750), wk =   0.0007138
        k(  136) = (   0.2109375   0.0000000   0.2109375), wk =   0.0007138
        k(  137) = (   0.2125000   0.0000000   0.2125000), wk =   0.0007138
        k(  138) = (   0.2140625   0.0000000   0.2140625), wk =   0.0007138
        k(  139) = (   0.2156250   0.0000000   0.2156250), wk =   0.0007138
        k(  140) = (   0.2171875   0.0000000   0.2171875), wk =   0.0007138
        k(  141) = (   0.2187500   0.0000000   0.2187500), wk =   0.0007138
        k(  142) = (   0.2203125   0.0000000   0.2203125), wk =   0.0007138
        k(  143) = (   0.2218750   0.0000000   0.2218750), wk =   0.0007138
        k(  144) = (   0.2234375   0.0000000   0.2234375), wk =   0.0007138
        k(  145) = (   0.2250000   0.0000000   0.2250000), wk =   0.0007138
        k(  146) = (   0.2265625   0.0000000   0.2265625), wk =   0.0007138
        k(  147) = (   0.2281250   0.0000000   0.2281250), wk =   0.0007138
        k(  148) = (   0.2296875   0.0000000   0.2296875), wk =   0.0007138
        k(  149) = (   0.2312500   0.0000000   0.2312500), wk =   0.0007138
        k(  150) = (   0.2328125   0.0000000   0.2328125), wk =   0.0007138
        k(  151) = (   0.2343750   0.0000000   0.2343750), wk =   0.0007138
        k(  152) = (   0.2359375   0.0000000   0.2359375), wk =   0.0007138
        k(  153) = (   0.2375000   0.0000000   0.2375000), wk =   0.0007138
        k(  154) = (   0.2390625   0.0000000   0.2390625), wk =   0.0007138
        k(  155) = (   0.2406250   0.0000000   0.2406250), wk =   0.0007138
        k(  156) = (   0.2421875   0.0000000   0.2421875), wk =   0.0007138
        k(  157) = (   0.2437500   0.0000000   0.2437500), wk =   0.0007138
        k(  158) = (   0.2453125   0.0000000   0.2453125), wk =   0.0007138
        k(  159) = (   0.2468750   0.0000000   0.2468750), wk =   0.0007138
        k(  160) = (   0.2484375   0.0000000   0.2484375), wk =   0.0007138
        k(  161) = (   0.2500000   0.0000000   0.2500000), wk =   0.0007138
        k(  162) = (   0.2515625   0.0000000   0.2515625), wk =   0.0007138
        k(  163) = (   0.2531250   0.0000000   0.2531250), wk =   0.0007138
        k(  164) = (   0.2546875   0.0000000   0.2546875), wk =   0.0007138
        k(  165) = (   0.2562500   0.0000000   0.2562500), wk =   0.0007138
        k(  166) = (   0.2578125   0.0000000   0.2578125), wk =   0.0007138
        k(  167) = (   0.2593750   0.0000000   0.2593750), wk =   0.0007138
        k(  168) = (   0.2609375   0.0000000   0.2609375), wk =   0.0007138
        k(  169) = (   0.2625000   0.0000000   0.2625000), wk =   0.0007138
        k(  170) = (   0.2640625   0.0000000   0.2640625), wk =   0.0007138
        k(  171) = (   0.2656250   0.0000000   0.2656250), wk =   0.0007138
        k(  172) = (   0.2671875   0.0000000   0.2671875), wk =   0.0007138
        k(  173) = (   0.2687500   0.0000000   0.2687500), wk =   0.0007138
        k(  174) = (   0.2703125   0.0000000   0.2703125), wk =   0.0007138
        k(  175) = (   0.2718750   0.0000000   0.2718750), wk =   0.0007138
        k(  176) = (   0.2734375   0.0000000   0.2734375), wk =   0.0007138
        k(  177) = (   0.2750000   0.0000000   0.2750000), wk =   0.0007138
        k(  178) = (   0.2765625   0.0000000   0.2765625), wk =   0.0007138
        k(  179) = (   0.2781250   0.0000000   0.2781250), wk =   0.0007138
        k(  180) = (   0.2796875   0.0000000   0.2796875), wk =   0.0007138
        k(  181) = (   0.2812500   0.0000000   0.2812500), wk =   0.0007138
        k(  182) = (   0.2828125   0.0000000   0.2828125), wk =   0.0007138
        k(  183) = (   0.2843750   0.0000000   0.2843750), wk =   0.0007138
        k(  184) = (   0.2859375   0.0000000   0.2859375), wk =   0.0007138
        k(  185) = (   0.2875000   0.0000000   0.2875000), wk =   0.0007138
        k(  186) = (   0.2890625   0.0000000   0.2890625), wk =   0.0007138
        k(  187) = (   0.2906250   0.0000000   0.2906250), wk =   0.0007138
        k(  188) = (   0.2921875   0.0000000   0.2921875), wk =   0.0007138
        k(  189) = (   0.2937500   0.0000000   0.2937500), wk =   0.0007138
        k(  190) = (   0.2953125   0.0000000   0.2953125), wk =   0.0007138
        k(  191) = (   0.2968750   0.0000000   0.2968750), wk =   0.0007138
        k(  192) = (   0.2984375   0.0000000   0.2984375), wk =   0.0007138
        k(  193) = (   0.3000000   0.0000000   0.3000000), wk =   0.0007138
        k(  194) = (   0.3015625   0.0000000   0.3015625), wk =   0.0007138
        k(  195) = (   0.3031250   0.0000000   0.3031250), wk =   0.0007138
        k(  196) = (   0.3046875   0.0000000   0.3046875), wk =   0.0007138
        k(  197) = (   0.3062500   0.0000000   0.3062500), wk =   0.0007138
        k(  198) = (   0.3078125   0.0000000   0.3078125), wk =   0.0007138
        k(  199) = (   0.3093750   0.0000000   0.3093750), wk =   0.0007138
        k(  200) = (   0.3109375   0.0000000   0.3109375), wk =   0.0007138
        k(  201) = (   0.3125000   0.0000000   0.3125000), wk =   0.0007138
        k(  202) = (   0.3140625   0.0000000   0.3140625), wk =   0.0007138
        k(  203) = (   0.3156250   0.0000000   0.3156250), wk =   0.0007138
        k(  204) = (   0.3171875   0.0000000   0.3171875), wk =   0.0007138
        k(  205) = (   0.3187500   0.0000000   0.3187500), wk =   0.0007138
        k(  206) = (   0.3203125   0.0000000   0.3203125), wk =   0.0007138
        k(  207) = (   0.3218750   0.0000000   0.3218750), wk =   0.0007138
        k(  208) = (   0.3234375   0.0000000   0.3234375), wk =   0.0007138
        k(  209) = (   0.3250000   0.0000000   0.3250000), wk =   0.0007138
        k(  210) = (   0.3265625   0.0000000   0.3265625), wk =   0.0007138
        k(  211) = (   0.3281250   0.0000000   0.3281250), wk =   0.0007138
        k(  212) = (   0.3296875   0.0000000   0.3296875), wk =   0.0007138
        k(  213) = (   0.3312500   0.0000000   0.3312500), wk =   0.0007138
        k(  214) = (   0.3328125   0.0000000   0.3328125), wk =   0.0007138
        k(  215) = (   0.3343750   0.0000000   0.3343750), wk =   0.0007138
        k(  216) = (   0.3359375   0.0000000   0.3359375), wk =   0.0007138
        k(  217) = (   0.3375000   0.0000000   0.3375000), wk =   0.0007138
        k(  218) = (   0.3390625   0.0000000   0.3390625), wk =   0.0007138
        k(  219) = (   0.3406250   0.0000000   0.3406250), wk =   0.0007138
        k(  220) = (   0.3421875   0.0000000   0.3421875), wk =   0.0007138
        k(  221) = (   0.3437500   0.0000000   0.3437500), wk =   0.0007138
        k(  222) = (   0.3453125   0.0000000   0.3453125), wk =   0.0007138
        k(  223) = (   0.3468750   0.0000000   0.3468750), wk =   0.0007138
        k(  224) = (   0.3484375   0.0000000   0.3484375), wk =   0.0007138
        k(  225) = (   0.3500000   0.0000000   0.3500000), wk =   0.0007138
        k(  226) = (   0.3515625   0.0000000   0.3515625), wk =   0.0007138
        k(  227) = (   0.3531250   0.0000000   0.3531250), wk =   0.0007138
        k(  228) = (   0.3546875   0.0000000   0.3546875), wk =   0.0007138
        k(  229) = (   0.3562500   0.0000000   0.3562500), wk =   0.0007138
        k(  230) = (   0.3578125   0.0000000   0.3578125), wk =   0.0007138
        k(  231) = (   0.3593750   0.0000000   0.3593750), wk =   0.0007138
        k(  232) = (   0.3609375   0.0000000   0.3609375), wk =   0.0007138
        k(  233) = (   0.3625000   0.0000000   0.3625000), wk =   0.0007138
        k(  234) = (   0.3640625   0.0000000   0.3640625), wk =   0.0007138
        k(  235) = (   0.3656250   0.0000000   0.3656250), wk =   0.0007138
        k(  236) = (   0.3671875   0.0000000   0.3671875), wk =   0.0007138
        k(  237) = (   0.3687500   0.0000000   0.3687500), wk =   0.0007138
        k(  238) = (   0.3703125   0.0000000   0.3703125), wk =   0.0007138
        k(  239) = (   0.3718750   0.0000000   0.3718750), wk =   0.0007138
        k(  240) = (   0.3734375   0.0000000   0.3734375), wk =   0.0007138
        k(  241) = (   0.3750000   0.0000000   0.3750000), wk =   0.0007138
        k(  242) = (   0.3765625   0.0000000   0.3765625), wk =   0.0007138
        k(  243) = (   0.3781250   0.0000000   0.3781250), wk =   0.0007138
        k(  244) = (   0.3796875   0.0000000   0.3796875), wk =   0.0007138
        k(  245) = (   0.3812500   0.0000000   0.3812500), wk =   0.0007138
        k(  246) = (   0.3828125   0.0000000   0.3828125), wk =   0.0007138
        k(  247) = (   0.3843750   0.0000000   0.3843750), wk =   0.0007138
        k(  248) = (   0.3859375   0.0000000   0.3859375), wk =   0.0007138
        k(  249) = (   0.3875000   0.0000000   0.3875000), wk =   0.0007138
        k(  250) = (   0.3890625   0.0000000   0.3890625), wk =   0.0007138
        k(  251) = (   0.3906250   0.0000000   0.3906250), wk =   0.0007138
        k(  252) = (   0.3921875   0.0000000   0.3921875), wk =   0.0007138
        k(  253) = (   0.3937500   0.0000000   0.3937500), wk =   0.0007138
        k(  254) = (   0.3953125   0.0000000   0.3953125), wk =   0.0007138
        k(  255) = (   0.3968750   0.0000000   0.3968750), wk =   0.0007138
        k(  256) = (   0.3984375   0.0000000   0.3984375), wk =   0.0007138
        k(  257) = (   0.4000000   0.0000000   0.4000000), wk =   0.0007138
        k(  258) = (   0.4015625   0.0000000   0.4015625), wk =   0.0007138
        k(  259) = (   0.4031250   0.0000000   0.4031250), wk =   0.0007138
        k(  260) = (   0.4046875   0.0000000   0.4046875), wk =   0.0007138
        k(  261) = (   0.4062500   0.0000000   0.4062500), wk =   0.0007138
        k(  262) = (   0.4078125   0.0000000   0.4078125), wk =   0.0007138
        k(  263) = (   0.4093750   0.0000000   0.4093750), wk =   0.0007138
        k(  264) = (   0.4109375   0.0000000   0.4109375), wk =   0.0007138
        k(  265) = (   0.4125000   0.0000000   0.4125000), wk =   0.0007138
        k(  266) = (   0.4140625   0.0000000   0.4140625), wk =   0.0007138
        k(  267) = (   0.4156250   0.0000000   0.4156250), wk =   0.0007138
        k(  268) = (   0.4171875   0.0000000   0.4171875), wk =   0.0007138
        k(  269) = (   0.4187500   0.0000000   0.4187500), wk =   0.0007138
        k(  270) = (   0.4203125   0.0000000   0.4203125), wk =   0.0007138
        k(  271) = (   0.4218750   0.0000000   0.4218750), wk =   0.0007138
        k(  272) = (   0.4234375   0.0000000   0.4234375), wk =   0.0007138
        k(  273) = (   0.4250000   0.0000000   0.4250000), wk =   0.0007138
        k(  274) = (   0.4265625   0.0000000   0.4265625), wk =   0.0007138
        k(  275) = (   0.4281250   0.0000000   0.4281250), wk =   0.0007138
        k(  276) = (   0.4296875   0.0000000   0.4296875), wk =   0.0007138
        k(  277) = (   0.4312500   0.0000000   0.4312500), wk =   0.0007138
        k(  278) = (   0.4328125   0.0000000   0.4328125), wk =   0.0007138
        k(  279) = (   0.4343750   0.0000000   0.4343750), wk =   0.0007138
        k(  280) = (   0.4359375   0.0000000   0.4359375), wk =   0.0007138
        k(  281) = (   0.4375000   0.0000000   0.4375000), wk =   0.0007138
        k(  282) = (   0.4390625   0.0000000   0.4390625), wk =   0.0007138
        k(  283) = (   0.4406250   0.0000000   0.4406250), wk =   0.0007138
        k(  284) = (   0.4421875   0.0000000   0.4421875), wk =   0.0007138
        k(  285) = (   0.4437500   0.0000000   0.4437500), wk =   0.0007138
        k(  286) = (   0.4453125   0.0000000   0.4453125), wk =   0.0007138
        k(  287) = (   0.4468750   0.0000000   0.4468750), wk =   0.0007138
        k(  288) = (   0.4484375   0.0000000   0.4484375), wk =   0.0007138
        k(  289) = (   0.4500000   0.0000000   0.4500000), wk =   0.0007138
        k(  290) = (   0.4515625   0.0000000   0.4515625), wk =   0.0007138
        k(  291) = (   0.4531250   0.0000000   0.4531250), wk =   0.0007138
        k(  292) = (   0.4546875   0.0000000   0.4546875), wk =   0.0007138
        k(  293) = (   0.4562500   0.0000000   0.4562500), wk =   0.0007138
        k(  294) = (   0.4578125   0.0000000   0.4578125), wk =   0.0007138
        k(  295) = (   0.4593750   0.0000000   0.4593750), wk =   0.0007138
        k(  296) = (   0.4609375   0.0000000   0.4609375), wk =   0.0007138
        k(  297) = (   0.4625000   0.0000000   0.4625000), wk =   0.0007138
        k(  298) = (   0.4640625   0.0000000   0.4640625), wk =   0.0007138
        k(  299) = (   0.4656250   0.0000000   0.4656250), wk =   0.0007138
        k(  300) = (   0.4671875   0.0000000   0.4671875), wk =   0.0007138
        k(  301) = (   0.4687500   0.0000000   0.4687500), wk =   0.0007138
        k(  302) = (   0.4703125   0.0000000   0.4703125), wk =   0.0007138
        k(  303) = (   0.4718750   0.0000000   0.4718750), wk =   0.0007138
        k(  304) = (   0.4734375   0.0000000   0.4734375), wk =   0.0007138
        k(  305) = (   0.4750000   0.0000000   0.4750000), wk =   0.0007138
        k(  306) = (   0.4765625   0.0000000   0.4765625), wk =   0.0007138
        k(  307) = (   0.4781250   0.0000000   0.4781250), wk =   0.0007138
        k(  308) = (   0.4796875   0.0000000   0.4796875), wk =   0.0007138
        k(  309) = (   0.4812500   0.0000000   0.4812500), wk =   0.0007138
        k(  310) = (   0.4828125   0.0000000   0.4828125), wk =   0.0007138
        k(  311) = (   0.4843750   0.0000000   0.4843750), wk =   0.0007138
        k(  312) = (   0.4859375   0.0000000   0.4859375), wk =   0.0007138
        k(  313) = (   0.4875000   0.0000000   0.4875000), wk =   0.0007138
        k(  314) = (   0.4890625   0.0000000   0.4890625), wk =   0.0007138
        k(  315) = (   0.4906250   0.0000000   0.4906250), wk =   0.0007138
        k(  316) = (   0.4921875   0.0000000   0.4921875), wk =   0.0007138
        k(  317) = (   0.4937500   0.0000000   0.4937500), wk =   0.0007138
        k(  318) = (   0.4953125   0.0000000   0.4953125), wk =   0.0007138
        k(  319) = (   0.4968750   0.0000000   0.4968750), wk =   0.0007138
        k(  320) = (   0.4984375   0.0000000   0.4984375), wk =   0.0007138
        k(  321) = (   0.5000000   0.0000000   0.5000000), wk =   0.0007138
        k(  322) = (   0.5015625   0.0031250   0.5015625), wk =   0.0007138
        k(  323) = (   0.5031250   0.0062500   0.5031250), wk =   0.0007138
        k(  324) = (   0.5046875   0.0093750   0.5046875), wk =   0.0007138
        k(  325) = (   0.5062500   0.0125000   0.5062500), wk =   0.0007138
        k(  326) = (   0.5078125   0.0156250   0.5078125), wk =   0.0007138
        k(  327) = (   0.5093750   0.0187500   0.5093750), wk =   0.0007138
        k(  328) = (   0.5109375   0.0218750   0.5109375), wk =   0.0007138
        k(  329) = (   0.5125000   0.0250000   0.5125000), wk =   0.0007138
        k(  330) = (   0.5140625   0.0281250   0.5140625), wk =   0.0007138
        k(  331) = (   0.5156250   0.0312500   0.5156250), wk =   0.0007138
        k(  332) = (   0.5171875   0.0343750   0.5171875), wk =   0.0007138
        k(  333) = (   0.5187500   0.0375000   0.5187500), wk =   0.0007138
        k(  334) = (   0.5203125   0.0406250   0.5203125), wk =   0.0007138
        k(  335) = (   0.5218750   0.0437500   0.5218750), wk =   0.0007138
        k(  336) = (   0.5234375   0.0468750   0.5234375), wk =   0.0007138
        k(  337) = (   0.5250000   0.0500000   0.5250000), wk =   0.0007138
        k(  338) = (   0.5265625   0.0531250   0.5265625), wk =   0.0007138
        k(  339) = (   0.5281250   0.0562500   0.5281250), wk =   0.0007138
        k(  340) = (   0.5296875   0.0593750   0.5296875), wk =   0.0007138
        k(  341) = (   0.5312500   0.0625000   0.5312500), wk =   0.0007138
        k(  342) = (   0.5328125   0.0656250   0.5328125), wk =   0.0007138
        k(  343) = (   0.5343750   0.0687500   0.5343750), wk =   0.0007138
        k(  344) = (   0.5359375   0.0718750   0.5359375), wk =   0.0007138
        k(  345) = (   0.5375000   0.0750000   0.5375000), wk =   0.0007138
        k(  346) = (   0.5390625   0.0781250   0.5390625), wk =   0.0007138
        k(  347) = (   0.5406250   0.0812500   0.5406250), wk =   0.0007138
        k(  348) = (   0.5421875   0.0843750   0.5421875), wk =   0.0007138
        k(  349) = (   0.5437500   0.0875000   0.5437500), wk =   0.0007138
        k(  350) = (   0.5453125   0.0906250   0.5453125), wk =   0.0007138
        k(  351) = (   0.5468750   0.0937500   0.5468750), wk =   0.0007138
        k(  352) = (   0.5484375   0.0968750   0.5484375), wk =   0.0007138
        k(  353) = (   0.5500000   0.1000000   0.5500000), wk =   0.0007138
        k(  354) = (   0.5515625   0.1031250   0.5515625), wk =   0.0007138
        k(  355) = (   0.5531250   0.1062500   0.5531250), wk =   0.0007138
        k(  356) = (   0.5546875   0.1093750   0.5546875), wk =   0.0007138
        k(  357) = (   0.5562500   0.1125000   0.5562500), wk =   0.0007138
        k(  358) = (   0.5578125   0.1156250   0.5578125), wk =   0.0007138
        k(  359) = (   0.5593750   0.1187500   0.5593750), wk =   0.0007138
        k(  360) = (   0.5609375   0.1218750   0.5609375), wk =   0.0007138
        k(  361) = (   0.5625000   0.1250000   0.5625000), wk =   0.0007138
        k(  362) = (   0.5640625   0.1281250   0.5640625), wk =   0.0007138
        k(  363) = (   0.5656250   0.1312500   0.5656250), wk =   0.0007138
        k(  364) = (   0.5671875   0.1343750   0.5671875), wk =   0.0007138
        k(  365) = (   0.5687500   0.1375000   0.5687500), wk =   0.0007138
        k(  366) = (   0.5703125   0.1406250   0.5703125), wk =   0.0007138
        k(  367) = (   0.5718750   0.1437500   0.5718750), wk =   0.0007138
        k(  368) = (   0.5734375   0.1468750   0.5734375), wk =   0.0007138
        k(  369) = (   0.5750000   0.1500000   0.5750000), wk =   0.0007138
        k(  370) = (   0.5765625   0.1531250   0.5765625), wk =   0.0007138
        k(  371) = (   0.5781250   0.1562500   0.5781250), wk =   0.0007138
        k(  372) = (   0.5796875   0.1593750   0.5796875), wk =   0.0007138
        k(  373) = (   0.5812500   0.1625000   0.5812500), wk =   0.0007138
        k(  374) = (   0.5828125   0.1656250   0.5828125), wk =   0.0007138
        k(  375) = (   0.5843750   0.1687500   0.5843750), wk =   0.0007138
        k(  376) = (   0.5859375   0.1718750   0.5859375), wk =   0.0007138
        k(  377) = (   0.5875000   0.1750000   0.5875000), wk =   0.0007138
        k(  378) = (   0.5890625   0.1781250   0.5890625), wk =   0.0007138
        k(  379) = (   0.5906250   0.1812500   0.5906250), wk =   0.0007138
        k(  380) = (   0.5921875   0.1843750   0.5921875), wk =   0.0007138
        k(  381) = (   0.5937500   0.1875000   0.5937500), wk =   0.0007138
        k(  382) = (   0.5953125   0.1906250   0.5953125), wk =   0.0007138
        k(  383) = (   0.5968750   0.1937500   0.5968750), wk =   0.0007138
        k(  384) = (   0.5984375   0.1968750   0.5984375), wk =   0.0007138
        k(  385) = (   0.6000000   0.2000000   0.6000000), wk =   0.0007138
        k(  386) = (   0.6015625   0.2031250   0.6015625), wk =   0.0007138
        k(  387) = (   0.6031250   0.2062500   0.6031250), wk =   0.0007138
        k(  388) = (   0.6046875   0.2093750   0.6046875), wk =   0.0007138
        k(  389) = (   0.6062500   0.2125000   0.6062500), wk =   0.0007138
        k(  390) = (   0.6078125   0.2156250   0.6078125), wk =   0.0007138
        k(  391) = (   0.6093750   0.2187500   0.6093750), wk =   0.0007138
        k(  392) = (   0.6109375   0.2218750   0.6109375), wk =   0.0007138
        k(  393) = (   0.6125000   0.2250000   0.6125000), wk =   0.0007138
        k(  394) = (   0.6140625   0.2281250   0.6140625), wk =   0.0007138
        k(  395) = (   0.6156250   0.2312500   0.6156250), wk =   0.0007138
        k(  396) = (   0.6171875   0.2343750   0.6171875), wk =   0.0007138
        k(  397) = (   0.6187500   0.2375000   0.6187500), wk =   0.0007138
        k(  398) = (   0.6203125   0.2406250   0.6203125), wk =   0.0007138
        k(  399) = (   0.6218750   0.2437500   0.6218750), wk =   0.0007138
        k(  400) = (   0.6234375   0.2468750   0.6234375), wk =   0.0007138
        k(  401) = (   0.6250000   0.2500000   0.6250000), wk =   0.0007138
        k(  402) = (   0.6187500   0.2531250   0.6281250), wk =   0.0007138
        k(  403) = (   0.6125000   0.2562500   0.6312500), wk =   0.0007138
        k(  404) = (   0.6062500   0.2593750   0.6343750), wk =   0.0007138
        k(  405) = (   0.6000000   0.2625000   0.6375000), wk =   0.0007138
        k(  406) = (   0.5937500   0.2656250   0.6406250), wk =   0.0007138
        k(  407) = (   0.5875000   0.2687500   0.6437500), wk =   0.0007138
        k(  408) = (   0.5812500   0.2718750   0.6468750), wk =   0.0007138
        k(  409) = (   0.5750000   0.2750000   0.6500000), wk =   0.0007138
        k(  410) = (   0.5687500   0.2781250   0.6531250), wk =   0.0007138
        k(  411) = (   0.5625000   0.2812500   0.6562500), wk =   0.0007138
        k(  412) = (   0.5562500   0.2843750   0.6593750), wk =   0.0007138
        k(  413) = (   0.5500000   0.2875000   0.6625000), wk =   0.0007138
        k(  414) = (   0.5437500   0.2906250   0.6656250), wk =   0.0007138
        k(  415) = (   0.5375000   0.2937500   0.6687500), wk =   0.0007138
        k(  416) = (   0.5312500   0.2968750   0.6718750), wk =   0.0007138
        k(  417) = (   0.5250000   0.3000000   0.6750000), wk =   0.0007138
        k(  418) = (   0.5187500   0.3031250   0.6781250), wk =   0.0007138
        k(  419) = (   0.5125000   0.3062500   0.6812500), wk =   0.0007138
        k(  420) = (   0.5062500   0.3093750   0.6843750), wk =   0.0007138
        k(  421) = (   0.5000000   0.3125000   0.6875000), wk =   0.0007138
        k(  422) = (   0.4937500   0.3156250   0.6906250), wk =   0.0007138
        k(  423) = (   0.4875000   0.3187500   0.6937500), wk =   0.0007138
        k(  424) = (   0.4812500   0.3218750   0.6968750), wk =   0.0007138
        k(  425) = (   0.4750000   0.3250000   0.7000000), wk =   0.0007138
        k(  426) = (   0.4687500   0.3281250   0.7031250), wk =   0.0007138
        k(  427) = (   0.4625000   0.3312500   0.7062500), wk =   0.0007138
        k(  428) = (   0.4562500   0.3343750   0.7093750), wk =   0.0007138
        k(  429) = (   0.4500000   0.3375000   0.7125000), wk =   0.0007138
        k(  430) = (   0.4437500   0.3406250   0.7156250), wk =   0.0007138
        k(  431) = (   0.4375000   0.3437500   0.7187500), wk =   0.0007138
        k(  432) = (   0.4312500   0.3468750   0.7218750), wk =   0.0007138
        k(  433) = (   0.4250000   0.3500000   0.7250000), wk =   0.0007138
        k(  434) = (   0.4187500   0.3531250   0.7281250), wk =   0.0007138
        k(  435) = (   0.4125000   0.3562500   0.7312500), wk =   0.0007138
        k(  436) = (   0.4062500   0.3593750   0.7343750), wk =   0.0007138
        k(  437) = (   0.4000000   0.3625000   0.7375000), wk =   0.0007138
        k(  438) = (   0.3937500   0.3656250   0.7406250), wk =   0.0007138
        k(  439) = (   0.3875000   0.3687500   0.7437500), wk =   0.0007138
        k(  440) = (   0.3812500   0.3718750   0.7468750), wk =   0.0007138
        k(  441) = (   0.3750000   0.3750000   0.7500000), wk =   0.0007138
        k(  442) = (   0.3739583   0.3739583   0.7479167), wk =   0.0007138
        k(  443) = (   0.3729167   0.3729167   0.7458333), wk =   0.0007138
        k(  444) = (   0.3718750   0.3718750   0.7437500), wk =   0.0007138
        k(  445) = (   0.3708333   0.3708333   0.7416667), wk =   0.0007138
        k(  446) = (   0.3697917   0.3697917   0.7395833), wk =   0.0007138
        k(  447) = (   0.3687500   0.3687500   0.7375000), wk =   0.0007138
        k(  448) = (   0.3677083   0.3677083   0.7354167), wk =   0.0007138
        k(  449) = (   0.3666667   0.3666667   0.7333333), wk =   0.0007138
        k(  450) = (   0.3656250   0.3656250   0.7312500), wk =   0.0007138
        k(  451) = (   0.3645833   0.3645833   0.7291667), wk =   0.0007138
        k(  452) = (   0.3635417   0.3635417   0.7270833), wk =   0.0007138
        k(  453) = (   0.3625000   0.3625000   0.7250000), wk =   0.0007138
        k(  454) = (   0.3614583   0.3614583   0.7229167), wk =   0.0007138
        k(  455) = (   0.3604167   0.3604167   0.7208333), wk =   0.0007138
        k(  456) = (   0.3593750   0.3593750   0.7187500), wk =   0.0007138
        k(  457) = (   0.3583333   0.3583333   0.7166667), wk =   0.0007138
        k(  458) = (   0.3572917   0.3572917   0.7145833), wk =   0.0007138
        k(  459) = (   0.3562500   0.3562500   0.7125000), wk =   0.0007138
        k(  460) = (   0.3552083   0.3552083   0.7104167), wk =   0.0007138
        k(  461) = (   0.3541667   0.3541667   0.7083333), wk =   0.0007138
        k(  462) = (   0.3531250   0.3531250   0.7062500), wk =   0.0007138
        k(  463) = (   0.3520833   0.3520833   0.7041667), wk =   0.0007138
        k(  464) = (   0.3510417   0.3510417   0.7020833), wk =   0.0007138
        k(  465) = (   0.3500000   0.3500000   0.7000000), wk =   0.0007138
        k(  466) = (   0.3489583   0.3489583   0.6979167), wk =   0.0007138
        k(  467) = (   0.3479167   0.3479167   0.6958333), wk =   0.0007138
        k(  468) = (   0.3468750   0.3468750   0.6937500), wk =   0.0007138
        k(  469) = (   0.3458333   0.3458333   0.6916667), wk =   0.0007138
        k(  470) = (   0.3447917   0.3447917   0.6895833), wk =   0.0007138
        k(  471) = (   0.3437500   0.3437500   0.6875000), wk =   0.0007138
        k(  472) = (   0.3427083   0.3427083   0.6854167), wk =   0.0007138
        k(  473) = (   0.3416667   0.3416667   0.6833333), wk =   0.0007138
        k(  474) = (   0.3406250   0.3406250   0.6812500), wk =   0.0007138
        k(  475) = (   0.3395833   0.3395833   0.6791667), wk =   0.0007138
        k(  476) = (   0.3385417   0.3385417   0.6770833), wk =   0.0007138
        k(  477) = (   0.3375000   0.3375000   0.6750000), wk =   0.0007138
        k(  478) = (   0.3364583   0.3364583   0.6729167), wk =   0.0007138
        k(  479) = (   0.3354167   0.3354167   0.6708333), wk =   0.0007138
        k(  480) = (   0.3343750   0.3343750   0.6687500), wk =   0.0007138
        k(  481) = (   0.3333333   0.3333333   0.6666667), wk =   0.0007138
        k(  482) = (   0.3322917   0.3322917   0.6645833), wk =   0.0007138
        k(  483) = (   0.3312500   0.3312500   0.6625000), wk =   0.0007138
        k(  484) = (   0.3302083   0.3302083   0.6604167), wk =   0.0007138
        k(  485) = (   0.3291667   0.3291667   0.6583333), wk =   0.0007138
        k(  486) = (   0.3281250   0.3281250   0.6562500), wk =   0.0007138
        k(  487) = (   0.3270833   0.3270833   0.6541667), wk =   0.0007138
        k(  488) = (   0.3260417   0.3260417   0.6520833), wk =   0.0007138
        k(  489) = (   0.3250000   0.3250000   0.6500000), wk =   0.0007138
        k(  490) = (   0.3239583   0.3239583   0.6479167), wk =   0.0007138
        k(  491) = (   0.3229167   0.3229167   0.6458333), wk =   0.0007138
        k(  492) = (   0.3218750   0.3218750   0.6437500), wk =   0.0007138
        k(  493) = (   0.3208333   0.3208333   0.6416667), wk =   0.0007138
        k(  494) = (   0.3197917   0.3197917   0.6395833), wk =   0.0007138
        k(  495) = (   0.3187500   0.3187500   0.6375000), wk =   0.0007138
        k(  496) = (   0.3177083   0.3177083   0.6354167), wk =   0.0007138
        k(  497) = (   0.3166667   0.3166667   0.6333333), wk =   0.0007138
        k(  498) = (   0.3156250   0.3156250   0.6312500), wk =   0.0007138
        k(  499) = (   0.3145833   0.3145833   0.6291667), wk =   0.0007138
        k(  500) = (   0.3135417   0.3135417   0.6270833), wk =   0.0007138
        k(  501) = (   0.3125000   0.3125000   0.6250000), wk =   0.0007138
        k(  502) = (   0.3114583   0.3114583   0.6229167), wk =   0.0007138
        k(  503) = (   0.3104167   0.3104167   0.6208333), wk =   0.0007138
        k(  504) = (   0.3093750   0.3093750   0.6187500), wk =   0.0007138
        k(  505) = (   0.3083333   0.3083333   0.6166667), wk =   0.0007138
        k(  506) = (   0.3072917   0.3072917   0.6145833), wk =   0.0007138
        k(  507) = (   0.3062500   0.3062500   0.6125000), wk =   0.0007138
        k(  508) = (   0.3052083   0.3052083   0.6104167), wk =   0.0007138
        k(  509) = (   0.3041667   0.3041667   0.6083333), wk =   0.0007138
        k(  510) = (   0.3031250   0.3031250   0.6062500), wk =   0.0007138
        k(  511) = (   0.3020833   0.3020833   0.6041667), wk =   0.0007138
        k(  512) = (   0.3010417   0.3010417   0.6020833), wk =   0.0007138
        k(  513) = (   0.3000000   0.3000000   0.6000000), wk =   0.0007138
        k(  514) = (   0.2989583   0.2989583   0.5979167), wk =   0.0007138
        k(  515) = (   0.2979167   0.2979167   0.5958333), wk =   0.0007138
        k(  516) = (   0.2968750   0.2968750   0.5937500), wk =   0.0007138
        k(  517) = (   0.2958333   0.2958333   0.5916667), wk =   0.0007138
        k(  518) = (   0.2947917   0.2947917   0.5895833), wk =   0.0007138
        k(  519) = (   0.2937500   0.2937500   0.5875000), wk =   0.0007138
        k(  520) = (   0.2927083   0.2927083   0.5854167), wk =   0.0007138
        k(  521) = (   0.2916667   0.2916667   0.5833333), wk =   0.0007138
        k(  522) = (   0.2906250   0.2906250   0.5812500), wk =   0.0007138
        k(  523) = (   0.2895833   0.2895833   0.5791667), wk =   0.0007138
        k(  524) = (   0.2885417   0.2885417   0.5770833), wk =   0.0007138
        k(  525) = (   0.2875000   0.2875000   0.5750000), wk =   0.0007138
        k(  526) = (   0.2864583   0.2864583   0.5729167), wk =   0.0007138
        k(  527) = (   0.2854167   0.2854167   0.5708333), wk =   0.0007138
        k(  528) = (   0.2843750   0.2843750   0.5687500), wk =   0.0007138
        k(  529) = (   0.2833333   0.2833333   0.5666667), wk =   0.0007138
        k(  530) = (   0.2822917   0.2822917   0.5645833), wk =   0.0007138
        k(  531) = (   0.2812500   0.2812500   0.5625000), wk =   0.0007138
        k(  532) = (   0.2802083   0.2802083   0.5604167), wk =   0.0007138
        k(  533) = (   0.2791667   0.2791667   0.5583333), wk =   0.0007138
        k(  534) = (   0.2781250   0.2781250   0.5562500), wk =   0.0007138
        k(  535) = (   0.2770833   0.2770833   0.5541667), wk =   0.0007138
        k(  536) = (   0.2760417   0.2760417   0.5520833), wk =   0.0007138
        k(  537) = (   0.2750000   0.2750000   0.5500000), wk =   0.0007138
        k(  538) = (   0.2739583   0.2739583   0.5479167), wk =   0.0007138
        k(  539) = (   0.2729167   0.2729167   0.5458333), wk =   0.0007138
        k(  540) = (   0.2718750   0.2718750   0.5437500), wk =   0.0007138
        k(  541) = (   0.2708333   0.2708333   0.5416667), wk =   0.0007138
        k(  542) = (   0.2697917   0.2697917   0.5395833), wk =   0.0007138
        k(  543) = (   0.2687500   0.2687500   0.5375000), wk =   0.0007138
        k(  544) = (   0.2677083   0.2677083   0.5354167), wk =   0.0007138
        k(  545) = (   0.2666667   0.2666667   0.5333333), wk =   0.0007138
        k(  546) = (   0.2656250   0.2656250   0.5312500), wk =   0.0007138
        k(  547) = (   0.2645833   0.2645833   0.5291667), wk =   0.0007138
        k(  548) = (   0.2635417   0.2635417   0.5270833), wk =   0.0007138
        k(  549) = (   0.2625000   0.2625000   0.5250000), wk =   0.0007138
        k(  550) = (   0.2614583   0.2614583   0.5229167), wk =   0.0007138
        k(  551) = (   0.2604167   0.2604167   0.5208333), wk =   0.0007138
        k(  552) = (   0.2593750   0.2593750   0.5187500), wk =   0.0007138
        k(  553) = (   0.2583333   0.2583333   0.5166667), wk =   0.0007138
        k(  554) = (   0.2572917   0.2572917   0.5145833), wk =   0.0007138
        k(  555) = (   0.2562500   0.2562500   0.5125000), wk =   0.0007138
        k(  556) = (   0.2552083   0.2552083   0.5104167), wk =   0.0007138
        k(  557) = (   0.2541667   0.2541667   0.5083333), wk =   0.0007138
        k(  558) = (   0.2531250   0.2531250   0.5062500), wk =   0.0007138
        k(  559) = (   0.2520833   0.2520833   0.5041667), wk =   0.0007138
        k(  560) = (   0.2510417   0.2510417   0.5020833), wk =   0.0007138
        k(  561) = (   0.2500000   0.2500000   0.5000000), wk =   0.0007138
        k(  562) = (   0.2489583   0.2489583   0.4979167), wk =   0.0007138
        k(  563) = (   0.2479167   0.2479167   0.4958333), wk =   0.0007138
        k(  564) = (   0.2468750   0.2468750   0.4937500), wk =   0.0007138
        k(  565) = (   0.2458333   0.2458333   0.4916667), wk =   0.0007138
        k(  566) = (   0.2447917   0.2447917   0.4895833), wk =   0.0007138
        k(  567) = (   0.2437500   0.2437500   0.4875000), wk =   0.0007138
        k(  568) = (   0.2427083   0.2427083   0.4854167), wk =   0.0007138
        k(  569) = (   0.2416667   0.2416667   0.4833333), wk =   0.0007138
        k(  570) = (   0.2406250   0.2406250   0.4812500), wk =   0.0007138
        k(  571) = (   0.2395833   0.2395833   0.4791667), wk =   0.0007138
        k(  572) = (   0.2385417   0.2385417   0.4770833), wk =   0.0007138
        k(  573) = (   0.2375000   0.2375000   0.4750000), wk =   0.0007138
        k(  574) = (   0.2364583   0.2364583   0.4729167), wk =   0.0007138
        k(  575) = (   0.2354167   0.2354167   0.4708333), wk =   0.0007138
        k(  576) = (   0.2343750   0.2343750   0.4687500), wk =   0.0007138
        k(  577) = (   0.2333333   0.2333333   0.4666667), wk =   0.0007138
        k(  578) = (   0.2322917   0.2322917   0.4645833), wk =   0.0007138
        k(  579) = (   0.2312500   0.2312500   0.4625000), wk =   0.0007138
        k(  580) = (   0.2302083   0.2302083   0.4604167), wk =   0.0007138
        k(  581) = (   0.2291667   0.2291667   0.4583333), wk =   0.0007138
        k(  582) = (   0.2281250   0.2281250   0.4562500), wk =   0.0007138
        k(  583) = (   0.2270833   0.2270833   0.4541667), wk =   0.0007138
        k(  584) = (   0.2260417   0.2260417   0.4520833), wk =   0.0007138
        k(  585) = (   0.2250000   0.2250000   0.4500000), wk =   0.0007138
        k(  586) = (   0.2239583   0.2239583   0.4479167), wk =   0.0007138
        k(  587) = (   0.2229167   0.2229167   0.4458333), wk =   0.0007138
        k(  588) = (   0.2218750   0.2218750   0.4437500), wk =   0.0007138
        k(  589) = (   0.2208333   0.2208333   0.4416667), wk =   0.0007138
        k(  590) = (   0.2197917   0.2197917   0.4395833), wk =   0.0007138
        k(  591) = (   0.2187500   0.2187500   0.4375000), wk =   0.0007138
        k(  592) = (   0.2177083   0.2177083   0.4354167), wk =   0.0007138
        k(  593) = (   0.2166667   0.2166667   0.4333333), wk =   0.0007138
        k(  594) = (   0.2156250   0.2156250   0.4312500), wk =   0.0007138
        k(  595) = (   0.2145833   0.2145833   0.4291667), wk =   0.0007138
        k(  596) = (   0.2135417   0.2135417   0.4270833), wk =   0.0007138
        k(  597) = (   0.2125000   0.2125000   0.4250000), wk =   0.0007138
        k(  598) = (   0.2114583   0.2114583   0.4229167), wk =   0.0007138
        k(  599) = (   0.2104167   0.2104167   0.4208333), wk =   0.0007138
        k(  600) = (   0.2093750   0.2093750   0.4187500), wk =   0.0007138
        k(  601) = (   0.2083333   0.2083333   0.4166667), wk =   0.0007138
        k(  602) = (   0.2072917   0.2072917   0.4145833), wk =   0.0007138
        k(  603) = (   0.2062500   0.2062500   0.4125000), wk =   0.0007138
        k(  604) = (   0.2052083   0.2052083   0.4104167), wk =   0.0007138
        k(  605) = (   0.2041667   0.2041667   0.4083333), wk =   0.0007138
        k(  606) = (   0.2031250   0.2031250   0.4062500), wk =   0.0007138
        k(  607) = (   0.2020833   0.2020833   0.4041667), wk =   0.0007138
        k(  608) = (   0.2010417   0.2010417   0.4020833), wk =   0.0007138
        k(  609) = (   0.2000000   0.2000000   0.4000000), wk =   0.0007138
        k(  610) = (   0.1989583   0.1989583   0.3979167), wk =   0.0007138
        k(  611) = (   0.1979167   0.1979167   0.3958333), wk =   0.0007138
        k(  612) = (   0.1968750   0.1968750   0.3937500), wk =   0.0007138
        k(  613) = (   0.1958333   0.1958333   0.3916667), wk =   0.0007138
        k(  614) = (   0.1947917   0.1947917   0.3895833), wk =   0.0007138
        k(  615) = (   0.1937500   0.1937500   0.3875000), wk =   0.0007138
        k(  616) = (   0.1927083   0.1927083   0.3854167), wk =   0.0007138
        k(  617) = (   0.1916667   0.1916667   0.3833333), wk =   0.0007138
        k(  618) = (   0.1906250   0.1906250   0.3812500), wk =   0.0007138
        k(  619) = (   0.1895833   0.1895833   0.3791667), wk =   0.0007138
        k(  620) = (   0.1885417   0.1885417   0.3770833), wk =   0.0007138
        k(  621) = (   0.1875000   0.1875000   0.3750000), wk =   0.0007138
        k(  622) = (   0.1864583   0.1864583   0.3729167), wk =   0.0007138
        k(  623) = (   0.1854167   0.1854167   0.3708333), wk =   0.0007138
        k(  624) = (   0.1843750   0.1843750   0.3687500), wk =   0.0007138
        k(  625) = (   0.1833333   0.1833333   0.3666667), wk =   0.0007138
        k(  626) = (   0.1822917   0.1822917   0.3645833), wk =   0.0007138
        k(  627) = (   0.1812500   0.1812500   0.3625000), wk =   0.0007138
        k(  628) = (   0.1802083   0.1802083   0.3604167), wk =   0.0007138
        k(  629) = (   0.1791667   0.1791667   0.3583333), wk =   0.0007138
        k(  630) = (   0.1781250   0.1781250   0.3562500), wk =   0.0007138
        k(  631) = (   0.1770833   0.1770833   0.3541667), wk =   0.0007138
        k(  632) = (   0.1760417   0.1760417   0.3520833), wk =   0.0007138
        k(  633) = (   0.1750000   0.1750000   0.3500000), wk =   0.0007138
        k(  634) = (   0.1739583   0.1739583   0.3479167), wk =   0.0007138
        k(  635) = (   0.1729167   0.1729167   0.3458333), wk =   0.0007138
        k(  636) = (   0.1718750   0.1718750   0.3437500), wk =   0.0007138
        k(  637) = (   0.1708333   0.1708333   0.3416667), wk =   0.0007138
        k(  638) = (   0.1697917   0.1697917   0.3395833), wk =   0.0007138
        k(  639) = (   0.1687500   0.1687500   0.3375000), wk =   0.0007138
        k(  640) = (   0.1677083   0.1677083   0.3354167), wk =   0.0007138
        k(  641) = (   0.1666667   0.1666667   0.3333333), wk =   0.0007138
        k(  642) = (   0.1656250   0.1656250   0.3312500), wk =   0.0007138
        k(  643) = (   0.1645833   0.1645833   0.3291667), wk =   0.0007138
        k(  644) = (   0.1635417   0.1635417   0.3270833), wk =   0.0007138
        k(  645) = (   0.1625000   0.1625000   0.3250000), wk =   0.0007138
        k(  646) = (   0.1614583   0.1614583   0.3229167), wk =   0.0007138
        k(  647) = (   0.1604167   0.1604167   0.3208333), wk =   0.0007138
        k(  648) = (   0.1593750   0.1593750   0.3187500), wk =   0.0007138
        k(  649) = (   0.1583333   0.1583333   0.3166667), wk =   0.0007138
        k(  650) = (   0.1572917   0.1572917   0.3145833), wk =   0.0007138
        k(  651) = (   0.1562500   0.1562500   0.3125000), wk =   0.0007138
        k(  652) = (   0.1552083   0.1552083   0.3104167), wk =   0.0007138
        k(  653) = (   0.1541667   0.1541667   0.3083333), wk =   0.0007138
        k(  654) = (   0.1531250   0.1531250   0.3062500), wk =   0.0007138
        k(  655) = (   0.1520833   0.1520833   0.3041667), wk =   0.0007138
        k(  656) = (   0.1510417   0.1510417   0.3020833), wk =   0.0007138
        k(  657) = (   0.1500000   0.1500000   0.3000000), wk =   0.0007138
        k(  658) = (   0.1489583   0.1489583   0.2979167), wk =   0.0007138
        k(  659) = (   0.1479167   0.1479167   0.2958333), wk =   0.0007138
        k(  660) = (   0.1468750   0.1468750   0.2937500), wk =   0.0007138
        k(  661) = (   0.1458333   0.1458333   0.2916667), wk =   0.0007138
        k(  662) = (   0.1447917   0.1447917   0.2895833), wk =   0.0007138
        k(  663) = (   0.1437500   0.1437500   0.2875000), wk =   0.0007138
        k(  664) = (   0.1427083   0.1427083   0.2854167), wk =   0.0007138
        k(  665) = (   0.1416667   0.1416667   0.2833333), wk =   0.0007138
        k(  666) = (   0.1406250   0.1406250   0.2812500), wk =   0.0007138
        k(  667) = (   0.1395833   0.1395833   0.2791667), wk =   0.0007138
        k(  668) = (   0.1385417   0.1385417   0.2770833), wk =   0.0007138
        k(  669) = (   0.1375000   0.1375000   0.2750000), wk =   0.0007138
        k(  670) = (   0.1364583   0.1364583   0.2729167), wk =   0.0007138
        k(  671) = (   0.1354167   0.1354167   0.2708333), wk =   0.0007138
        k(  672) = (   0.1343750   0.1343750   0.2687500), wk =   0.0007138
        k(  673) = (   0.1333333   0.1333333   0.2666667), wk =   0.0007138
        k(  674) = (   0.1322917   0.1322917   0.2645833), wk =   0.0007138
        k(  675) = (   0.1312500   0.1312500   0.2625000), wk =   0.0007138
        k(  676) = (   0.1302083   0.1302083   0.2604167), wk =   0.0007138
        k(  677) = (   0.1291667   0.1291667   0.2583333), wk =   0.0007138
        k(  678) = (   0.1281250   0.1281250   0.2562500), wk =   0.0007138
        k(  679) = (   0.1270833   0.1270833   0.2541667), wk =   0.0007138
        k(  680) = (   0.1260417   0.1260417   0.2520833), wk =   0.0007138
        k(  681) = (   0.1250000   0.1250000   0.2500000), wk =   0.0007138
        k(  682) = (   0.1239583   0.1239583   0.2479167), wk =   0.0007138
        k(  683) = (   0.1229167   0.1229167   0.2458333), wk =   0.0007138
        k(  684) = (   0.1218750   0.1218750   0.2437500), wk =   0.0007138
        k(  685) = (   0.1208333   0.1208333   0.2416667), wk =   0.0007138
        k(  686) = (   0.1197917   0.1197917   0.2395833), wk =   0.0007138
        k(  687) = (   0.1187500   0.1187500   0.2375000), wk =   0.0007138
        k(  688) = (   0.1177083   0.1177083   0.2354167), wk =   0.0007138
        k(  689) = (   0.1166667   0.1166667   0.2333333), wk =   0.0007138
        k(  690) = (   0.1156250   0.1156250   0.2312500), wk =   0.0007138
        k(  691) = (   0.1145833   0.1145833   0.2291667), wk =   0.0007138
        k(  692) = (   0.1135417   0.1135417   0.2270833), wk =   0.0007138
        k(  693) = (   0.1125000   0.1125000   0.2250000), wk =   0.0007138
        k(  694) = (   0.1114583   0.1114583   0.2229167), wk =   0.0007138
        k(  695) = (   0.1104167   0.1104167   0.2208333), wk =   0.0007138
        k(  696) = (   0.1093750   0.1093750   0.2187500), wk =   0.0007138
        k(  697) = (   0.1083333   0.1083333   0.2166667), wk =   0.0007138
        k(  698) = (   0.1072917   0.1072917   0.2145833), wk =   0.0007138
        k(  699) = (   0.1062500   0.1062500   0.2125000), wk =   0.0007138
        k(  700) = (   0.1052083   0.1052083   0.2104167), wk =   0.0007138
        k(  701) = (   0.1041667   0.1041667   0.2083333), wk =   0.0007138
        k(  702) = (   0.1031250   0.1031250   0.2062500), wk =   0.0007138
        k(  703) = (   0.1020833   0.1020833   0.2041667), wk =   0.0007138
        k(  704) = (   0.1010417   0.1010417   0.2020833), wk =   0.0007138
        k(  705) = (   0.1000000   0.1000000   0.2000000), wk =   0.0007138
        k(  706) = (   0.0989583   0.0989583   0.1979167), wk =   0.0007138
        k(  707) = (   0.0979167   0.0979167   0.1958333), wk =   0.0007138
        k(  708) = (   0.0968750   0.0968750   0.1937500), wk =   0.0007138
        k(  709) = (   0.0958333   0.0958333   0.1916667), wk =   0.0007138
        k(  710) = (   0.0947917   0.0947917   0.1895833), wk =   0.0007138
        k(  711) = (   0.0937500   0.0937500   0.1875000), wk =   0.0007138
        k(  712) = (   0.0927083   0.0927083   0.1854167), wk =   0.0007138
        k(  713) = (   0.0916667   0.0916667   0.1833333), wk =   0.0007138
        k(  714) = (   0.0906250   0.0906250   0.1812500), wk =   0.0007138
        k(  715) = (   0.0895833   0.0895833   0.1791667), wk =   0.0007138
        k(  716) = (   0.0885417   0.0885417   0.1770833), wk =   0.0007138
        k(  717) = (   0.0875000   0.0875000   0.1750000), wk =   0.0007138
        k(  718) = (   0.0864583   0.0864583   0.1729167), wk =   0.0007138
        k(  719) = (   0.0854167   0.0854167   0.1708333), wk =   0.0007138
        k(  720) = (   0.0843750   0.0843750   0.1687500), wk =   0.0007138
        k(  721) = (   0.0833333   0.0833333   0.1666667), wk =   0.0007138
        k(  722) = (   0.0822917   0.0822917   0.1645833), wk =   0.0007138
        k(  723) = (   0.0812500   0.0812500   0.1625000), wk =   0.0007138
        k(  724) = (   0.0802083   0.0802083   0.1604167), wk =   0.0007138
        k(  725) = (   0.0791667   0.0791667   0.1583333), wk =   0.0007138
        k(  726) = (   0.0781250   0.0781250   0.1562500), wk =   0.0007138
        k(  727) = (   0.0770833   0.0770833   0.1541667), wk =   0.0007138
        k(  728) = (   0.0760417   0.0760417   0.1520833), wk =   0.0007138
        k(  729) = (   0.0750000   0.0750000   0.1500000), wk =   0.0007138
        k(  730) = (   0.0739583   0.0739583   0.1479167), wk =   0.0007138
        k(  731) = (   0.0729167   0.0729167   0.1458333), wk =   0.0007138
        k(  732) = (   0.0718750   0.0718750   0.1437500), wk =   0.0007138
        k(  733) = (   0.0708333   0.0708333   0.1416667), wk =   0.0007138
        k(  734) = (   0.0697917   0.0697917   0.1395833), wk =   0.0007138
        k(  735) = (   0.0687500   0.0687500   0.1375000), wk =   0.0007138
        k(  736) = (   0.0677083   0.0677083   0.1354167), wk =   0.0007138
        k(  737) = (   0.0666667   0.0666667   0.1333333), wk =   0.0007138
        k(  738) = (   0.0656250   0.0656250   0.1312500), wk =   0.0007138
        k(  739) = (   0.0645833   0.0645833   0.1291667), wk =   0.0007138
        k(  740) = (   0.0635417   0.0635417   0.1270833), wk =   0.0007138
        k(  741) = (   0.0625000   0.0625000   0.1250000), wk =   0.0007138
        k(  742) = (   0.0614583   0.0614583   0.1229167), wk =   0.0007138
        k(  743) = (   0.0604167   0.0604167   0.1208333), wk =   0.0007138
        k(  744) = (   0.0593750   0.0593750   0.1187500), wk =   0.0007138
        k(  745) = (   0.0583333   0.0583333   0.1166667), wk =   0.0007138
        k(  746) = (   0.0572917   0.0572917   0.1145833), wk =   0.0007138
        k(  747) = (   0.0562500   0.0562500   0.1125000), wk =   0.0007138
        k(  748) = (   0.0552083   0.0552083   0.1104167), wk =   0.0007138
        k(  749) = (   0.0541667   0.0541667   0.1083333), wk =   0.0007138
        k(  750) = (   0.0531250   0.0531250   0.1062500), wk =   0.0007138
        k(  751) = (   0.0520833   0.0520833   0.1041667), wk =   0.0007138
        k(  752) = (   0.0510417   0.0510417   0.1020833), wk =   0.0007138
        k(  753) = (   0.0500000   0.0500000   0.1000000), wk =   0.0007138
        k(  754) = (   0.0489583   0.0489583   0.0979167), wk =   0.0007138
        k(  755) = (   0.0479167   0.0479167   0.0958333), wk =   0.0007138
        k(  756) = (   0.0468750   0.0468750   0.0937500), wk =   0.0007138
        k(  757) = (   0.0458333   0.0458333   0.0916667), wk =   0.0007138
        k(  758) = (   0.0447917   0.0447917   0.0895833), wk =   0.0007138
        k(  759) = (   0.0437500   0.0437500   0.0875000), wk =   0.0007138
        k(  760) = (   0.0427083   0.0427083   0.0854167), wk =   0.0007138
        k(  761) = (   0.0416667   0.0416667   0.0833333), wk =   0.0007138
        k(  762) = (   0.0406250   0.0406250   0.0812500), wk =   0.0007138
        k(  763) = (   0.0395833   0.0395833   0.0791667), wk =   0.0007138
        k(  764) = (   0.0385417   0.0385417   0.0770833), wk =   0.0007138
        k(  765) = (   0.0375000   0.0375000   0.0750000), wk =   0.0007138
        k(  766) = (   0.0364583   0.0364583   0.0729167), wk =   0.0007138
        k(  767) = (   0.0354167   0.0354167   0.0708333), wk =   0.0007138
        k(  768) = (   0.0343750   0.0343750   0.0687500), wk =   0.0007138
        k(  769) = (   0.0333333   0.0333333   0.0666667), wk =   0.0007138
        k(  770) = (   0.0322917   0.0322917   0.0645833), wk =   0.0007138
        k(  771) = (   0.0312500   0.0312500   0.0625000), wk =   0.0007138
        k(  772) = (   0.0302083   0.0302083   0.0604167), wk =   0.0007138
        k(  773) = (   0.0291667   0.0291667   0.0583333), wk =   0.0007138
        k(  774) = (   0.0281250   0.0281250   0.0562500), wk =   0.0007138
        k(  775) = (   0.0270833   0.0270833   0.0541667), wk =   0.0007138
        k(  776) = (   0.0260417   0.0260417   0.0520833), wk =   0.0007138
        k(  777) = (   0.0250000   0.0250000   0.0500000), wk =   0.0007138
        k(  778) = (   0.0239583   0.0239583   0.0479167), wk =   0.0007138
        k(  779) = (   0.0229167   0.0229167   0.0458333), wk =   0.0007138
        k(  780) = (   0.0218750   0.0218750   0.0437500), wk =   0.0007138
        k(  781) = (   0.0208333   0.0208333   0.0416667), wk =   0.0007138
        k(  782) = (   0.0197917   0.0197917   0.0395833), wk =   0.0007138
        k(  783) = (   0.0187500   0.0187500   0.0375000), wk =   0.0007138
        k(  784) = (   0.0177083   0.0177083   0.0354167), wk =   0.0007138
        k(  785) = (   0.0166667   0.0166667   0.0333333), wk =   0.0007138
        k(  786) = (   0.0156250   0.0156250   0.0312500), wk =   0.0007138
        k(  787) = (   0.0145833   0.0145833   0.0291667), wk =   0.0007138
        k(  788) = (   0.0135417   0.0135417   0.0270833), wk =   0.0007138
        k(  789) = (   0.0125000   0.0125000   0.0250000), wk =   0.0007138
        k(  790) = (   0.0114583   0.0114583   0.0229167), wk =   0.0007138
        k(  791) = (   0.0104167   0.0104167   0.0208333), wk =   0.0007138
        k(  792) = (   0.0093750   0.0093750   0.0187500), wk =   0.0007138
        k(  793) = (   0.0083333   0.0083333   0.0166667), wk =   0.0007138
        k(  794) = (   0.0072917   0.0072917   0.0145833), wk =   0.0007138
        k(  795) = (   0.0062500   0.0062500   0.0125000), wk =   0.0007138
        k(  796) = (   0.0052083   0.0052083   0.0104167), wk =   0.0007138
        k(  797) = (   0.0041667   0.0041667   0.0083333), wk =   0.0007138
        k(  798) = (   0.0031250   0.0031250   0.0062500), wk =   0.0007138
        k(  799) = (   0.0020833   0.0020833   0.0041667), wk =   0.0007138
        k(  800) = (   0.0010417   0.0010417   0.0020833), wk =   0.0007138
        k(  801) = (   0.0000000   0.0000000   0.0000000), wk =   0.0007138
        k(  802) = (   0.0017857   0.0017857   0.0017857), wk =   0.0007138
        k(  803) = (   0.0035714   0.0035714   0.0035714), wk =   0.0007138
        k(  804) = (   0.0053571   0.0053571   0.0053571), wk =   0.0007138
        k(  805) = (   0.0071429   0.0071429   0.0071429), wk =   0.0007138
        k(  806) = (   0.0089286   0.0089286   0.0089286), wk =   0.0007138
        k(  807) = (   0.0107143   0.0107143   0.0107143), wk =   0.0007138
        k(  808) = (   0.0125000   0.0125000   0.0125000), wk =   0.0007138
        k(  809) = (   0.0142857   0.0142857   0.0142857), wk =   0.0007138
        k(  810) = (   0.0160714   0.0160714   0.0160714), wk =   0.0007138
        k(  811) = (   0.0178571   0.0178571   0.0178571), wk =   0.0007138
        k(  812) = (   0.0196429   0.0196429   0.0196429), wk =   0.0007138
        k(  813) = (   0.0214286   0.0214286   0.0214286), wk =   0.0007138
        k(  814) = (   0.0232143   0.0232143   0.0232143), wk =   0.0007138
        k(  815) = (   0.0250000   0.0250000   0.0250000), wk =   0.0007138
        k(  816) = (   0.0267857   0.0267857   0.0267857), wk =   0.0007138
        k(  817) = (   0.0285714   0.0285714   0.0285714), wk =   0.0007138
        k(  818) = (   0.0303571   0.0303571   0.0303571), wk =   0.0007138
        k(  819) = (   0.0321429   0.0321429   0.0321429), wk =   0.0007138
        k(  820) = (   0.0339286   0.0339286   0.0339286), wk =   0.0007138
        k(  821) = (   0.0357143   0.0357143   0.0357143), wk =   0.0007138
        k(  822) = (   0.0375000   0.0375000   0.0375000), wk =   0.0007138
        k(  823) = (   0.0392857   0.0392857   0.0392857), wk =   0.0007138
        k(  824) = (   0.0410714   0.0410714   0.0410714), wk =   0.0007138
        k(  825) = (   0.0428571   0.0428571   0.0428571), wk =   0.0007138
        k(  826) = (   0.0446429   0.0446429   0.0446429), wk =   0.0007138
        k(  827) = (   0.0464286   0.0464286   0.0464286), wk =   0.0007138
        k(  828) = (   0.0482143   0.0482143   0.0482143), wk =   0.0007138
        k(  829) = (   0.0500000   0.0500000   0.0500000), wk =   0.0007138
        k(  830) = (   0.0517857   0.0517857   0.0517857), wk =   0.0007138
        k(  831) = (   0.0535714   0.0535714   0.0535714), wk =   0.0007138
        k(  832) = (   0.0553571   0.0553571   0.0553571), wk =   0.0007138
        k(  833) = (   0.0571429   0.0571429   0.0571429), wk =   0.0007138
        k(  834) = (   0.0589286   0.0589286   0.0589286), wk =   0.0007138
        k(  835) = (   0.0607143   0.0607143   0.0607143), wk =   0.0007138
        k(  836) = (   0.0625000   0.0625000   0.0625000), wk =   0.0007138
        k(  837) = (   0.0642857   0.0642857   0.0642857), wk =   0.0007138
        k(  838) = (   0.0660714   0.0660714   0.0660714), wk =   0.0007138
        k(  839) = (   0.0678571   0.0678571   0.0678571), wk =   0.0007138
        k(  840) = (   0.0696429   0.0696429   0.0696429), wk =   0.0007138
        k(  841) = (   0.0714286   0.0714286   0.0714286), wk =   0.0007138
        k(  842) = (   0.0732143   0.0732143   0.0732143), wk =   0.0007138
        k(  843) = (   0.0750000   0.0750000   0.0750000), wk =   0.0007138
        k(  844) = (   0.0767857   0.0767857   0.0767857), wk =   0.0007138
        k(  845) = (   0.0785714   0.0785714   0.0785714), wk =   0.0007138
        k(  846) = (   0.0803571   0.0803571   0.0803571), wk =   0.0007138
        k(  847) = (   0.0821429   0.0821429   0.0821429), wk =   0.0007138
        k(  848) = (   0.0839286   0.0839286   0.0839286), wk =   0.0007138
        k(  849) = (   0.0857143   0.0857143   0.0857143), wk =   0.0007138
        k(  850) = (   0.0875000   0.0875000   0.0875000), wk =   0.0007138
        k(  851) = (   0.0892857   0.0892857   0.0892857), wk =   0.0007138
        k(  852) = (   0.0910714   0.0910714   0.0910714), wk =   0.0007138
        k(  853) = (   0.0928571   0.0928571   0.0928571), wk =   0.0007138
        k(  854) = (   0.0946429   0.0946429   0.0946429), wk =   0.0007138
        k(  855) = (   0.0964286   0.0964286   0.0964286), wk =   0.0007138
        k(  856) = (   0.0982143   0.0982143   0.0982143), wk =   0.0007138
        k(  857) = (   0.1000000   0.1000000   0.1000000), wk =   0.0007138
        k(  858) = (   0.1017857   0.1017857   0.1017857), wk =   0.0007138
        k(  859) = (   0.1035714   0.1035714   0.1035714), wk =   0.0007138
        k(  860) = (   0.1053571   0.1053571   0.1053571), wk =   0.0007138
        k(  861) = (   0.1071429   0.1071429   0.1071429), wk =   0.0007138
        k(  862) = (   0.1089286   0.1089286   0.1089286), wk =   0.0007138
        k(  863) = (   0.1107143   0.1107143   0.1107143), wk =   0.0007138
        k(  864) = (   0.1125000   0.1125000   0.1125000), wk =   0.0007138
        k(  865) = (   0.1142857   0.1142857   0.1142857), wk =   0.0007138
        k(  866) = (   0.1160714   0.1160714   0.1160714), wk =   0.0007138
        k(  867) = (   0.1178571   0.1178571   0.1178571), wk =   0.0007138
        k(  868) = (   0.1196429   0.1196429   0.1196429), wk =   0.0007138
        k(  869) = (   0.1214286   0.1214286   0.1214286), wk =   0.0007138
        k(  870) = (   0.1232143   0.1232143   0.1232143), wk =   0.0007138
        k(  871) = (   0.1250000   0.1250000   0.1250000), wk =   0.0007138
        k(  872) = (   0.1267857   0.1267857   0.1267857), wk =   0.0007138
        k(  873) = (   0.1285714   0.1285714   0.1285714), wk =   0.0007138
        k(  874) = (   0.1303571   0.1303571   0.1303571), wk =   0.0007138
        k(  875) = (   0.1321429   0.1321429   0.1321429), wk =   0.0007138
        k(  876) = (   0.1339286   0.1339286   0.1339286), wk =   0.0007138
        k(  877) = (   0.1357143   0.1357143   0.1357143), wk =   0.0007138
        k(  878) = (   0.1375000   0.1375000   0.1375000), wk =   0.0007138
        k(  879) = (   0.1392857   0.1392857   0.1392857), wk =   0.0007138
        k(  880) = (   0.1410714   0.1410714   0.1410714), wk =   0.0007138
        k(  881) = (   0.1428571   0.1428571   0.1428571), wk =   0.0007138
        k(  882) = (   0.1446429   0.1446429   0.1446429), wk =   0.0007138
        k(  883) = (   0.1464286   0.1464286   0.1464286), wk =   0.0007138
        k(  884) = (   0.1482143   0.1482143   0.1482143), wk =   0.0007138
        k(  885) = (   0.1500000   0.1500000   0.1500000), wk =   0.0007138
        k(  886) = (   0.1517857   0.1517857   0.1517857), wk =   0.0007138
        k(  887) = (   0.1535714   0.1535714   0.1535714), wk =   0.0007138
        k(  888) = (   0.1553571   0.1553571   0.1553571), wk =   0.0007138
        k(  889) = (   0.1571429   0.1571429   0.1571429), wk =   0.0007138
        k(  890) = (   0.1589286   0.1589286   0.1589286), wk =   0.0007138
        k(  891) = (   0.1607143   0.1607143   0.1607143), wk =   0.0007138
        k(  892) = (   0.1625000   0.1625000   0.1625000), wk =   0.0007138
        k(  893) = (   0.1642857   0.1642857   0.1642857), wk =   0.0007138
        k(  894) = (   0.1660714   0.1660714   0.1660714), wk =   0.0007138
        k(  895) = (   0.1678571   0.1678571   0.1678571), wk =   0.0007138
        k(  896) = (   0.1696429   0.1696429   0.1696429), wk =   0.0007138
        k(  897) = (   0.1714286   0.1714286   0.1714286), wk =   0.0007138
        k(  898) = (   0.1732143   0.1732143   0.1732143), wk =   0.0007138
        k(  899) = (   0.1750000   0.1750000   0.1750000), wk =   0.0007138
        k(  900) = (   0.1767857   0.1767857   0.1767857), wk =   0.0007138
        k(  901) = (   0.1785714   0.1785714   0.1785714), wk =   0.0007138
        k(  902) = (   0.1803571   0.1803571   0.1803571), wk =   0.0007138
        k(  903) = (   0.1821429   0.1821429   0.1821429), wk =   0.0007138
        k(  904) = (   0.1839286   0.1839286   0.1839286), wk =   0.0007138
        k(  905) = (   0.1857143   0.1857143   0.1857143), wk =   0.0007138
        k(  906) = (   0.1875000   0.1875000   0.1875000), wk =   0.0007138
        k(  907) = (   0.1892857   0.1892857   0.1892857), wk =   0.0007138
        k(  908) = (   0.1910714   0.1910714   0.1910714), wk =   0.0007138
        k(  909) = (   0.1928571   0.1928571   0.1928571), wk =   0.0007138
        k(  910) = (   0.1946429   0.1946429   0.1946429), wk =   0.0007138
        k(  911) = (   0.1964286   0.1964286   0.1964286), wk =   0.0007138
        k(  912) = (   0.1982143   0.1982143   0.1982143), wk =   0.0007138
        k(  913) = (   0.2000000   0.2000000   0.2000000), wk =   0.0007138
        k(  914) = (   0.2017857   0.2017857   0.2017857), wk =   0.0007138
        k(  915) = (   0.2035714   0.2035714   0.2035714), wk =   0.0007138
        k(  916) = (   0.2053571   0.2053571   0.2053571), wk =   0.0007138
        k(  917) = (   0.2071429   0.2071429   0.2071429), wk =   0.0007138
        k(  918) = (   0.2089286   0.2089286   0.2089286), wk =   0.0007138
        k(  919) = (   0.2107143   0.2107143   0.2107143), wk =   0.0007138
        k(  920) = (   0.2125000   0.2125000   0.2125000), wk =   0.0007138
        k(  921) = (   0.2142857   0.2142857   0.2142857), wk =   0.0007138
        k(  922) = (   0.2160714   0.2160714   0.2160714), wk =   0.0007138
        k(  923) = (   0.2178571   0.2178571   0.2178571), wk =   0.0007138
        k(  924) = (   0.2196429   0.2196429   0.2196429), wk =   0.0007138
        k(  925) = (   0.2214286   0.2214286   0.2214286), wk =   0.0007138
        k(  926) = (   0.2232143   0.2232143   0.2232143), wk =   0.0007138
        k(  927) = (   0.2250000   0.2250000   0.2250000), wk =   0.0007138
        k(  928) = (   0.2267857   0.2267857   0.2267857), wk =   0.0007138
        k(  929) = (   0.2285714   0.2285714   0.2285714), wk =   0.0007138
        k(  930) = (   0.2303571   0.2303571   0.2303571), wk =   0.0007138
        k(  931) = (   0.2321429   0.2321429   0.2321429), wk =   0.0007138
        k(  932) = (   0.2339286   0.2339286   0.2339286), wk =   0.0007138
        k(  933) = (   0.2357143   0.2357143   0.2357143), wk =   0.0007138
        k(  934) = (   0.2375000   0.2375000   0.2375000), wk =   0.0007138
        k(  935) = (   0.2392857   0.2392857   0.2392857), wk =   0.0007138
        k(  936) = (   0.2410714   0.2410714   0.2410714), wk =   0.0007138
        k(  937) = (   0.2428571   0.2428571   0.2428571), wk =   0.0007138
        k(  938) = (   0.2446429   0.2446429   0.2446429), wk =   0.0007138
        k(  939) = (   0.2464286   0.2464286   0.2464286), wk =   0.0007138
        k(  940) = (   0.2482143   0.2482143   0.2482143), wk =   0.0007138
        k(  941) = (   0.2500000   0.2500000   0.2500000), wk =   0.0007138
        k(  942) = (   0.2517857   0.2517857   0.2517857), wk =   0.0007138
        k(  943) = (   0.2535714   0.2535714   0.2535714), wk =   0.0007138
        k(  944) = (   0.2553571   0.2553571   0.2553571), wk =   0.0007138
        k(  945) = (   0.2571429   0.2571429   0.2571429), wk =   0.0007138
        k(  946) = (   0.2589286   0.2589286   0.2589286), wk =   0.0007138
        k(  947) = (   0.2607143   0.2607143   0.2607143), wk =   0.0007138
        k(  948) = (   0.2625000   0.2625000   0.2625000), wk =   0.0007138
        k(  949) = (   0.2642857   0.2642857   0.2642857), wk =   0.0007138
        k(  950) = (   0.2660714   0.2660714   0.2660714), wk =   0.0007138
        k(  951) = (   0.2678571   0.2678571   0.2678571), wk =   0.0007138
        k(  952) = (   0.2696429   0.2696429   0.2696429), wk =   0.0007138
        k(  953) = (   0.2714286   0.2714286   0.2714286), wk =   0.0007138
        k(  954) = (   0.2732143   0.2732143   0.2732143), wk =   0.0007138
        k(  955) = (   0.2750000   0.2750000   0.2750000), wk =   0.0007138
        k(  956) = (   0.2767857   0.2767857   0.2767857), wk =   0.0007138
        k(  957) = (   0.2785714   0.2785714   0.2785714), wk =   0.0007138
        k(  958) = (   0.2803571   0.2803571   0.2803571), wk =   0.0007138
        k(  959) = (   0.2821429   0.2821429   0.2821429), wk =   0.0007138
        k(  960) = (   0.2839286   0.2839286   0.2839286), wk =   0.0007138
        k(  961) = (   0.2857143   0.2857143   0.2857143), wk =   0.0007138
        k(  962) = (   0.2875000   0.2875000   0.2875000), wk =   0.0007138
        k(  963) = (   0.2892857   0.2892857   0.2892857), wk =   0.0007138
        k(  964) = (   0.2910714   0.2910714   0.2910714), wk =   0.0007138
        k(  965) = (   0.2928571   0.2928571   0.2928571), wk =   0.0007138
        k(  966) = (   0.2946429   0.2946429   0.2946429), wk =   0.0007138
        k(  967) = (   0.2964286   0.2964286   0.2964286), wk =   0.0007138
        k(  968) = (   0.2982143   0.2982143   0.2982143), wk =   0.0007138
        k(  969) = (   0.3000000   0.3000000   0.3000000), wk =   0.0007138
        k(  970) = (   0.3017857   0.3017857   0.3017857), wk =   0.0007138
        k(  971) = (   0.3035714   0.3035714   0.3035714), wk =   0.0007138
        k(  972) = (   0.3053571   0.3053571   0.3053571), wk =   0.0007138
        k(  973) = (   0.3071429   0.3071429   0.3071429), wk =   0.0007138
        k(  974) = (   0.3089286   0.3089286   0.3089286), wk =   0.0007138
        k(  975) = (   0.3107143   0.3107143   0.3107143), wk =   0.0007138
        k(  976) = (   0.3125000   0.3125000   0.3125000), wk =   0.0007138
        k(  977) = (   0.3142857   0.3142857   0.3142857), wk =   0.0007138
        k(  978) = (   0.3160714   0.3160714   0.3160714), wk =   0.0007138
        k(  979) = (   0.3178571   0.3178571   0.3178571), wk =   0.0007138
        k(  980) = (   0.3196429   0.3196429   0.3196429), wk =   0.0007138
        k(  981) = (   0.3214286   0.3214286   0.3214286), wk =   0.0007138
        k(  982) = (   0.3232143   0.3232143   0.3232143), wk =   0.0007138
        k(  983) = (   0.3250000   0.3250000   0.3250000), wk =   0.0007138
        k(  984) = (   0.3267857   0.3267857   0.3267857), wk =   0.0007138
        k(  985) = (   0.3285714   0.3285714   0.3285714), wk =   0.0007138
        k(  986) = (   0.3303571   0.3303571   0.3303571), wk =   0.0007138
        k(  987) = (   0.3321429   0.3321429   0.3321429), wk =   0.0007138
        k(  988) = (   0.3339286   0.3339286   0.3339286), wk =   0.0007138
        k(  989) = (   0.3357143   0.3357143   0.3357143), wk =   0.0007138
        k(  990) = (   0.3375000   0.3375000   0.3375000), wk =   0.0007138
        k(  991) = (   0.3392857   0.3392857   0.3392857), wk =   0.0007138
        k(  992) = (   0.3410714   0.3410714   0.3410714), wk =   0.0007138
        k(  993) = (   0.3428571   0.3428571   0.3428571), wk =   0.0007138
        k(  994) = (   0.3446429   0.3446429   0.3446429), wk =   0.0007138
        k(  995) = (   0.3464286   0.3464286   0.3464286), wk =   0.0007138
        k(  996) = (   0.3482143   0.3482143   0.3482143), wk =   0.0007138
        k(  997) = (   0.3500000   0.3500000   0.3500000), wk =   0.0007138
        k(  998) = (   0.3517857   0.3517857   0.3517857), wk =   0.0007138
        k(  999) = (   0.3535714   0.3535714   0.3535714), wk =   0.0007138
        k( 1000) = (   0.3553571   0.3553571   0.3553571), wk =   0.0007138
        k( 1001) = (   0.3571429   0.3571429   0.3571429), wk =   0.0007138
        k( 1002) = (   0.3589286   0.3589286   0.3589286), wk =   0.0007138
        k( 1003) = (   0.3607143   0.3607143   0.3607143), wk =   0.0007138
        k( 1004) = (   0.3625000   0.3625000   0.3625000), wk =   0.0007138
        k( 1005) = (   0.3642857   0.3642857   0.3642857), wk =   0.0007138
        k( 1006) = (   0.3660714   0.3660714   0.3660714), wk =   0.0007138
        k( 1007) = (   0.3678571   0.3678571   0.3678571), wk =   0.0007138
        k( 1008) = (   0.3696429   0.3696429   0.3696429), wk =   0.0007138
        k( 1009) = (   0.3714286   0.3714286   0.3714286), wk =   0.0007138
        k( 1010) = (   0.3732143   0.3732143   0.3732143), wk =   0.0007138
        k( 1011) = (   0.3750000   0.3750000   0.3750000), wk =   0.0007138
        k( 1012) = (   0.3767857   0.3767857   0.3767857), wk =   0.0007138
        k( 1013) = (   0.3785714   0.3785714   0.3785714), wk =   0.0007138
        k( 1014) = (   0.3803571   0.3803571   0.3803571), wk =   0.0007138
        k( 1015) = (   0.3821429   0.3821429   0.3821429), wk =   0.0007138
        k( 1016) = (   0.3839286   0.3839286   0.3839286), wk =   0.0007138
        k( 1017) = (   0.3857143   0.3857143   0.3857143), wk =   0.0007138
        k( 1018) = (   0.3875000   0.3875000   0.3875000), wk =   0.0007138
        k( 1019) = (   0.3892857   0.3892857   0.3892857), wk =   0.0007138
        k( 1020) = (   0.3910714   0.3910714   0.3910714), wk =   0.0007138
        k( 1021) = (   0.3928571   0.3928571   0.3928571), wk =   0.0007138
        k( 1022) = (   0.3946429   0.3946429   0.3946429), wk =   0.0007138
        k( 1023) = (   0.3964286   0.3964286   0.3964286), wk =   0.0007138
        k( 1024) = (   0.3982143   0.3982143   0.3982143), wk =   0.0007138
        k( 1025) = (   0.4000000   0.4000000   0.4000000), wk =   0.0007138
        k( 1026) = (   0.4017857   0.4017857   0.4017857), wk =   0.0007138
        k( 1027) = (   0.4035714   0.4035714   0.4035714), wk =   0.0007138
        k( 1028) = (   0.4053571   0.4053571   0.4053571), wk =   0.0007138
        k( 1029) = (   0.4071429   0.4071429   0.4071429), wk =   0.0007138
        k( 1030) = (   0.4089286   0.4089286   0.4089286), wk =   0.0007138
        k( 1031) = (   0.4107143   0.4107143   0.4107143), wk =   0.0007138
        k( 1032) = (   0.4125000   0.4125000   0.4125000), wk =   0.0007138
        k( 1033) = (   0.4142857   0.4142857   0.4142857), wk =   0.0007138
        k( 1034) = (   0.4160714   0.4160714   0.4160714), wk =   0.0007138
        k( 1035) = (   0.4178571   0.4178571   0.4178571), wk =   0.0007138
        k( 1036) = (   0.4196429   0.4196429   0.4196429), wk =   0.0007138
        k( 1037) = (   0.4214286   0.4214286   0.4214286), wk =   0.0007138
        k( 1038) = (   0.4232143   0.4232143   0.4232143), wk =   0.0007138
        k( 1039) = (   0.4250000   0.4250000   0.4250000), wk =   0.0007138
        k( 1040) = (   0.4267857   0.4267857   0.4267857), wk =   0.0007138
        k( 1041) = (   0.4285714   0.4285714   0.4285714), wk =   0.0007138
        k( 1042) = (   0.4303571   0.4303571   0.4303571), wk =   0.0007138
        k( 1043) = (   0.4321429   0.4321429   0.4321429), wk =   0.0007138
        k( 1044) = (   0.4339286   0.4339286   0.4339286), wk =   0.0007138
        k( 1045) = (   0.4357143   0.4357143   0.4357143), wk =   0.0007138
        k( 1046) = (   0.4375000   0.4375000   0.4375000), wk =   0.0007138
        k( 1047) = (   0.4392857   0.4392857   0.4392857), wk =   0.0007138
        k( 1048) = (   0.4410714   0.4410714   0.4410714), wk =   0.0007138
        k( 1049) = (   0.4428571   0.4428571   0.4428571), wk =   0.0007138
        k( 1050) = (   0.4446429   0.4446429   0.4446429), wk =   0.0007138
        k( 1051) = (   0.4464286   0.4464286   0.4464286), wk =   0.0007138
        k( 1052) = (   0.4482143   0.4482143   0.4482143), wk =   0.0007138
        k( 1053) = (   0.4500000   0.4500000   0.4500000), wk =   0.0007138
        k( 1054) = (   0.4517857   0.4517857   0.4517857), wk =   0.0007138
        k( 1055) = (   0.4535714   0.4535714   0.4535714), wk =   0.0007138
        k( 1056) = (   0.4553571   0.4553571   0.4553571), wk =   0.0007138
        k( 1057) = (   0.4571429   0.4571429   0.4571429), wk =   0.0007138
        k( 1058) = (   0.4589286   0.4589286   0.4589286), wk =   0.0007138
        k( 1059) = (   0.4607143   0.4607143   0.4607143), wk =   0.0007138
        k( 1060) = (   0.4625000   0.4625000   0.4625000), wk =   0.0007138
        k( 1061) = (   0.4642857   0.4642857   0.4642857), wk =   0.0007138
        k( 1062) = (   0.4660714   0.4660714   0.4660714), wk =   0.0007138
        k( 1063) = (   0.4678571   0.4678571   0.4678571), wk =   0.0007138
        k( 1064) = (   0.4696429   0.4696429   0.4696429), wk =   0.0007138
        k( 1065) = (   0.4714286   0.4714286   0.4714286), wk =   0.0007138
        k( 1066) = (   0.4732143   0.4732143   0.4732143), wk =   0.0007138
        k( 1067) = (   0.4750000   0.4750000   0.4750000), wk =   0.0007138
        k( 1068) = (   0.4767857   0.4767857   0.4767857), wk =   0.0007138
        k( 1069) = (   0.4785714   0.4785714   0.4785714), wk =   0.0007138
        k( 1070) = (   0.4803571   0.4803571   0.4803571), wk =   0.0007138
        k( 1071) = (   0.4821429   0.4821429   0.4821429), wk =   0.0007138
        k( 1072) = (   0.4839286   0.4839286   0.4839286), wk =   0.0007138
        k( 1073) = (   0.4857143   0.4857143   0.4857143), wk =   0.0007138
        k( 1074) = (   0.4875000   0.4875000   0.4875000), wk =   0.0007138
        k( 1075) = (   0.4892857   0.4892857   0.4892857), wk =   0.0007138
        k( 1076) = (   0.4910714   0.4910714   0.4910714), wk =   0.0007138
        k( 1077) = (   0.4928571   0.4928571   0.4928571), wk =   0.0007138
        k( 1078) = (   0.4946429   0.4946429   0.4946429), wk =   0.0007138
        k( 1079) = (   0.4964286   0.4964286   0.4964286), wk =   0.0007138
        k( 1080) = (   0.4982143   0.4982143   0.4982143), wk =   0.0007138
        k( 1081) = (   0.5000000   0.5000000   0.5000000), wk =   0.0007138
        k( 1082) = (   0.5000000   0.4987500   0.5012500), wk =   0.0007138
        k( 1083) = (   0.5000000   0.4975000   0.5025000), wk =   0.0007138
        k( 1084) = (   0.5000000   0.4962500   0.5037500), wk =   0.0007138
        k( 1085) = (   0.5000000   0.4950000   0.5050000), wk =   0.0007138
        k( 1086) = (   0.5000000   0.4937500   0.5062500), wk =   0.0007138
        k( 1087) = (   0.5000000   0.4925000   0.5075000), wk =   0.0007138
        k( 1088) = (   0.5000000   0.4912500   0.5087500), wk =   0.0007138
        k( 1089) = (   0.5000000   0.4900000   0.5100000), wk =   0.0007138
        k( 1090) = (   0.5000000   0.4887500   0.5112500), wk =   0.0007138
        k( 1091) = (   0.5000000   0.4875000   0.5125000), wk =   0.0007138
        k( 1092) = (   0.5000000   0.4862500   0.5137500), wk =   0.0007138
        k( 1093) = (   0.5000000   0.4850000   0.5150000), wk =   0.0007138
        k( 1094) = (   0.5000000   0.4837500   0.5162500), wk =   0.0007138
        k( 1095) = (   0.5000000   0.4825000   0.5175000), wk =   0.0007138
        k( 1096) = (   0.5000000   0.4812500   0.5187500), wk =   0.0007138
        k( 1097) = (   0.5000000   0.4800000   0.5200000), wk =   0.0007138
        k( 1098) = (   0.5000000   0.4787500   0.5212500), wk =   0.0007138
        k( 1099) = (   0.5000000   0.4775000   0.5225000), wk =   0.0007138
        k( 1100) = (   0.5000000   0.4762500   0.5237500), wk =   0.0007138
        k( 1101) = (   0.5000000   0.4750000   0.5250000), wk =   0.0007138
        k( 1102) = (   0.5000000   0.4737500   0.5262500), wk =   0.0007138
        k( 1103) = (   0.5000000   0.4725000   0.5275000), wk =   0.0007138
        k( 1104) = (   0.5000000   0.4712500   0.5287500), wk =   0.0007138
        k( 1105) = (   0.5000000   0.4700000   0.5300000), wk =   0.0007138
        k( 1106) = (   0.5000000   0.4687500   0.5312500), wk =   0.0007138
        k( 1107) = (   0.5000000   0.4675000   0.5325000), wk =   0.0007138
        k( 1108) = (   0.5000000   0.4662500   0.5337500), wk =   0.0007138
        k( 1109) = (   0.5000000   0.4650000   0.5350000), wk =   0.0007138
        k( 1110) = (   0.5000000   0.4637500   0.5362500), wk =   0.0007138
        k( 1111) = (   0.5000000   0.4625000   0.5375000), wk =   0.0007138
        k( 1112) = (   0.5000000   0.4612500   0.5387500), wk =   0.0007138
        k( 1113) = (   0.5000000   0.4600000   0.5400000), wk =   0.0007138
        k( 1114) = (   0.5000000   0.4587500   0.5412500), wk =   0.0007138
        k( 1115) = (   0.5000000   0.4575000   0.5425000), wk =   0.0007138
        k( 1116) = (   0.5000000   0.4562500   0.5437500), wk =   0.0007138
        k( 1117) = (   0.5000000   0.4550000   0.5450000), wk =   0.0007138
        k( 1118) = (   0.5000000   0.4537500   0.5462500), wk =   0.0007138
        k( 1119) = (   0.5000000   0.4525000   0.5475000), wk =   0.0007138
        k( 1120) = (   0.5000000   0.4512500   0.5487500), wk =   0.0007138
        k( 1121) = (   0.5000000   0.4500000   0.5500000), wk =   0.0007138
        k( 1122) = (   0.5000000   0.4487500   0.5512500), wk =   0.0007138
        k( 1123) = (   0.5000000   0.4475000   0.5525000), wk =   0.0007138
        k( 1124) = (   0.5000000   0.4462500   0.5537500), wk =   0.0007138
        k( 1125) = (   0.5000000   0.4450000   0.5550000), wk =   0.0007138
        k( 1126) = (   0.5000000   0.4437500   0.5562500), wk =   0.0007138
        k( 1127) = (   0.5000000   0.4425000   0.5575000), wk =   0.0007138
        k( 1128) = (   0.5000000   0.4412500   0.5587500), wk =   0.0007138
        k( 1129) = (   0.5000000   0.4400000   0.5600000), wk =   0.0007138
        k( 1130) = (   0.5000000   0.4387500   0.5612500), wk =   0.0007138
        k( 1131) = (   0.5000000   0.4375000   0.5625000), wk =   0.0007138
        k( 1132) = (   0.5000000   0.4362500   0.5637500), wk =   0.0007138
        k( 1133) = (   0.5000000   0.4350000   0.5650000), wk =   0.0007138
        k( 1134) = (   0.5000000   0.4337500   0.5662500), wk =   0.0007138
        k( 1135) = (   0.5000000   0.4325000   0.5675000), wk =   0.0007138
        k( 1136) = (   0.5000000   0.4312500   0.5687500), wk =   0.0007138
        k( 1137) = (   0.5000000   0.4300000   0.5700000), wk =   0.0007138
        k( 1138) = (   0.5000000   0.4287500   0.5712500), wk =   0.0007138
        k( 1139) = (   0.5000000   0.4275000   0.5725000), wk =   0.0007138
        k( 1140) = (   0.5000000   0.4262500   0.5737500), wk =   0.0007138
        k( 1141) = (   0.5000000   0.4250000   0.5750000), wk =   0.0007138
        k( 1142) = (   0.5000000   0.4237500   0.5762500), wk =   0.0007138
        k( 1143) = (   0.5000000   0.4225000   0.5775000), wk =   0.0007138
        k( 1144) = (   0.5000000   0.4212500   0.5787500), wk =   0.0007138
        k( 1145) = (   0.5000000   0.4200000   0.5800000), wk =   0.0007138
        k( 1146) = (   0.5000000   0.4187500   0.5812500), wk =   0.0007138
        k( 1147) = (   0.5000000   0.4175000   0.5825000), wk =   0.0007138
        k( 1148) = (   0.5000000   0.4162500   0.5837500), wk =   0.0007138
        k( 1149) = (   0.5000000   0.4150000   0.5850000), wk =   0.0007138
        k( 1150) = (   0.5000000   0.4137500   0.5862500), wk =   0.0007138
        k( 1151) = (   0.5000000   0.4125000   0.5875000), wk =   0.0007138
        k( 1152) = (   0.5000000   0.4112500   0.5887500), wk =   0.0007138
        k( 1153) = (   0.5000000   0.4100000   0.5900000), wk =   0.0007138
        k( 1154) = (   0.5000000   0.4087500   0.5912500), wk =   0.0007138
        k( 1155) = (   0.5000000   0.4075000   0.5925000), wk =   0.0007138
        k( 1156) = (   0.5000000   0.4062500   0.5937500), wk =   0.0007138
        k( 1157) = (   0.5000000   0.4050000   0.5950000), wk =   0.0007138
        k( 1158) = (   0.5000000   0.4037500   0.5962500), wk =   0.0007138
        k( 1159) = (   0.5000000   0.4025000   0.5975000), wk =   0.0007138
        k( 1160) = (   0.5000000   0.4012500   0.5987500), wk =   0.0007138
        k( 1161) = (   0.5000000   0.4000000   0.6000000), wk =   0.0007138
        k( 1162) = (   0.5000000   0.3987500   0.6012500), wk =   0.0007138
        k( 1163) = (   0.5000000   0.3975000   0.6025000), wk =   0.0007138
        k( 1164) = (   0.5000000   0.3962500   0.6037500), wk =   0.0007138
        k( 1165) = (   0.5000000   0.3950000   0.6050000), wk =   0.0007138
        k( 1166) = (   0.5000000   0.3937500   0.6062500), wk =   0.0007138
        k( 1167) = (   0.5000000   0.3925000   0.6075000), wk =   0.0007138
        k( 1168) = (   0.5000000   0.3912500   0.6087500), wk =   0.0007138
        k( 1169) = (   0.5000000   0.3900000   0.6100000), wk =   0.0007138
        k( 1170) = (   0.5000000   0.3887500   0.6112500), wk =   0.0007138
        k( 1171) = (   0.5000000   0.3875000   0.6125000), wk =   0.0007138
        k( 1172) = (   0.5000000   0.3862500   0.6137500), wk =   0.0007138
        k( 1173) = (   0.5000000   0.3850000   0.6150000), wk =   0.0007138
        k( 1174) = (   0.5000000   0.3837500   0.6162500), wk =   0.0007138
        k( 1175) = (   0.5000000   0.3825000   0.6175000), wk =   0.0007138
        k( 1176) = (   0.5000000   0.3812500   0.6187500), wk =   0.0007138
        k( 1177) = (   0.5000000   0.3800000   0.6200000), wk =   0.0007138
        k( 1178) = (   0.5000000   0.3787500   0.6212500), wk =   0.0007138
        k( 1179) = (   0.5000000   0.3775000   0.6225000), wk =   0.0007138
        k( 1180) = (   0.5000000   0.3762500   0.6237500), wk =   0.0007138
        k( 1181) = (   0.5000000   0.3750000   0.6250000), wk =   0.0007138
        k( 1182) = (   0.5000000   0.3737500   0.6262500), wk =   0.0007138
        k( 1183) = (   0.5000000   0.3725000   0.6275000), wk =   0.0007138
        k( 1184) = (   0.5000000   0.3712500   0.6287500), wk =   0.0007138
        k( 1185) = (   0.5000000   0.3700000   0.6300000), wk =   0.0007138
        k( 1186) = (   0.5000000   0.3687500   0.6312500), wk =   0.0007138
        k( 1187) = (   0.5000000   0.3675000   0.6325000), wk =   0.0007138
        k( 1188) = (   0.5000000   0.3662500   0.6337500), wk =   0.0007138
        k( 1189) = (   0.5000000   0.3650000   0.6350000), wk =   0.0007138
        k( 1190) = (   0.5000000   0.3637500   0.6362500), wk =   0.0007138
        k( 1191) = (   0.5000000   0.3625000   0.6375000), wk =   0.0007138
        k( 1192) = (   0.5000000   0.3612500   0.6387500), wk =   0.0007138
        k( 1193) = (   0.5000000   0.3600000   0.6400000), wk =   0.0007138
        k( 1194) = (   0.5000000   0.3587500   0.6412500), wk =   0.0007138
        k( 1195) = (   0.5000000   0.3575000   0.6425000), wk =   0.0007138
        k( 1196) = (   0.5000000   0.3562500   0.6437500), wk =   0.0007138
        k( 1197) = (   0.5000000   0.3550000   0.6450000), wk =   0.0007138
        k( 1198) = (   0.5000000   0.3537500   0.6462500), wk =   0.0007138
        k( 1199) = (   0.5000000   0.3525000   0.6475000), wk =   0.0007138
        k( 1200) = (   0.5000000   0.3512500   0.6487500), wk =   0.0007138
        k( 1201) = (   0.5000000   0.3500000   0.6500000), wk =   0.0007138
        k( 1202) = (   0.5000000   0.3487500   0.6512500), wk =   0.0007138
        k( 1203) = (   0.5000000   0.3475000   0.6525000), wk =   0.0007138
        k( 1204) = (   0.5000000   0.3462500   0.6537500), wk =   0.0007138
        k( 1205) = (   0.5000000   0.3450000   0.6550000), wk =   0.0007138
        k( 1206) = (   0.5000000   0.3437500   0.6562500), wk =   0.0007138
        k( 1207) = (   0.5000000   0.3425000   0.6575000), wk =   0.0007138
        k( 1208) = (   0.5000000   0.3412500   0.6587500), wk =   0.0007138
        k( 1209) = (   0.5000000   0.3400000   0.6600000), wk =   0.0007138
        k( 1210) = (   0.5000000   0.3387500   0.6612500), wk =   0.0007138
        k( 1211) = (   0.5000000   0.3375000   0.6625000), wk =   0.0007138
        k( 1212) = (   0.5000000   0.3362500   0.6637500), wk =   0.0007138
        k( 1213) = (   0.5000000   0.3350000   0.6650000), wk =   0.0007138
        k( 1214) = (   0.5000000   0.3337500   0.6662500), wk =   0.0007138
        k( 1215) = (   0.5000000   0.3325000   0.6675000), wk =   0.0007138
        k( 1216) = (   0.5000000   0.3312500   0.6687500), wk =   0.0007138
        k( 1217) = (   0.5000000   0.3300000   0.6700000), wk =   0.0007138
        k( 1218) = (   0.5000000   0.3287500   0.6712500), wk =   0.0007138
        k( 1219) = (   0.5000000   0.3275000   0.6725000), wk =   0.0007138
        k( 1220) = (   0.5000000   0.3262500   0.6737500), wk =   0.0007138
        k( 1221) = (   0.5000000   0.3250000   0.6750000), wk =   0.0007138
        k( 1222) = (   0.5000000   0.3237500   0.6762500), wk =   0.0007138
        k( 1223) = (   0.5000000   0.3225000   0.6775000), wk =   0.0007138
        k( 1224) = (   0.5000000   0.3212500   0.6787500), wk =   0.0007138
        k( 1225) = (   0.5000000   0.3200000   0.6800000), wk =   0.0007138
        k( 1226) = (   0.5000000   0.3187500   0.6812500), wk =   0.0007138
        k( 1227) = (   0.5000000   0.3175000   0.6825000), wk =   0.0007138
        k( 1228) = (   0.5000000   0.3162500   0.6837500), wk =   0.0007138
        k( 1229) = (   0.5000000   0.3150000   0.6850000), wk =   0.0007138
        k( 1230) = (   0.5000000   0.3137500   0.6862500), wk =   0.0007138
        k( 1231) = (   0.5000000   0.3125000   0.6875000), wk =   0.0007138
        k( 1232) = (   0.5000000   0.3112500   0.6887500), wk =   0.0007138
        k( 1233) = (   0.5000000   0.3100000   0.6900000), wk =   0.0007138
        k( 1234) = (   0.5000000   0.3087500   0.6912500), wk =   0.0007138
        k( 1235) = (   0.5000000   0.3075000   0.6925000), wk =   0.0007138
        k( 1236) = (   0.5000000   0.3062500   0.6937500), wk =   0.0007138
        k( 1237) = (   0.5000000   0.3050000   0.6950000), wk =   0.0007138
        k( 1238) = (   0.5000000   0.3037500   0.6962500), wk =   0.0007138
        k( 1239) = (   0.5000000   0.3025000   0.6975000), wk =   0.0007138
        k( 1240) = (   0.5000000   0.3012500   0.6987500), wk =   0.0007138
        k( 1241) = (   0.5000000   0.3000000   0.7000000), wk =   0.0007138
        k( 1242) = (   0.5000000   0.2987500   0.7012500), wk =   0.0007138
        k( 1243) = (   0.5000000   0.2975000   0.7025000), wk =   0.0007138
        k( 1244) = (   0.5000000   0.2962500   0.7037500), wk =   0.0007138
        k( 1245) = (   0.5000000   0.2950000   0.7050000), wk =   0.0007138
        k( 1246) = (   0.5000000   0.2937500   0.7062500), wk =   0.0007138
        k( 1247) = (   0.5000000   0.2925000   0.7075000), wk =   0.0007138
        k( 1248) = (   0.5000000   0.2912500   0.7087500), wk =   0.0007138
        k( 1249) = (   0.5000000   0.2900000   0.7100000), wk =   0.0007138
        k( 1250) = (   0.5000000   0.2887500   0.7112500), wk =   0.0007138
        k( 1251) = (   0.5000000   0.2875000   0.7125000), wk =   0.0007138
        k( 1252) = (   0.5000000   0.2862500   0.7137500), wk =   0.0007138
        k( 1253) = (   0.5000000   0.2850000   0.7150000), wk =   0.0007138
        k( 1254) = (   0.5000000   0.2837500   0.7162500), wk =   0.0007138
        k( 1255) = (   0.5000000   0.2825000   0.7175000), wk =   0.0007138
        k( 1256) = (   0.5000000   0.2812500   0.7187500), wk =   0.0007138
        k( 1257) = (   0.5000000   0.2800000   0.7200000), wk =   0.0007138
        k( 1258) = (   0.5000000   0.2787500   0.7212500), wk =   0.0007138
        k( 1259) = (   0.5000000   0.2775000   0.7225000), wk =   0.0007138
        k( 1260) = (   0.5000000   0.2762500   0.7237500), wk =   0.0007138
        k( 1261) = (   0.5000000   0.2750000   0.7250000), wk =   0.0007138
        k( 1262) = (   0.5000000   0.2737500   0.7262500), wk =   0.0007138
        k( 1263) = (   0.5000000   0.2725000   0.7275000), wk =   0.0007138
        k( 1264) = (   0.5000000   0.2712500   0.7287500), wk =   0.0007138
        k( 1265) = (   0.5000000   0.2700000   0.7300000), wk =   0.0007138
        k( 1266) = (   0.5000000   0.2687500   0.7312500), wk =   0.0007138
        k( 1267) = (   0.5000000   0.2675000   0.7325000), wk =   0.0007138
        k( 1268) = (   0.5000000   0.2662500   0.7337500), wk =   0.0007138
        k( 1269) = (   0.5000000   0.2650000   0.7350000), wk =   0.0007138
        k( 1270) = (   0.5000000   0.2637500   0.7362500), wk =   0.0007138
        k( 1271) = (   0.5000000   0.2625000   0.7375000), wk =   0.0007138
        k( 1272) = (   0.5000000   0.2612500   0.7387500), wk =   0.0007138
        k( 1273) = (   0.5000000   0.2600000   0.7400000), wk =   0.0007138
        k( 1274) = (   0.5000000   0.2587500   0.7412500), wk =   0.0007138
        k( 1275) = (   0.5000000   0.2575000   0.7425000), wk =   0.0007138
        k( 1276) = (   0.5000000   0.2562500   0.7437500), wk =   0.0007138
        k( 1277) = (   0.5000000   0.2550000   0.7450000), wk =   0.0007138
        k( 1278) = (   0.5000000   0.2537500   0.7462500), wk =   0.0007138
        k( 1279) = (   0.5000000   0.2525000   0.7475000), wk =   0.0007138
        k( 1280) = (   0.5000000   0.2512500   0.7487500), wk =   0.0007138
        k( 1281) = (   0.5000000   0.2500000   0.7500000), wk =   0.0007138
        k( 1282) = (   0.5000000   0.2479167   0.7479167), wk =   0.0007138
        k( 1283) = (   0.5000000   0.2458333   0.7458333), wk =   0.0007138
        k( 1284) = (   0.5000000   0.2437500   0.7437500), wk =   0.0007138
        k( 1285) = (   0.5000000   0.2416667   0.7416667), wk =   0.0007138
        k( 1286) = (   0.5000000   0.2395833   0.7395833), wk =   0.0007138
        k( 1287) = (   0.5000000   0.2375000   0.7375000), wk =   0.0007138
        k( 1288) = (   0.5000000   0.2354167   0.7354167), wk =   0.0007138
        k( 1289) = (   0.5000000   0.2333333   0.7333333), wk =   0.0007138
        k( 1290) = (   0.5000000   0.2312500   0.7312500), wk =   0.0007138
        k( 1291) = (   0.5000000   0.2291667   0.7291667), wk =   0.0007138
        k( 1292) = (   0.5000000   0.2270833   0.7270833), wk =   0.0007138
        k( 1293) = (   0.5000000   0.2250000   0.7250000), wk =   0.0007138
        k( 1294) = (   0.5000000   0.2229167   0.7229167), wk =   0.0007138
        k( 1295) = (   0.5000000   0.2208333   0.7208333), wk =   0.0007138
        k( 1296) = (   0.5000000   0.2187500   0.7187500), wk =   0.0007138
        k( 1297) = (   0.5000000   0.2166667   0.7166667), wk =   0.0007138
        k( 1298) = (   0.5000000   0.2145833   0.7145833), wk =   0.0007138
        k( 1299) = (   0.5000000   0.2125000   0.7125000), wk =   0.0007138
        k( 1300) = (   0.5000000   0.2104167   0.7104167), wk =   0.0007138
        k( 1301) = (   0.5000000   0.2083333   0.7083333), wk =   0.0007138
        k( 1302) = (   0.5000000   0.2062500   0.7062500), wk =   0.0007138
        k( 1303) = (   0.5000000   0.2041667   0.7041667), wk =   0.0007138
        k( 1304) = (   0.5000000   0.2020833   0.7020833), wk =   0.0007138
        k( 1305) = (   0.5000000   0.2000000   0.7000000), wk =   0.0007138
        k( 1306) = (   0.5000000   0.1979167   0.6979167), wk =   0.0007138
        k( 1307) = (   0.5000000   0.1958333   0.6958333), wk =   0.0007138
        k( 1308) = (   0.5000000   0.1937500   0.6937500), wk =   0.0007138
        k( 1309) = (   0.5000000   0.1916667   0.6916667), wk =   0.0007138
        k( 1310) = (   0.5000000   0.1895833   0.6895833), wk =   0.0007138
        k( 1311) = (   0.5000000   0.1875000   0.6875000), wk =   0.0007138
        k( 1312) = (   0.5000000   0.1854167   0.6854167), wk =   0.0007138
        k( 1313) = (   0.5000000   0.1833333   0.6833333), wk =   0.0007138
        k( 1314) = (   0.5000000   0.1812500   0.6812500), wk =   0.0007138
        k( 1315) = (   0.5000000   0.1791667   0.6791667), wk =   0.0007138
        k( 1316) = (   0.5000000   0.1770833   0.6770833), wk =   0.0007138
        k( 1317) = (   0.5000000   0.1750000   0.6750000), wk =   0.0007138
        k( 1318) = (   0.5000000   0.1729167   0.6729167), wk =   0.0007138
        k( 1319) = (   0.5000000   0.1708333   0.6708333), wk =   0.0007138
        k( 1320) = (   0.5000000   0.1687500   0.6687500), wk =   0.0007138
        k( 1321) = (   0.5000000   0.1666667   0.6666667), wk =   0.0007138
        k( 1322) = (   0.5000000   0.1645833   0.6645833), wk =   0.0007138
        k( 1323) = (   0.5000000   0.1625000   0.6625000), wk =   0.0007138
        k( 1324) = (   0.5000000   0.1604167   0.6604167), wk =   0.0007138
        k( 1325) = (   0.5000000   0.1583333   0.6583333), wk =   0.0007138
        k( 1326) = (   0.5000000   0.1562500   0.6562500), wk =   0.0007138
        k( 1327) = (   0.5000000   0.1541667   0.6541667), wk =   0.0007138
        k( 1328) = (   0.5000000   0.1520833   0.6520833), wk =   0.0007138
        k( 1329) = (   0.5000000   0.1500000   0.6500000), wk =   0.0007138
        k( 1330) = (   0.5000000   0.1479167   0.6479167), wk =   0.0007138
        k( 1331) = (   0.5000000   0.1458333   0.6458333), wk =   0.0007138
        k( 1332) = (   0.5000000   0.1437500   0.6437500), wk =   0.0007138
        k( 1333) = (   0.5000000   0.1416667   0.6416667), wk =   0.0007138
        k( 1334) = (   0.5000000   0.1395833   0.6395833), wk =   0.0007138
        k( 1335) = (   0.5000000   0.1375000   0.6375000), wk =   0.0007138
        k( 1336) = (   0.5000000   0.1354167   0.6354167), wk =   0.0007138
        k( 1337) = (   0.5000000   0.1333333   0.6333333), wk =   0.0007138
        k( 1338) = (   0.5000000   0.1312500   0.6312500), wk =   0.0007138
        k( 1339) = (   0.5000000   0.1291667   0.6291667), wk =   0.0007138
        k( 1340) = (   0.5000000   0.1270833   0.6270833), wk =   0.0007138
        k( 1341) = (   0.5000000   0.1250000   0.6250000), wk =   0.0007138
        k( 1342) = (   0.5000000   0.1229167   0.6229167), wk =   0.0007138
        k( 1343) = (   0.5000000   0.1208333   0.6208333), wk =   0.0007138
        k( 1344) = (   0.5000000   0.1187500   0.6187500), wk =   0.0007138
        k( 1345) = (   0.5000000   0.1166667   0.6166667), wk =   0.0007138
        k( 1346) = (   0.5000000   0.1145833   0.6145833), wk =   0.0007138
        k( 1347) = (   0.5000000   0.1125000   0.6125000), wk =   0.0007138
        k( 1348) = (   0.5000000   0.1104167   0.6104167), wk =   0.0007138
        k( 1349) = (   0.5000000   0.1083333   0.6083333), wk =   0.0007138
        k( 1350) = (   0.5000000   0.1062500   0.6062500), wk =   0.0007138
        k( 1351) = (   0.5000000   0.1041667   0.6041667), wk =   0.0007138
        k( 1352) = (   0.5000000   0.1020833   0.6020833), wk =   0.0007138
        k( 1353) = (   0.5000000   0.1000000   0.6000000), wk =   0.0007138
        k( 1354) = (   0.5000000   0.0979167   0.5979167), wk =   0.0007138
        k( 1355) = (   0.5000000   0.0958333   0.5958333), wk =   0.0007138
        k( 1356) = (   0.5000000   0.0937500   0.5937500), wk =   0.0007138
        k( 1357) = (   0.5000000   0.0916667   0.5916667), wk =   0.0007138
        k( 1358) = (   0.5000000   0.0895833   0.5895833), wk =   0.0007138
        k( 1359) = (   0.5000000   0.0875000   0.5875000), wk =   0.0007138
        k( 1360) = (   0.5000000   0.0854167   0.5854167), wk =   0.0007138
        k( 1361) = (   0.5000000   0.0833333   0.5833333), wk =   0.0007138
        k( 1362) = (   0.5000000   0.0812500   0.5812500), wk =   0.0007138
        k( 1363) = (   0.5000000   0.0791667   0.5791667), wk =   0.0007138
        k( 1364) = (   0.5000000   0.0770833   0.5770833), wk =   0.0007138
        k( 1365) = (   0.5000000   0.0750000   0.5750000), wk =   0.0007138
        k( 1366) = (   0.5000000   0.0729167   0.5729167), wk =   0.0007138
        k( 1367) = (   0.5000000   0.0708333   0.5708333), wk =   0.0007138
        k( 1368) = (   0.5000000   0.0687500   0.5687500), wk =   0.0007138
        k( 1369) = (   0.5000000   0.0666667   0.5666667), wk =   0.0007138
        k( 1370) = (   0.5000000   0.0645833   0.5645833), wk =   0.0007138
        k( 1371) = (   0.5000000   0.0625000   0.5625000), wk =   0.0007138
        k( 1372) = (   0.5000000   0.0604167   0.5604167), wk =   0.0007138
        k( 1373) = (   0.5000000   0.0583333   0.5583333), wk =   0.0007138
        k( 1374) = (   0.5000000   0.0562500   0.5562500), wk =   0.0007138
        k( 1375) = (   0.5000000   0.0541667   0.5541667), wk =   0.0007138
        k( 1376) = (   0.5000000   0.0520833   0.5520833), wk =   0.0007138
        k( 1377) = (   0.5000000   0.0500000   0.5500000), wk =   0.0007138
        k( 1378) = (   0.5000000   0.0479167   0.5479167), wk =   0.0007138
        k( 1379) = (   0.5000000   0.0458333   0.5458333), wk =   0.0007138
        k( 1380) = (   0.5000000   0.0437500   0.5437500), wk =   0.0007138
        k( 1381) = (   0.5000000   0.0416667   0.5416667), wk =   0.0007138
        k( 1382) = (   0.5000000   0.0395833   0.5395833), wk =   0.0007138
        k( 1383) = (   0.5000000   0.0375000   0.5375000), wk =   0.0007138
        k( 1384) = (   0.5000000   0.0354167   0.5354167), wk =   0.0007138
        k( 1385) = (   0.5000000   0.0333333   0.5333333), wk =   0.0007138
        k( 1386) = (   0.5000000   0.0312500   0.5312500), wk =   0.0007138
        k( 1387) = (   0.5000000   0.0291667   0.5291667), wk =   0.0007138
        k( 1388) = (   0.5000000   0.0270833   0.5270833), wk =   0.0007138
        k( 1389) = (   0.5000000   0.0250000   0.5250000), wk =   0.0007138
        k( 1390) = (   0.5000000   0.0229167   0.5229167), wk =   0.0007138
        k( 1391) = (   0.5000000   0.0208333   0.5208333), wk =   0.0007138
        k( 1392) = (   0.5000000   0.0187500   0.5187500), wk =   0.0007138
        k( 1393) = (   0.5000000   0.0166667   0.5166667), wk =   0.0007138
        k( 1394) = (   0.5000000   0.0145833   0.5145833), wk =   0.0007138
        k( 1395) = (   0.5000000   0.0125000   0.5125000), wk =   0.0007138
        k( 1396) = (   0.5000000   0.0104167   0.5104167), wk =   0.0007138
        k( 1397) = (   0.5000000   0.0083333   0.5083333), wk =   0.0007138
        k( 1398) = (   0.5000000   0.0062500   0.5062500), wk =   0.0007138
        k( 1399) = (   0.5000000   0.0041667   0.5041667), wk =   0.0007138
        k( 1400) = (   0.5000000   0.0020833   0.5020833), wk =   0.0007138
        k( 1401) = (   0.5000000   0.0000000   0.5000000), wk =   0.0007138

     Dense  grid:   160453 G-vectors     FFT dimensions: (  75,  75,  75)

     Smooth grid:    87027 G-vectors     FFT dimensions: (  64,  64,  64)

     Dynamical RAM for                 wfc:       1.16 MB

     Dynamical RAM for     wfc (w. buffer):       1.16 MB

     Dynamical RAM for           str. fact:       0.82 MB

     Dynamical RAM for           local pot:       0.00 MB

     Dynamical RAM for          nlocal pot:       1.88 MB

     Dynamical RAM for                qrad:      11.28 MB

     Dynamical RAM for          rho,v,vnew:      11.59 MB

     Dynamical RAM for           G-vectors:       1.64 MB

     Dynamical RAM for          h,s,v(r/c):       0.08 MB

     Dynamical RAM for          <psi|beta>:       0.04 MB

     Dynamical RAM for                 psi:       2.33 MB

     Dynamical RAM for                hpsi:       2.33 MB

     Dynamical RAM for                spsi:       2.33 MB

     Dynamical RAM for      wfcinit/wfcrot:       1.76 MB

     Dynamical RAM for           addusdens:     249.33 MB

     Estimated static dynamical RAM per process >      34.06 MB

     Estimated max dynamical RAM per process >     283.39 MB

     Estimated total dynamical RAM >       1.66 GB

     The potential is recalculated from file :
     /home/User/opencode_workspace/DFT/calculations/cdte/production_bands_soc/out/pwscf.save/charge-density

     Starting wfcs are   26 randomized atomic wfcs

     Band Structure Calculation
     Davidson diagonalization with overlap

     Computing kpt #:     1  of  1401
     total cpu time spent up to now is        4.2 secs

     Computing kpt #:     2  of  1401
     total cpu time spent up to now is        5.9 secs

     Computing kpt #:     3  of  1401
     total cpu time spent up to now is        7.9 secs

     Computing kpt #:     4  of  1401
     total cpu time spent up to now is        9.7 secs

     Computing kpt #:     5  of  1401
     total cpu time spent up to now is       11.5 secs

     Computing kpt #:     6  of  1401
     total cpu time spent up to now is       13.4 secs

     Computing kpt #:     7  of  1401
     total cpu time spent up to now is       15.2 secs

     Computing kpt #:     8  of  1401
     total cpu time spent up to now is       16.9 secs

     Computing kpt #:     9  of  1401
     total cpu time spent up to now is       19.6 secs

     Computing kpt #:    10  of  1401
     total cpu time spent up to now is       21.8 secs

     Computing kpt #:    11  of  1401
     total cpu time spent up to now is       24.0 secs

     Computing kpt #:    12  of  1401
     total cpu time spent up to now is       25.8 secs

     Computing kpt #:    13  of  1401
     total cpu time spent up to now is       28.1 secs

     Computing kpt #:    14  of  1401
     total cpu time spent up to now is       30.0 secs

     Computing kpt #:    15  of  1401
     total cpu time spent up to now is       32.4 secs

     Computing kpt #:    16  of  1401
     total cpu time spent up to now is       34.3 secs

     Computing kpt #:    17  of  1401
     total cpu time spent up to now is       36.3 secs

     Computing kpt #:    18  of  1401
     total cpu time spent up to now is       38.2 secs

     Computing kpt #:    19  of  1401
     total cpu time spent up to now is       40.1 secs

     Computing kpt #:    20  of  1401
     total cpu time spent up to now is       42.0 secs

     Computing kpt #:    21  of  1401
     total cpu time spent up to now is       44.0 secs

     Computing kpt #:    22  of  1401
     total cpu time spent up to now is       45.9 secs

     Computing kpt #:    23  of  1401
     total cpu time spent up to now is       47.9 secs

     Computing kpt #:    24  of  1401
     total cpu time spent up to now is       49.8 secs

     Computing kpt #:    25  of  1401
     total cpu time spent up to now is       51.7 secs

     Computing kpt #:    26  of  1401
     total cpu time spent up to now is       54.2 secs

     Computing kpt #:    27  of  1401
     total cpu time spent up to now is       56.2 secs

     Computing kpt #:    28  of  1401
     total cpu time spent up to now is       58.1 secs

     Computing kpt #:    29  of  1401
     total cpu time spent up to now is       60.2 secs

     Computing kpt #:    30  of  1401
     total cpu time spent up to now is       62.2 secs

     Computing kpt #:    31  of  1401
     total cpu time spent up to now is       64.1 secs

     Computing kpt #:    32  of  1401
     total cpu time spent up to now is       66.1 secs

     Computing kpt #:    33  of  1401
     total cpu time spent up to now is       68.1 secs

     Computing kpt #:    34  of  1401
     total cpu time spent up to now is       70.1 secs

     Computing kpt #:    35  of  1401
     total cpu time spent up to now is       72.0 secs

     Computing kpt #:    36  of  1401
     total cpu time spent up to now is       74.1 secs

     Computing kpt #:    37  of  1401
     total cpu time spent up to now is       76.2 secs

     Computing kpt #:    38  of  1401
     total cpu time spent up to now is       78.7 secs

     Computing kpt #:    39  of  1401
     total cpu time spent up to now is       81.2 secs

     Computing kpt #:    40  of  1401
     total cpu time spent up to now is       83.2 secs

     Computing kpt #:    41  of  1401
     total cpu time spent up to now is       85.3 secs

     Computing kpt #:    42  of  1401
     total cpu time spent up to now is       87.6 secs

     Computing kpt #:    43  of  1401
     total cpu time spent up to now is       89.6 secs

     Computing kpt #:    44  of  1401
     total cpu time spent up to now is       91.6 secs

     Computing kpt #:    45  of  1401
     total cpu time spent up to now is       93.8 secs

     Computing kpt #:    46  of  1401
     total cpu time spent up to now is       96.0 secs

     Computing kpt #:    47  of  1401
     total cpu time spent up to now is       98.4 secs

     Computing kpt #:    48  of  1401
     total cpu time spent up to now is      101.1 secs

     Computing kpt #:    49  of  1401
     total cpu time spent up to now is      103.4 secs

     Computing kpt #:    50  of  1401
     total cpu time spent up to now is      105.6 secs

     Computing kpt #:    51  of  1401
     total cpu time spent up to now is      108.0 secs

     Computing kpt #:    52  of  1401
     total cpu time spent up to now is      110.3 secs

     Computing kpt #:    53  of  1401
     total cpu time spent up to now is      112.5 secs

     Computing kpt #:    54  of  1401
     total cpu time spent up to now is      114.9 secs

     Computing kpt #:    55  of  1401
     total cpu time spent up to now is      117.3 secs

     Computing kpt #:    56  of  1401
     total cpu time spent up to now is      119.3 secs

     Computing kpt #:    57  of  1401
     total cpu time spent up to now is      121.5 secs

     Computing kpt #:    58  of  1401
     total cpu time spent up to now is      123.9 secs

     Computing kpt #:    59  of  1401
     total cpu time spent up to now is      125.8 secs

     Computing kpt #:    60  of  1401
     total cpu time spent up to now is      127.9 secs

     Computing kpt #:    61  of  1401
     total cpu time spent up to now is      130.0 secs

     Computing kpt #:    62  of  1401
     total cpu time spent up to now is      132.0 secs

     Computing kpt #:    63  of  1401
     total cpu time spent up to now is      133.9 secs

     Computing kpt #:    64  of  1401
     total cpu time spent up to now is      136.3 secs

     Computing kpt #:    65  of  1401
     total cpu time spent up to now is      138.9 secs

     Computing kpt #:    66  of  1401
     total cpu time spent up to now is      141.4 secs

     Computing kpt #:    67  of  1401
     total cpu time spent up to now is      143.5 secs

     Computing kpt #:    68  of  1401
     total cpu time spent up to now is      145.6 secs

     Computing kpt #:    69  of  1401
     total cpu time spent up to now is      147.8 secs

     Computing kpt #:    70  of  1401
     total cpu time spent up to now is      149.6 secs

     Computing kpt #:    71  of  1401
     total cpu time spent up to now is      151.6 secs

     Computing kpt #:    72  of  1401
     total cpu time spent up to now is      153.4 secs

     Computing kpt #:    73  of  1401
     total cpu time spent up to now is      155.4 secs

     Computing kpt #:    74  of  1401
     total cpu time spent up to now is      158.0 secs

     Computing kpt #:    75  of  1401
     total cpu time spent up to now is      160.4 secs

     Computing kpt #:    76  of  1401
     total cpu time spent up to now is      162.7 secs

     Computing kpt #:    77  of  1401
     total cpu time spent up to now is      164.6 secs

     Computing kpt #:    78  of  1401
     total cpu time spent up to now is      166.3 secs

     Computing kpt #:    79  of  1401
     total cpu time spent up to now is      168.6 secs

     Computing kpt #:    80  of  1401
     total cpu time spent up to now is      170.4 secs

     Computing kpt #:    81  of  1401
     total cpu time spent up to now is      172.2 secs

     Computing kpt #:    82  of  1401
     total cpu time spent up to now is      174.0 secs

     Computing kpt #:    83  of  1401
     total cpu time spent up to now is      175.8 secs

     Computing kpt #:    84  of  1401
     total cpu time spent up to now is      177.6 secs

     Computing kpt #:    85  of  1401
     total cpu time spent up to now is      179.3 secs

     Computing kpt #:    86  of  1401
     total cpu time spent up to now is      181.2 secs

     Computing kpt #:    87  of  1401
     total cpu time spent up to now is      183.0 secs

     Computing kpt #:    88  of  1401
     total cpu time spent up to now is      184.8 secs

     Computing kpt #:    89  of  1401
     total cpu time spent up to now is      186.6 secs

     Computing kpt #:    90  of  1401
     total cpu time spent up to now is      188.4 secs

     Computing kpt #:    91  of  1401
     total cpu time spent up to now is      190.1 secs

     Computing kpt #:    92  of  1401
     total cpu time spent up to now is      191.9 secs

     Computing kpt #:    93  of  1401
     total cpu time spent up to now is      193.7 secs

     Computing kpt #:    94  of  1401
     total cpu time spent up to now is      195.5 secs

     Computing kpt #:    95  of  1401
     total cpu time spent up to now is      197.3 secs

     Computing kpt #:    96  of  1401
     total cpu time spent up to now is      199.4 secs

     Computing kpt #:    97  of  1401
     total cpu time spent up to now is      201.2 secs

     Computing kpt #:    98  of  1401
     total cpu time spent up to now is      202.9 secs

     Computing kpt #:    99  of  1401
     total cpu time spent up to now is      204.7 secs

     Computing kpt #:   100  of  1401
     total cpu time spent up to now is      206.6 secs

     Computing kpt #:   101  of  1401
     total cpu time spent up to now is      208.5 secs

     Computing kpt #:   102  of  1401
     total cpu time spent up to now is      210.2 secs

     Computing kpt #:   103  of  1401
     total cpu time spent up to now is      212.0 secs

     Computing kpt #:   104  of  1401
     total cpu time spent up to now is      213.8 secs

     Computing kpt #:   105  of  1401
     total cpu time spent up to now is      215.5 secs

     Computing kpt #:   106  of  1401
     total cpu time spent up to now is      217.3 secs

     Computing kpt #:   107  of  1401
     total cpu time spent up to now is      219.0 secs

     Computing kpt #:   108  of  1401
     total cpu time spent up to now is      220.7 secs

     Computing kpt #:   109  of  1401
     total cpu time spent up to now is      222.6 secs

     Computing kpt #:   110  of  1401
     total cpu time spent up to now is      224.3 secs

     Computing kpt #:   111  of  1401
     total cpu time spent up to now is      226.1 secs

     Computing kpt #:   112  of  1401
     total cpu time spent up to now is      228.0 secs

     Computing kpt #:   113  of  1401
     total cpu time spent up to now is      229.7 secs

     Computing kpt #:   114  of  1401
     total cpu time spent up to now is      231.4 secs

     Computing kpt #:   115  of  1401
     total cpu time spent up to now is      233.2 secs

     Computing kpt #:   116  of  1401
     total cpu time spent up to now is      234.9 secs

     Computing kpt #:   117  of  1401
     total cpu time spent up to now is      236.6 secs

     Computing kpt #:   118  of  1401
     total cpu time spent up to now is      238.3 secs

     Computing kpt #:   119  of  1401
     total cpu time spent up to now is      240.0 secs

     Computing kpt #:   120  of  1401
     total cpu time spent up to now is      241.8 secs

     Computing kpt #:   121  of  1401
     total cpu time spent up to now is      243.5 secs

     Computing kpt #:   122  of  1401
     total cpu time spent up to now is      245.3 secs

     Computing kpt #:   123  of  1401
     total cpu time spent up to now is      247.0 secs

     Computing kpt #:   124  of  1401
     total cpu time spent up to now is      248.8 secs

     Computing kpt #:   125  of  1401
     total cpu time spent up to now is      250.5 secs

     Computing kpt #:   126  of  1401
     total cpu time spent up to now is      252.3 secs

     Computing kpt #:   127  of  1401
     total cpu time spent up to now is      254.0 secs

     Computing kpt #:   128  of  1401
     total cpu time spent up to now is      255.7 secs

     Computing kpt #:   129  of  1401
     total cpu time spent up to now is      257.4 secs

     Computing kpt #:   130  of  1401
     total cpu time spent up to now is      263.0 secs

     Computing kpt #:   131  of  1401
     total cpu time spent up to now is      265.1 secs

     Computing kpt #:   132  of  1401
     total cpu time spent up to now is      267.3 secs

     Computing kpt #:   133  of  1401
     total cpu time spent up to now is      269.3 secs

     Computing kpt #:   134  of  1401
     total cpu time spent up to now is      271.0 secs

     Computing kpt #:   135  of  1401
     total cpu time spent up to now is      272.9 secs

     Computing kpt #:   136  of  1401
     total cpu time spent up to now is      274.9 secs

     Computing kpt #:   137  of  1401
     total cpu time spent up to now is      276.7 secs

     Computing kpt #:   138  of  1401
     total cpu time spent up to now is      278.9 secs

     Computing kpt #:   139  of  1401
     total cpu time spent up to now is      280.7 secs

     Computing kpt #:   140  of  1401
     total cpu time spent up to now is      282.6 secs

     Computing kpt #:   141  of  1401
     total cpu time spent up to now is      284.4 secs

     Computing kpt #:   142  of  1401
     total cpu time spent up to now is      286.2 secs

     Computing kpt #:   143  of  1401
     total cpu time spent up to now is      288.1 secs

     Computing kpt #:   144  of  1401
     total cpu time spent up to now is      289.8 secs

     Computing kpt #:   145  of  1401
     total cpu time spent up to now is      291.7 secs

     Computing kpt #:   146  of  1401
     total cpu time spent up to now is      293.4 secs

     Computing kpt #:   147  of  1401
     total cpu time spent up to now is      295.0 secs

     Computing kpt #:   148  of  1401
     total cpu time spent up to now is      296.7 secs

     Computing kpt #:   149  of  1401
     total cpu time spent up to now is      298.4 secs

     Computing kpt #:   150  of  1401
     total cpu time spent up to now is      300.2 secs

     Computing kpt #:   151  of  1401
     total cpu time spent up to now is      301.9 secs

     Computing kpt #:   152  of  1401
     total cpu time spent up to now is      303.8 secs

     Computing kpt #:   153  of  1401
     total cpu time spent up to now is      305.6 secs

     Computing kpt #:   154  of  1401
     total cpu time spent up to now is      307.5 secs

     Computing kpt #:   155  of  1401
     total cpu time spent up to now is      309.2 secs

     Computing kpt #:   156  of  1401
     total cpu time spent up to now is      311.0 secs

     Computing kpt #:   157  of  1401
     total cpu time spent up to now is      312.9 secs

     Computing kpt #:   158  of  1401
     total cpu time spent up to now is      314.7 secs

     Computing kpt #:   159  of  1401
     total cpu time spent up to now is      316.5 secs

     Computing kpt #:   160  of  1401
     total cpu time spent up to now is      318.9 secs

     Computing kpt #:   161  of  1401
     total cpu time spent up to now is      321.1 secs

     Computing kpt #:   162  of  1401
     total cpu time spent up to now is      323.0 secs

     Computing kpt #:   163  of  1401
     total cpu time spent up to now is      324.8 secs

     Computing kpt #:   164  of  1401
     total cpu time spent up to now is      326.6 secs

     Computing kpt #:   165  of  1401
     total cpu time spent up to now is      328.6 secs

     Computing kpt #:   166  of  1401
     total cpu time spent up to now is      330.6 secs

     Computing kpt #:   167  of  1401
     total cpu time spent up to now is      332.6 secs

     Computing kpt #:   168  of  1401
     total cpu time spent up to now is      334.4 secs

     Computing kpt #:   169  of  1401
     total cpu time spent up to now is      336.4 secs

     Computing kpt #:   170  of  1401
     total cpu time spent up to now is      338.2 secs

     Computing kpt #:   171  of  1401
     total cpu time spent up to now is      340.0 secs

     Computing kpt #:   172  of  1401
     total cpu time spent up to now is      341.8 secs

     Computing kpt #:   173  of  1401
     total cpu time spent up to now is      343.6 secs

     Computing kpt #:   174  of  1401
     total cpu time spent up to now is      345.5 secs

     Computing kpt #:   175  of  1401
     total cpu time spent up to now is      347.4 secs

     Computing kpt #:   176  of  1401
     total cpu time spent up to now is      349.2 secs

     Computing kpt #:   177  of  1401
     total cpu time spent up to now is      350.9 secs

     Computing kpt #:   178  of  1401
     total cpu time spent up to now is      352.7 secs

     Computing kpt #:   179  of  1401
     total cpu time spent up to now is      354.5 secs

     Computing kpt #:   180  of  1401
     total cpu time spent up to now is      356.3 secs

     Computing kpt #:   181  of  1401
     total cpu time spent up to now is      358.2 secs

     Computing kpt #:   182  of  1401
     total cpu time spent up to now is      360.0 secs

     Computing kpt #:   183  of  1401
     total cpu time spent up to now is      361.8 secs

     Computing kpt #:   184  of  1401
     total cpu time spent up to now is      363.8 secs

     Computing kpt #:   185  of  1401
     total cpu time spent up to now is      365.7 secs

     Computing kpt #:   186  of  1401
     total cpu time spent up to now is      367.8 secs

     Computing kpt #:   187  of  1401
     total cpu time spent up to now is      369.9 secs

     Computing kpt #:   188  of  1401
     total cpu time spent up to now is      371.7 secs

     Computing kpt #:   189  of  1401
     total cpu time spent up to now is      373.7 secs

     Computing kpt #:   190  of  1401
     total cpu time spent up to now is      375.7 secs

     Computing kpt #:   191  of  1401
     total cpu time spent up to now is      377.6 secs

     Computing kpt #:   192  of  1401
     total cpu time spent up to now is      380.1 secs

     Computing kpt #:   193  of  1401
     total cpu time spent up to now is      382.3 secs

     Computing kpt #:   194  of  1401
     total cpu time spent up to now is      384.9 secs

     Computing kpt #:   195  of  1401
     total cpu time spent up to now is      387.2 secs

     Computing kpt #:   196  of  1401
     total cpu time spent up to now is      389.2 secs

     Computing kpt #:   197  of  1401
     total cpu time spent up to now is      391.1 secs

     Computing kpt #:   198  of  1401
     total cpu time spent up to now is      392.9 secs

     Computing kpt #:   199  of  1401
     total cpu time spent up to now is      394.9 secs

     Computing kpt #:   200  of  1401
     total cpu time spent up to now is      396.9 secs

     Computing kpt #:   201  of  1401
     total cpu time spent up to now is      398.8 secs

     Computing kpt #:   202  of  1401
     total cpu time spent up to now is      401.0 secs

     Computing kpt #:   203  of  1401
     total cpu time spent up to now is      402.9 secs

     Computing kpt #:   204  of  1401
     total cpu time spent up to now is      405.0 secs

     Computing kpt #:   205  of  1401
     total cpu time spent up to now is      407.1 secs

     Computing kpt #:   206  of  1401
     total cpu time spent up to now is      409.3 secs

     Computing kpt #:   207  of  1401
     total cpu time spent up to now is      411.2 secs

     Computing kpt #:   208  of  1401
     total cpu time spent up to now is      413.3 secs

     Computing kpt #:   209  of  1401
     total cpu time spent up to now is      415.3 secs

     Computing kpt #:   210  of  1401
     total cpu time spent up to now is      417.7 secs

     Computing kpt #:   211  of  1401
     total cpu time spent up to now is      419.7 secs

     Computing kpt #:   212  of  1401
     total cpu time spent up to now is      421.9 secs

     Computing kpt #:   213  of  1401
     total cpu time spent up to now is      424.4 secs

     Computing kpt #:   214  of  1401
     total cpu time spent up to now is      426.8 secs

     Computing kpt #:   215  of  1401
     total cpu time spent up to now is      428.8 secs

     Computing kpt #:   216  of  1401
     total cpu time spent up to now is      430.7 secs

     Computing kpt #:   217  of  1401
     total cpu time spent up to now is      432.8 secs

     Computing kpt #:   218  of  1401
     total cpu time spent up to now is      434.8 secs

     Computing kpt #:   219  of  1401
     total cpu time spent up to now is      437.0 secs

     Computing kpt #:   220  of  1401
     total cpu time spent up to now is      439.8 secs

     Computing kpt #:   221  of  1401
     total cpu time spent up to now is      442.0 secs

     Computing kpt #:   222  of  1401
     total cpu time spent up to now is      444.1 secs

     Computing kpt #:   223  of  1401
     total cpu time spent up to now is      446.0 secs

     Computing kpt #:   224  of  1401
     total cpu time spent up to now is      448.0 secs

     Computing kpt #:   225  of  1401
     total cpu time spent up to now is      450.1 secs

     Computing kpt #:   226  of  1401
     total cpu time spent up to now is      452.1 secs

     Computing kpt #:   227  of  1401
     total cpu time spent up to now is      453.9 secs

     Computing kpt #:   228  of  1401
     total cpu time spent up to now is      455.9 secs

     Computing kpt #:   229  of  1401
     total cpu time spent up to now is      457.9 secs

     Computing kpt #:   230  of  1401
     total cpu time spent up to now is      460.0 secs

     Computing kpt #:   231  of  1401
     total cpu time spent up to now is      462.0 secs

     Computing kpt #:   232  of  1401
     total cpu time spent up to now is      464.1 secs

     Computing kpt #:   233  of  1401
     total cpu time spent up to now is      466.2 secs

     Computing kpt #:   234  of  1401
     total cpu time spent up to now is      468.2 secs

     Computing kpt #:   235  of  1401
     total cpu time spent up to now is      470.3 secs

     Computing kpt #:   236  of  1401
     total cpu time spent up to now is      472.3 secs

     Computing kpt #:   237  of  1401
     total cpu time spent up to now is      474.2 secs

     Computing kpt #:   238  of  1401
     total cpu time spent up to now is      476.2 secs

     Computing kpt #:   239  of  1401
     total cpu time spent up to now is      478.2 secs

     Computing kpt #:   240  of  1401
     total cpu time spent up to now is      480.3 secs

     Computing kpt #:   241  of  1401
     total cpu time spent up to now is      482.4 secs

     Computing kpt #:   242  of  1401
     total cpu time spent up to now is      484.4 secs

     Computing kpt #:   243  of  1401
     total cpu time spent up to now is      486.5 secs

     Computing kpt #:   244  of  1401
     total cpu time spent up to now is      488.5 secs

     Computing kpt #:   245  of  1401
     total cpu time spent up to now is      490.5 secs

     Computing kpt #:   246  of  1401
     total cpu time spent up to now is      492.6 secs

     Computing kpt #:   247  of  1401
     total cpu time spent up to now is      494.5 secs

     Computing kpt #:   248  of  1401
     total cpu time spent up to now is      496.6 secs

     Computing kpt #:   249  of  1401
     total cpu time spent up to now is      498.9 secs

     Computing kpt #:   250  of  1401
     total cpu time spent up to now is      501.2 secs

     Computing kpt #:   251  of  1401
     total cpu time spent up to now is      503.4 secs

     Computing kpt #:   252  of  1401
     total cpu time spent up to now is      505.5 secs

     Computing kpt #:   253  of  1401
     total cpu time spent up to now is      507.6 secs

     Computing kpt #:   254  of  1401
     total cpu time spent up to now is      509.8 secs

     Computing kpt #:   255  of  1401
     total cpu time spent up to now is      511.9 secs

     Computing kpt #:   256  of  1401
     total cpu time spent up to now is      514.1 secs

     Computing kpt #:   257  of  1401
     total cpu time spent up to now is      516.3 secs

     Computing kpt #:   258  of  1401
     total cpu time spent up to now is      518.4 secs

     Computing kpt #:   259  of  1401
     total cpu time spent up to now is      520.4 secs

     Computing kpt #:   260  of  1401
     total cpu time spent up to now is      522.5 secs

     Computing kpt #:   261  of  1401
     total cpu time spent up to now is      524.7 secs

     Computing kpt #:   262  of  1401
     total cpu time spent up to now is      526.7 secs

     Computing kpt #:   263  of  1401
     total cpu time spent up to now is      528.8 secs

     Computing kpt #:   264  of  1401
     total cpu time spent up to now is      530.8 secs

     Computing kpt #:   265  of  1401
     total cpu time spent up to now is      533.0 secs

     Computing kpt #:   266  of  1401
     total cpu time spent up to now is      535.2 secs

     Computing kpt #:   267  of  1401
     total cpu time spent up to now is      537.4 secs

     Computing kpt #:   268  of  1401
     total cpu time spent up to now is      539.7 secs

     Computing kpt #:   269  of  1401
     total cpu time spent up to now is      541.8 secs

     Computing kpt #:   270  of  1401
     total cpu time spent up to now is      543.9 secs

     Computing kpt #:   271  of  1401
     total cpu time spent up to now is      546.0 secs

     Computing kpt #:   272  of  1401
     total cpu time spent up to now is      548.2 secs

     Computing kpt #:   273  of  1401
     total cpu time spent up to now is      550.2 secs

     Computing kpt #:   274  of  1401
     total cpu time spent up to now is      552.4 secs

     Computing kpt #:   275  of  1401
     total cpu time spent up to now is      554.9 secs

     Computing kpt #:   276  of  1401
     total cpu time spent up to now is      557.0 secs

     Computing kpt #:   277  of  1401
     total cpu time spent up to now is      560.9 secs

     Computing kpt #:   278  of  1401
     total cpu time spent up to now is      563.2 secs

     Computing kpt #:   279  of  1401
     total cpu time spent up to now is      565.6 secs

     Computing kpt #:   280  of  1401
     total cpu time spent up to now is      567.8 secs

     Computing kpt #:   281  of  1401
     total cpu time spent up to now is      570.2 secs

     Computing kpt #:   282  of  1401
     total cpu time spent up to now is      573.0 secs

     Computing kpt #:   283  of  1401
     total cpu time spent up to now is      575.2 secs

     Computing kpt #:   284  of  1401
     total cpu time spent up to now is      577.3 secs

     Computing kpt #:   285  of  1401
     total cpu time spent up to now is      579.5 secs

     Computing kpt #:   286  of  1401
     total cpu time spent up to now is      581.6 secs

     Computing kpt #:   287  of  1401
     total cpu time spent up to now is      583.9 secs

     Computing kpt #:   288  of  1401
     total cpu time spent up to now is      585.9 secs

     Computing kpt #:   289  of  1401
     total cpu time spent up to now is      587.8 secs

     Computing kpt #:   290  of  1401
     total cpu time spent up to now is      589.8 secs

     Computing kpt #:   291  of  1401
     total cpu time spent up to now is      591.9 secs

     Computing kpt #:   292  of  1401
     total cpu time spent up to now is      593.8 secs

     Computing kpt #:   293  of  1401
     total cpu time spent up to now is      595.7 secs

     Computing kpt #:   294  of  1401
     total cpu time spent up to now is      597.7 secs

     Computing kpt #:   295  of  1401
     total cpu time spent up to now is      599.9 secs

     Computing kpt #:   296  of  1401
     total cpu time spent up to now is      601.9 secs

     Computing kpt #:   297  of  1401
     total cpu time spent up to now is      604.3 secs

     Computing kpt #:   298  of  1401
     total cpu time spent up to now is      606.3 secs

     Computing kpt #:   299  of  1401
     total cpu time spent up to now is      608.4 secs

     Computing kpt #:   300  of  1401
     total cpu time spent up to now is      610.4 secs

     Computing kpt #:   301  of  1401
     total cpu time spent up to now is      612.3 secs

     Computing kpt #:   302  of  1401
     total cpu time spent up to now is      614.3 secs

     Computing kpt #:   303  of  1401
     total cpu time spent up to now is      616.3 secs

     Computing kpt #:   304  of  1401
     total cpu time spent up to now is      618.8 secs

     Computing kpt #:   305  of  1401
     total cpu time spent up to now is      621.2 secs

     Computing kpt #:   306  of  1401
     total cpu time spent up to now is      623.2 secs

     Computing kpt #:   307  of  1401
     total cpu time spent up to now is      625.0 secs

     Computing kpt #:   308  of  1401
     total cpu time spent up to now is      627.0 secs

     Computing kpt #:   309  of  1401
     total cpu time spent up to now is      628.8 secs

     Computing kpt #:   310  of  1401
     total cpu time spent up to now is      630.7 secs

     Computing kpt #:   311  of  1401
     total cpu time spent up to now is      632.7 secs

     Computing kpt #:   312  of  1401
     total cpu time spent up to now is      634.4 secs

     Computing kpt #:   313  of  1401
     total cpu time spent up to now is      636.5 secs

     Computing kpt #:   314  of  1401
     total cpu time spent up to now is      638.7 secs

     Computing kpt #:   315  of  1401
     total cpu time spent up to now is      640.7 secs

     Computing kpt #:   316  of  1401
     total cpu time spent up to now is      642.5 secs

     Computing kpt #:   317  of  1401
     total cpu time spent up to now is      644.5 secs

     Computing kpt #:   318  of  1401
     total cpu time spent up to now is      646.2 secs

     Computing kpt #:   319  of  1401
     total cpu time spent up to now is      648.4 secs

     Computing kpt #:   320  of  1401
     total cpu time spent up to now is      651.0 secs

     Computing kpt #:   321  of  1401
     total cpu time spent up to now is      652.9 secs

     Computing kpt #:   322  of  1401
     c_bands:  3 eigenvalues not converged
     total cpu time spent up to now is      655.4 secs

     Computing kpt #:   323  of  1401
     c_bands:  3 eigenvalues not converged
     total cpu time spent up to now is      657.8 secs

     Computing kpt #:   324  of  1401
     c_bands:  3 eigenvalues not converged
     total cpu time spent up to now is      660.1 secs

     Computing kpt #:   325  of  1401
     c_bands:  3 eigenvalues not converged
     total cpu time spent up to now is      662.5 secs

     Computing kpt #:   326  of  1401
     c_bands:  3 eigenvalues not converged
     total cpu time spent up to now is      664.9 secs

     Computing kpt #:   327  of  1401
     c_bands:  3 eigenvalues not converged
     total cpu time spent up to now is      667.4 secs

     Computing kpt #:   328  of  1401
     c_bands:  3 eigenvalues not converged
     total cpu time spent up to now is      669.9 secs

     Computing kpt #:   329  of  1401
     c_bands:  3 eigenvalues not converged
     total cpu time spent up to now is      672.3 secs

     Computing kpt #:   330  of  1401
     c_bands:  3 eigenvalues not converged
     total cpu time spent up to now is      674.7 secs

     Computing kpt #:   331  of  1401
     c_bands:  3 eigenvalues not converged
     total cpu time spent up to now is      677.0 secs

     Computing kpt #:   332  of  1401
     c_bands:  3 eigenvalues not converged
     total cpu time spent up to now is      679.8 secs

     Computing kpt #:   333  of  1401
     c_bands:  3 eigenvalues not converged
     total cpu time spent up to now is      682.3 secs

     Computing kpt #:   334  of  1401
     c_bands:  3 eigenvalues not converged
     total cpu time spent up to now is      684.7 secs

     Computing kpt #:   335  of  1401
     c_bands:  3 eigenvalues not converged
     total cpu time spent up to now is      687.2 secs

     Computing kpt #:   336  of  1401
     c_bands:  3 eigenvalues not converged
     total cpu time spent up to now is      689.6 secs

     Computing kpt #:   337  of  1401
     c_bands:  3 eigenvalues not converged
     total cpu time spent up to now is      692.0 secs

     Computing kpt #:   338  of  1401
     c_bands:  3 eigenvalues not converged
     total cpu time spent up to now is      694.4 secs

     Computing kpt #:   339  of  1401
     c_bands:  3 eigenvalues not converged
     total cpu time spent up to now is      696.8 secs

     Computing kpt #:   340  of  1401
     c_bands:  3 eigenvalues not converged
     total cpu time spent up to now is      699.2 secs

     Computing kpt #:   341  of  1401
     c_bands:  3 eigenvalues not converged
     total cpu time spent up to now is      701.5 secs

     Computing kpt #:   342  of  1401
     c_bands:  3 eigenvalues not converged
     total cpu time spent up to now is      704.0 secs

     Computing kpt #:   343  of  1401
     c_bands:  3 eigenvalues not converged
     total cpu time spent up to now is      706.4 secs

     Computing kpt #:   344  of  1401
     c_bands:  3 eigenvalues not converged
     total cpu time spent up to now is      708.8 secs

     Computing kpt #:   345  of  1401
     c_bands:  3 eigenvalues not converged
     total cpu time spent up to now is      711.2 secs

     Computing kpt #:   346  of  1401
     c_bands:  3 eigenvalues not converged
     total cpu time spent up to now is      713.6 secs

     Computing kpt #:   347  of  1401
     c_bands:  3 eigenvalues not converged
     total cpu time spent up to now is      716.2 secs

     Computing kpt #:   348  of  1401
     c_bands:  2 eigenvalues not converged
     total cpu time spent up to now is      718.6 secs

     Computing kpt #:   349  of  1401
     c_bands:  3 eigenvalues not converged
     total cpu time spent up to now is      721.5 secs

     Computing kpt #:   350  of  1401
     c_bands:  3 eigenvalues not converged
     total cpu time spent up to now is      723.9 secs

     Computing kpt #:   351  of  1401
     c_bands:  2 eigenvalues not converged
     total cpu time spent up to now is      726.2 secs

     Computing kpt #:   352  of  1401
     c_bands:  2 eigenvalues not converged
     total cpu time spent up to now is      728.7 secs

     Computing kpt #:   353  of  1401
     c_bands:  3 eigenvalues not converged
     total cpu time spent up to now is      731.1 secs

     Computing kpt #:   354  of  1401
     c_bands:  2 eigenvalues not converged
     total cpu time spent up to now is      733.5 secs

     Computing kpt #:   355  of  1401
     c_bands:  2 eigenvalues not converged
     total cpu time spent up to now is      735.9 secs

     Computing kpt #:   356  of  1401
     c_bands:  1 eigenvalues not converged
     total cpu time spent up to now is      738.8 secs

     Computing kpt #:   357  of  1401
     c_bands:  1 eigenvalues not converged
     total cpu time spent up to now is      741.5 secs

     Computing kpt #:   358  of  1401
     c_bands:  1 eigenvalues not converged
     total cpu time spent up to now is      743.9 secs

     Computing kpt #:   359  of  1401
     c_bands:  2 eigenvalues not converged
     total cpu time spent up to now is      746.3 secs

     Computing kpt #:   360  of  1401
     c_bands:  1 eigenvalues not converged
     total cpu time spent up to now is      748.7 secs

     Computing kpt #:   361  of  1401
     c_bands:  1 eigenvalues not converged
     total cpu time spent up to now is      751.2 secs

     Computing kpt #:   362  of  1401
     c_bands:  1 eigenvalues not converged
     total cpu time spent up to now is      753.5 secs

     Computing kpt #:   363  of  1401
     c_bands:  1 eigenvalues not converged
     total cpu time spent up to now is      756.0 secs

     Computing kpt #:   364  of  1401
     c_bands:  1 eigenvalues not converged
     total cpu time spent up to now is      758.6 secs

     Computing kpt #:   365  of  1401
     c_bands:  3 eigenvalues not converged
     total cpu time spent up to now is      761.1 secs

     Computing kpt #:   366  of  1401
     c_bands:  1 eigenvalues not converged
     total cpu time spent up to now is      763.4 secs

     Computing kpt #:   367  of  1401
     c_bands:  1 eigenvalues not converged
     total cpu time spent up to now is      765.7 secs

     Computing kpt #:   368  of  1401
     c_bands:  1 eigenvalues not converged
     total cpu time spent up to now is      768.3 secs

     Computing kpt #:   369  of  1401
     c_bands:  1 eigenvalues not converged
     total cpu time spent up to now is      770.7 secs

     Computing kpt #:   370  of  1401
     c_bands:  1 eigenvalues not converged
     total cpu time spent up to now is      773.1 secs

     Computing kpt #:   371  of  1401
     c_bands:  1 eigenvalues not converged
     total cpu time spent up to now is      775.9 secs

     Computing kpt #:   372  of  1401
     c_bands:  1 eigenvalues not converged
     total cpu time spent up to now is      778.3 secs

     Computing kpt #:   373  of  1401
     c_bands:  1 eigenvalues not converged
     total cpu time spent up to now is      780.7 secs

     Computing kpt #:   374  of  1401
     total cpu time spent up to now is      783.1 secs

     Computing kpt #:   375  of  1401
     total cpu time spent up to now is      786.0 secs

     Computing kpt #:   376  of  1401
     c_bands:  1 eigenvalues not converged
     total cpu time spent up to now is      788.5 secs

     Computing kpt #:   377  of  1401
     c_bands:  1 eigenvalues not converged
     total cpu time spent up to now is      791.0 secs

     Computing kpt #:   378  of  1401
     total cpu time spent up to now is      793.5 secs

     Computing kpt #:   379  of  1401
     total cpu time spent up to now is      795.8 secs

     Computing kpt #:   380  of  1401
     c_bands:  1 eigenvalues not converged
     total cpu time spent up to now is      798.9 secs

     Computing kpt #:   381  of  1401
     c_bands:  1 eigenvalues not converged
     total cpu time spent up to now is      802.5 secs

     Computing kpt #:   382  of  1401
     c_bands:  1 eigenvalues not converged
     total cpu time spent up to now is      805.2 secs

     Computing kpt #:   383  of  1401
     total cpu time spent up to now is      807.7 secs

     Computing kpt #:   384  of  1401
     total cpu time spent up to now is      810.0 secs

     Computing kpt #:   385  of  1401
     c_bands:  1 eigenvalues not converged
     total cpu time spent up to now is      812.4 secs

     Computing kpt #:   386  of  1401
     c_bands:  1 eigenvalues not converged
     total cpu time spent up to now is      814.8 secs

     Computing kpt #:   387  of  1401
     c_bands:  1 eigenvalues not converged
     total cpu time spent up to now is      817.2 secs

     Computing kpt #:   388  of  1401
     total cpu time spent up to now is      819.4 secs

     Computing kpt #:   389  of  1401
     c_bands:  1 eigenvalues not converged
     total cpu time spent up to now is      822.1 secs

     Computing kpt #:   390  of  1401
     total cpu time spent up to now is      824.5 secs

     Computing kpt #:   391  of  1401
     c_bands:  1 eigenvalues not converged
     total cpu time spent up to now is      827.0 secs

     Computing kpt #:   392  of  1401
     total cpu time spent up to now is      829.5 secs

     Computing kpt #:   393  of  1401
     c_bands:  1 eigenvalues not converged
     total cpu time spent up to now is      831.8 secs

     Computing kpt #:   394  of  1401
     total cpu time spent up to now is      834.2 secs

     Computing kpt #:   395  of  1401
     total cpu time spent up to now is      836.5 secs

     Computing kpt #:   396  of  1401
     total cpu time spent up to now is      838.8 secs

     Computing kpt #:   397  of  1401
     total cpu time spent up to now is      841.1 secs

     Computing kpt #:   398  of  1401
     total cpu time spent up to now is      843.3 secs

     Computing kpt #:   399  of  1401
     total cpu time spent up to now is      845.4 secs

     Computing kpt #:   400  of  1401
     total cpu time spent up to now is      847.7 secs

     Computing kpt #:   401  of  1401
     total cpu time spent up to now is      850.0 secs

     Computing kpt #:   402  of  1401
     total cpu time spent up to now is      852.1 secs

     Computing kpt #:   403  of  1401
     total cpu time spent up to now is      854.1 secs

     Computing kpt #:   404  of  1401
     total cpu time spent up to now is      856.4 secs

     Computing kpt #:   405  of  1401
     total cpu time spent up to now is      859.2 secs

     Computing kpt #:   406  of  1401
     total cpu time spent up to now is      862.2 secs

     Computing kpt #:   407  of  1401
     total cpu time spent up to now is      864.5 secs

     Computing kpt #:   408  of  1401
     total cpu time spent up to now is      866.7 secs

     Computing kpt #:   409  of  1401
     total cpu time spent up to now is      868.9 secs

     Computing kpt #:   410  of  1401
     c_bands:  1 eigenvalues not converged
     total cpu time spent up to now is      871.1 secs

     Computing kpt #:   411  of  1401
     total cpu time spent up to now is      873.3 secs

     Computing kpt #:   412  of  1401
     total cpu time spent up to now is      875.7 secs

     Computing kpt #:   413  of  1401
     total cpu time spent up to now is      878.0 secs

     Computing kpt #:   414  of  1401
     total cpu time spent up to now is      880.2 secs

     Computing kpt #:   415  of  1401
     total cpu time spent up to now is      882.4 secs

     Computing kpt #:   416  of  1401
     c_bands:  1 eigenvalues not converged
     total cpu time spent up to now is      884.6 secs

     Computing kpt #:   417  of  1401
     c_bands:  1 eigenvalues not converged
     total cpu time spent up to now is      886.7 secs

     Computing kpt #:   418  of  1401
     c_bands:  1 eigenvalues not converged
     total cpu time spent up to now is      888.9 secs

     Computing kpt #:   419  of  1401
     c_bands:  1 eigenvalues not converged
     total cpu time spent up to now is      891.1 secs

     Computing kpt #:   420  of  1401
     c_bands:  1 eigenvalues not converged
     total cpu time spent up to now is      893.2 secs

     Computing kpt #:   421  of  1401
     c_bands:  1 eigenvalues not converged
     total cpu time spent up to now is      895.4 secs

     Computing kpt #:   422  of  1401
     c_bands:  1 eigenvalues not converged
     total cpu time spent up to now is      897.6 secs

     Computing kpt #:   423  of  1401
     c_bands:  1 eigenvalues not converged
     total cpu time spent up to now is      899.8 secs

     Computing kpt #:   424  of  1401
     c_bands:  1 eigenvalues not converged
     total cpu time spent up to now is      902.0 secs

     Computing kpt #:   425  of  1401
     c_bands:  1 eigenvalues not converged
     total cpu time spent up to now is      904.2 secs

     Computing kpt #:   426  of  1401
     c_bands:  1 eigenvalues not converged
     total cpu time spent up to now is      906.4 secs

     Computing kpt #:   427  of  1401
     c_bands:  1 eigenvalues not converged
     total cpu time spent up to now is      908.8 secs

     Computing kpt #:   428  of  1401
     total cpu time spent up to now is      911.0 secs

     Computing kpt #:   429  of  1401
     total cpu time spent up to now is      913.2 secs

     Computing kpt #:   430  of  1401
     total cpu time spent up to now is      915.4 secs

     Computing kpt #:   431  of  1401
     total cpu time spent up to now is      917.6 secs

     Computing kpt #:   432  of  1401
     total cpu time spent up to now is      920.3 secs

     Computing kpt #:   433  of  1401
     total cpu time spent up to now is      922.4 secs

     Computing kpt #:   434  of  1401
     total cpu time spent up to now is      924.6 secs

     Computing kpt #:   435  of  1401
     total cpu time spent up to now is      926.8 secs

     Computing kpt #:   436  of  1401
     total cpu time spent up to now is      928.9 secs

     Computing kpt #:   437  of  1401
     total cpu time spent up to now is      931.1 secs

     Computing kpt #:   438  of  1401
     total cpu time spent up to now is      933.5 secs

     Computing kpt #:   439  of  1401
     total cpu time spent up to now is      935.9 secs

     Computing kpt #:   440  of  1401
     total cpu time spent up to now is      938.6 secs

     Computing kpt #:   441  of  1401
     total cpu time spent up to now is      941.3 secs

     Computing kpt #:   442  of  1401
     total cpu time spent up to now is      943.8 secs

     Computing kpt #:   443  of  1401
     total cpu time spent up to now is      946.3 secs

     Computing kpt #:   444  of  1401
     total cpu time spent up to now is      948.6 secs

     Computing kpt #:   445  of  1401
     total cpu time spent up to now is      950.9 secs

     Computing kpt #:   446  of  1401
     total cpu time spent up to now is      953.1 secs

     Computing kpt #:   447  of  1401
     total cpu time spent up to now is      955.5 secs

     Computing kpt #:   448  of  1401
     total cpu time spent up to now is      958.4 secs

     Computing kpt #:   449  of  1401
     total cpu time spent up to now is      960.8 secs

     Computing kpt #:   450  of  1401
     total cpu time spent up to now is      963.1 secs

     Computing kpt #:   451  of  1401
     total cpu time spent up to now is      965.2 secs

     Computing kpt #:   452  of  1401
     total cpu time spent up to now is      967.6 secs

     Computing kpt #:   453  of  1401
     total cpu time spent up to now is      970.1 secs

     Computing kpt #:   454  of  1401
     total cpu time spent up to now is      972.3 secs

     Computing kpt #:   455  of  1401
     total cpu time spent up to now is      974.7 secs

     Computing kpt #:   456  of  1401
     total cpu time spent up to now is      977.1 secs

     Computing kpt #:   457  of  1401
     total cpu time spent up to now is      979.9 secs

     Computing kpt #:   458  of  1401
     total cpu time spent up to now is      982.4 secs

     Computing kpt #:   459  of  1401
     total cpu time spent up to now is      984.7 secs

     Computing kpt #:   460  of  1401
     total cpu time spent up to now is      987.3 secs

     Computing kpt #:   461  of  1401
     total cpu time spent up to now is      990.1 secs

     Computing kpt #:   462  of  1401
     total cpu time spent up to now is      992.4 secs

     Computing kpt #:   463  of  1401
     total cpu time spent up to now is      994.7 secs

     Computing kpt #:   464  of  1401
     total cpu time spent up to now is      996.9 secs

     Computing kpt #:   465  of  1401
     total cpu time spent up to now is      998.9 secs

     Computing kpt #:   466  of  1401
     total cpu time spent up to now is     1001.1 secs

     Computing kpt #:   467  of  1401
     total cpu time spent up to now is     1003.2 secs

     Computing kpt #:   468  of  1401
     c_bands:  1 eigenvalues not converged
     total cpu time spent up to now is     1005.6 secs

     Computing kpt #:   469  of  1401
     total cpu time spent up to now is     1008.2 secs

     Computing kpt #:   470  of  1401
     total cpu time spent up to now is     1010.5 secs

     Computing kpt #:   471  of  1401
     total cpu time spent up to now is     1012.5 secs

     Computing kpt #:   472  of  1401
     total cpu time spent up to now is     1014.7 secs

     Computing kpt #:   473  of  1401
     total cpu time spent up to now is     1016.9 secs

     Computing kpt #:   474  of  1401
     total cpu time spent up to now is     1019.1 secs

     Computing kpt #:   475  of  1401
     total cpu time spent up to now is     1021.1 secs

     Computing kpt #:   476  of  1401
     total cpu time spent up to now is     1023.3 secs

     Computing kpt #:   477  of  1401
     total cpu time spent up to now is     1025.5 secs

     Computing kpt #:   478  of  1401
     total cpu time spent up to now is     1027.6 secs

     Computing kpt #:   479  of  1401
     total cpu time spent up to now is     1030.1 secs

     Computing kpt #:   480  of  1401
     total cpu time spent up to now is     1032.3 secs

     Computing kpt #:   481  of  1401
     total cpu time spent up to now is     1034.3 secs

     Computing kpt #:   482  of  1401
     total cpu time spent up to now is     1036.4 secs

     Computing kpt #:   483  of  1401
     total cpu time spent up to now is     1039.0 secs

     Computing kpt #:   484  of  1401
     total cpu time spent up to now is     1041.2 secs

     Computing kpt #:   485  of  1401
     total cpu time spent up to now is     1043.2 secs

     Computing kpt #:   486  of  1401
     total cpu time spent up to now is     1045.4 secs

     Computing kpt #:   487  of  1401
     total cpu time spent up to now is     1047.4 secs

     Computing kpt #:   488  of  1401
     total cpu time spent up to now is     1049.4 secs

     Computing kpt #:   489  of  1401
     total cpu time spent up to now is     1051.5 secs

     Computing kpt #:   490  of  1401
     total cpu time spent up to now is     1053.8 secs

     Computing kpt #:   491  of  1401
     total cpu time spent up to now is     1056.0 secs

     Computing kpt #:   492  of  1401
     total cpu time spent up to now is     1058.0 secs

     Computing kpt #:   493  of  1401
     total cpu time spent up to now is     1060.0 secs

     Computing kpt #:   494  of  1401
     total cpu time spent up to now is     1062.1 secs

     Computing kpt #:   495  of  1401
     total cpu time spent up to now is     1064.3 secs

     Computing kpt #:   496  of  1401
     total cpu time spent up to now is     1066.5 secs

     Computing kpt #:   497  of  1401
     total cpu time spent up to now is     1068.6 secs

     Computing kpt #:   498  of  1401
     total cpu time spent up to now is     1070.9 secs

     Computing kpt #:   499  of  1401
     total cpu time spent up to now is     1073.1 secs

     Computing kpt #:   500  of  1401
     total cpu time spent up to now is     1075.0 secs

     Computing kpt #:   501  of  1401
     total cpu time spent up to now is     1077.3 secs

     Computing kpt #:   502  of  1401
     total cpu time spent up to now is     1079.6 secs

     Computing kpt #:   503  of  1401
     total cpu time spent up to now is     1081.8 secs

     Computing kpt #:   504  of  1401
     total cpu time spent up to now is     1084.0 secs

     Computing kpt #:   505  of  1401
     total cpu time spent up to now is     1086.2 secs

     Computing kpt #:   506  of  1401
     total cpu time spent up to now is     1088.5 secs

     Computing kpt #:   507  of  1401
     total cpu time spent up to now is     1090.8 secs

     Computing kpt #:   508  of  1401
     total cpu time spent up to now is     1092.9 secs

     Computing kpt #:   509  of  1401
     total cpu time spent up to now is     1095.0 secs

     Computing kpt #:   510  of  1401
     total cpu time spent up to now is     1097.0 secs

     Computing kpt #:   511  of  1401
     c_bands:  1 eigenvalues not converged
     total cpu time spent up to now is     1099.6 secs

     Computing kpt #:   512  of  1401
     total cpu time spent up to now is     1102.0 secs

     Computing kpt #:   513  of  1401
     total cpu time spent up to now is     1104.0 secs

     Computing kpt #:   514  of  1401
     total cpu time spent up to now is     1105.9 secs

     Computing kpt #:   515  of  1401
     total cpu time spent up to now is     1108.0 secs

     Computing kpt #:   516  of  1401
     total cpu time spent up to now is     1110.1 secs

     Computing kpt #:   517  of  1401
     total cpu time spent up to now is     1112.2 secs

     Computing kpt #:   518  of  1401
     total cpu time spent up to now is     1114.1 secs

     Computing kpt #:   519  of  1401
     total cpu time spent up to now is     1116.1 secs

     Computing kpt #:   520  of  1401
     total cpu time spent up to now is     1118.2 secs

     Computing kpt #:   521  of  1401
     total cpu time spent up to now is     1120.1 secs

     Computing kpt #:   522  of  1401
     total cpu time spent up to now is     1122.2 secs

     Computing kpt #:   523  of  1401
     total cpu time spent up to now is     1124.3 secs

     Computing kpt #:   524  of  1401
     total cpu time spent up to now is     1126.3 secs

     Computing kpt #:   525  of  1401
     c_bands:  1 eigenvalues not converged
     total cpu time spent up to now is     1128.4 secs

     Computing kpt #:   526  of  1401
     total cpu time spent up to now is     1130.4 secs

     Computing kpt #:   527  of  1401
     total cpu time spent up to now is     1132.3 secs

     Computing kpt #:   528  of  1401
     total cpu time spent up to now is     1134.3 secs

     Computing kpt #:   529  of  1401
     total cpu time spent up to now is     1136.3 secs

     Computing kpt #:   530  of  1401
     total cpu time spent up to now is     1138.3 secs

     Computing kpt #:   531  of  1401
     total cpu time spent up to now is     1140.2 secs

     Computing kpt #:   532  of  1401
     total cpu time spent up to now is     1142.2 secs

     Computing kpt #:   533  of  1401
     c_bands:  1 eigenvalues not converged
     total cpu time spent up to now is     1144.2 secs

     Computing kpt #:   534  of  1401
     total cpu time spent up to now is     1146.3 secs

     Computing kpt #:   535  of  1401
     total cpu time spent up to now is     1148.3 secs

     Computing kpt #:   536  of  1401
     c_bands:  1 eigenvalues not converged
     total cpu time spent up to now is     1150.4 secs

     Computing kpt #:   537  of  1401
     total cpu time spent up to now is     1152.4 secs

     Computing kpt #:   538  of  1401
     c_bands:  1 eigenvalues not converged
     total cpu time spent up to now is     1154.5 secs

     Computing kpt #:   539  of  1401
     total cpu time spent up to now is     1156.4 secs

     Computing kpt #:   540  of  1401
     c_bands:  1 eigenvalues not converged
     total cpu time spent up to now is     1159.5 secs

     Computing kpt #:   541  of  1401
     c_bands:  1 eigenvalues not converged
     total cpu time spent up to now is     1161.9 secs

     Computing kpt #:   542  of  1401
     c_bands:  1 eigenvalues not converged
     total cpu time spent up to now is     1163.9 secs

     Computing kpt #:   543  of  1401
     total cpu time spent up to now is     1165.7 secs

     Computing kpt #:   544  of  1401
     total cpu time spent up to now is     1167.7 secs

     Computing kpt #:   545  of  1401
     c_bands:  1 eigenvalues not converged
     total cpu time spent up to now is     1169.8 secs

     Computing kpt #:   546  of  1401
     total cpu time spent up to now is     1171.9 secs

     Computing kpt #:   547  of  1401
     c_bands:  1 eigenvalues not converged
     total cpu time spent up to now is     1173.9 secs

     Computing kpt #:   548  of  1401
     c_bands:  1 eigenvalues not converged
     total cpu time spent up to now is     1176.0 secs

     Computing kpt #:   549  of  1401
     c_bands:  1 eigenvalues not converged
     total cpu time spent up to now is     1178.4 secs

     Computing kpt #:   550  of  1401
     c_bands:  1 eigenvalues not converged
     total cpu time spent up to now is     1180.5 secs

     Computing kpt #:   551  of  1401
     c_bands:  1 eigenvalues not converged
     total cpu time spent up to now is     1182.6 secs

     Computing kpt #:   552  of  1401
     c_bands:  1 eigenvalues not converged
     total cpu time spent up to now is     1184.5 secs

     Computing kpt #:   553  of  1401
     c_bands:  1 eigenvalues not converged
     total cpu time spent up to now is     1186.6 secs

     Computing kpt #:   554  of  1401
     c_bands:  1 eigenvalues not converged
     total cpu time spent up to now is     1188.6 secs

     Computing kpt #:   555  of  1401
     c_bands:  1 eigenvalues not converged
     total cpu time spent up to now is     1190.7 secs

     Computing kpt #:   556  of  1401
     c_bands:  1 eigenvalues not converged
     total cpu time spent up to now is     1192.7 secs

     Computing kpt #:   557  of  1401
     c_bands:  1 eigenvalues not converged
     total cpu time spent up to now is     1194.7 secs

     Computing kpt #:   558  of  1401
     c_bands:  1 eigenvalues not converged
     total cpu time spent up to now is     1196.8 secs

     Computing kpt #:   559  of  1401
     c_bands:  1 eigenvalues not converged
     total cpu time spent up to now is     1198.8 secs

     Computing kpt #:   560  of  1401
     c_bands:  1 eigenvalues not converged
     total cpu time spent up to now is     1201.0 secs

     Computing kpt #:   561  of  1401
     c_bands:  1 eigenvalues not converged
     total cpu time spent up to now is     1203.1 secs

     Computing kpt #:   562  of  1401
     c_bands:  1 eigenvalues not converged
     total cpu time spent up to now is     1205.1 secs

     Computing kpt #:   563  of  1401
     c_bands:  1 eigenvalues not converged
     total cpu time spent up to now is     1207.1 secs

     Computing kpt #:   564  of  1401
     c_bands:  1 eigenvalues not converged
     total cpu time spent up to now is     1209.1 secs

     Computing kpt #:   565  of  1401
     c_bands:  1 eigenvalues not converged
     total cpu time spent up to now is     1211.1 secs

     Computing kpt #:   566  of  1401
     c_bands:  1 eigenvalues not converged
     total cpu time spent up to now is     1213.1 secs

     Computing kpt #:   567  of  1401
     c_bands:  1 eigenvalues not converged
     total cpu time spent up to now is     1215.0 secs

     Computing kpt #:   568  of  1401
     c_bands:  1 eigenvalues not converged
     total cpu time spent up to now is     1217.0 secs

     Computing kpt #:   569  of  1401
     c_bands:  1 eigenvalues not converged
     total cpu time spent up to now is     1219.5 secs

     Computing kpt #:   570  of  1401
     c_bands:  1 eigenvalues not converged
     total cpu time spent up to now is     1221.6 secs

     Computing kpt #:   571  of  1401
     c_bands:  1 eigenvalues not converged
     total cpu time spent up to now is     1223.6 secs

     Computing kpt #:   572  of  1401
     c_bands:  1 eigenvalues not converged
     total cpu time spent up to now is     1225.6 secs

     Computing kpt #:   573  of  1401
     c_bands:  1 eigenvalues not converged
     total cpu time spent up to now is     1227.6 secs

     Computing kpt #:   574  of  1401
     c_bands:  1 eigenvalues not converged
     total cpu time spent up to now is     1229.7 secs

     Computing kpt #:   575  of  1401
     c_bands:  1 eigenvalues not converged
     total cpu time spent up to now is     1231.7 secs

     Computing kpt #:   576  of  1401
     c_bands:  1 eigenvalues not converged
     total cpu time spent up to now is     1233.8 secs

     Computing kpt #:   577  of  1401
     c_bands:  1 eigenvalues not converged
     total cpu time spent up to now is     1235.8 secs

     Computing kpt #:   578  of  1401
     c_bands:  1 eigenvalues not converged
     total cpu time spent up to now is     1237.9 secs

     Computing kpt #:   579  of  1401
     c_bands:  1 eigenvalues not converged
     total cpu time spent up to now is     1240.0 secs

     Computing kpt #:   580  of  1401
     c_bands:  1 eigenvalues not converged
     total cpu time spent up to now is     1242.0 secs

     Computing kpt #:   581  of  1401
     c_bands:  1 eigenvalues not converged
     total cpu time spent up to now is     1244.1 secs

     Computing kpt #:   582  of  1401
     c_bands:  1 eigenvalues not converged
     total cpu time spent up to now is     1246.1 secs

     Computing kpt #:   583  of  1401
     c_bands:  1 eigenvalues not converged
     total cpu time spent up to now is     1248.2 secs

     Computing kpt #:   584  of  1401
     c_bands:  1 eigenvalues not converged
     total cpu time spent up to now is     1250.2 secs

     Computing kpt #:   585  of  1401
     c_bands:  1 eigenvalues not converged
     total cpu time spent up to now is     1252.3 secs

     Computing kpt #:   586  of  1401
     c_bands:  1 eigenvalues not converged
     total cpu time spent up to now is     1254.2 secs

     Computing kpt #:   587  of  1401
     c_bands:  1 eigenvalues not converged
     total cpu time spent up to now is     1256.2 secs

     Computing kpt #:   588  of  1401
     c_bands:  1 eigenvalues not converged
     total cpu time spent up to now is     1258.4 secs

     Computing kpt #:   589  of  1401
     c_bands:  1 eigenvalues not converged
     total cpu time spent up to now is     1260.4 secs

     Computing kpt #:   590  of  1401
     c_bands:  1 eigenvalues not converged
     total cpu time spent up to now is     1262.4 secs

     Computing kpt #:   591  of  1401
     c_bands:  1 eigenvalues not converged
     total cpu time spent up to now is     1264.4 secs

     Computing kpt #:   592  of  1401
     c_bands:  1 eigenvalues not converged
     total cpu time spent up to now is     1266.5 secs

     Computing kpt #:   593  of  1401
     c_bands:  1 eigenvalues not converged
     total cpu time spent up to now is     1268.5 secs

     Computing kpt #:   594  of  1401
     c_bands:  1 eigenvalues not converged
     total cpu time spent up to now is     1270.5 secs

     Computing kpt #:   595  of  1401
     c_bands:  1 eigenvalues not converged
     total cpu time spent up to now is     1272.5 secs

     Computing kpt #:   596  of  1401
     c_bands:  1 eigenvalues not converged
     total cpu time spent up to now is     1274.5 secs

     Computing kpt #:   597  of  1401
     c_bands:  1 eigenvalues not converged
     total cpu time spent up to now is     1276.5 secs

     Computing kpt #:   598  of  1401
     c_bands:  1 eigenvalues not converged
     total cpu time spent up to now is     1279.2 secs

     Computing kpt #:   599  of  1401
     c_bands:  1 eigenvalues not converged
     total cpu time spent up to now is     1281.6 secs

     Computing kpt #:   600  of  1401
     c_bands:  1 eigenvalues not converged
     total cpu time spent up to now is     1283.7 secs

     Computing kpt #:   601  of  1401
     c_bands:  1 eigenvalues not converged
     total cpu time spent up to now is     1285.7 secs

     Computing kpt #:   602  of  1401
     c_bands:  1 eigenvalues not converged
     total cpu time spent up to now is     1287.7 secs

     Computing kpt #:   603  of  1401
     c_bands:  1 eigenvalues not converged
     total cpu time spent up to now is     1289.8 secs

     Computing kpt #:   604  of  1401
     c_bands:  1 eigenvalues not converged
     total cpu time spent up to now is     1291.9 secs

     Computing kpt #:   605  of  1401
     c_bands:  1 eigenvalues not converged
     total cpu time spent up to now is     1294.0 secs

     Computing kpt #:   606  of  1401
     total cpu time spent up to now is     1296.4 secs

     Computing kpt #:   607  of  1401
     total cpu time spent up to now is     1298.6 secs

     Computing kpt #:   608  of  1401
     c_bands:  1 eigenvalues not converged
     total cpu time spent up to now is     1300.8 secs

     Computing kpt #:   609  of  1401
     c_bands:  1 eigenvalues not converged
     total cpu time spent up to now is     1303.2 secs

     Computing kpt #:   610  of  1401
     c_bands:  1 eigenvalues not converged
     total cpu time spent up to now is     1305.2 secs

     Computing kpt #:   611  of  1401
     c_bands:  1 eigenvalues not converged
     total cpu time spent up to now is     1307.3 secs

     Computing kpt #:   612  of  1401
     c_bands:  1 eigenvalues not converged
     total cpu time spent up to now is     1309.4 secs

     Computing kpt #:   613  of  1401
     c_bands:  1 eigenvalues not converged
     total cpu time spent up to now is     1311.4 secs

     Computing kpt #:   614  of  1401
     c_bands:  1 eigenvalues not converged
     total cpu time spent up to now is     1313.5 secs

     Computing kpt #:   615  of  1401
     c_bands:  1 eigenvalues not converged
     total cpu time spent up to now is     1315.6 secs

     Computing kpt #:   616  of  1401
     c_bands:  1 eigenvalues not converged
     total cpu time spent up to now is     1318.0 secs

     Computing kpt #:   617  of  1401
     c_bands:  1 eigenvalues not converged
     total cpu time spent up to now is     1320.2 secs

     Computing kpt #:   618  of  1401
     c_bands:  1 eigenvalues not converged
     total cpu time spent up to now is     1322.3 secs

     Computing kpt #:   619  of  1401
     c_bands:  1 eigenvalues not converged
     total cpu time spent up to now is     1324.4 secs

     Computing kpt #:   620  of  1401
     c_bands:  1 eigenvalues not converged
     total cpu time spent up to now is     1326.5 secs

     Computing kpt #:   621  of  1401
     total cpu time spent up to now is     1328.5 secs

     Computing kpt #:   622  of  1401
     c_bands:  1 eigenvalues not converged
     total cpu time spent up to now is     1330.6 secs

     Computing kpt #:   623  of  1401
     c_bands:  1 eigenvalues not converged
     total cpu time spent up to now is     1332.7 secs

     Computing kpt #:   624  of  1401
     c_bands:  1 eigenvalues not converged
     total cpu time spent up to now is     1334.7 secs

     Computing kpt #:   625  of  1401
     total cpu time spent up to now is     1336.7 secs

     Computing kpt #:   626  of  1401
     c_bands:  1 eigenvalues not converged
     total cpu time spent up to now is     1339.3 secs

     Computing kpt #:   627  of  1401
     c_bands:  1 eigenvalues not converged
     total cpu time spent up to now is     1341.7 secs

     Computing kpt #:   628  of  1401
     c_bands:  1 eigenvalues not converged
     total cpu time spent up to now is     1343.8 secs

     Computing kpt #:   629  of  1401
     total cpu time spent up to now is     1345.9 secs

     Computing kpt #:   630  of  1401
     c_bands:  1 eigenvalues not converged
     total cpu time spent up to now is     1348.0 secs

     Computing kpt #:   631  of  1401
     c_bands:  1 eigenvalues not converged
     total cpu time spent up to now is     1350.0 secs

     Computing kpt #:   632  of  1401
     total cpu time spent up to now is     1352.0 secs

     Computing kpt #:   633  of  1401
     total cpu time spent up to now is     1354.0 secs

     Computing kpt #:   634  of  1401
     c_bands:  1 eigenvalues not converged
     total cpu time spent up to now is     1356.1 secs

     Computing kpt #:   635  of  1401
     c_bands:  1 eigenvalues not converged
     total cpu time spent up to now is     1358.2 secs

     Computing kpt #:   636  of  1401
     c_bands:  1 eigenvalues not converged
     total cpu time spent up to now is     1360.2 secs

     Computing kpt #:   637  of  1401
     c_bands:  1 eigenvalues not converged
     total cpu time spent up to now is     1362.3 secs

     Computing kpt #:   638  of  1401
     c_bands:  1 eigenvalues not converged
     total cpu time spent up to now is     1364.5 secs

     Computing kpt #:   639  of  1401
     c_bands:  1 eigenvalues not converged
     total cpu time spent up to now is     1366.5 secs

     Computing kpt #:   640  of  1401
     c_bands:  1 eigenvalues not converged
     total cpu time spent up to now is     1368.8 secs

     Computing kpt #:   641  of  1401
     total cpu time spent up to now is     1370.9 secs

     Computing kpt #:   642  of  1401
     c_bands:  1 eigenvalues not converged
     total cpu time spent up to now is     1373.0 secs

     Computing kpt #:   643  of  1401
     c_bands:  1 eigenvalues not converged
     total cpu time spent up to now is     1375.0 secs

     Computing kpt #:   644  of  1401
     c_bands:  1 eigenvalues not converged
     total cpu time spent up to now is     1377.1 secs

     Computing kpt #:   645  of  1401
     c_bands:  1 eigenvalues not converged
     total cpu time spent up to now is     1379.1 secs

     Computing kpt #:   646  of  1401
     c_bands:  1 eigenvalues not converged
     total cpu time spent up to now is     1381.2 secs

     Computing kpt #:   647  of  1401
     total cpu time spent up to now is     1383.2 secs

     Computing kpt #:   648  of  1401
     c_bands:  1 eigenvalues not converged
     total cpu time spent up to now is     1385.2 secs

     Computing kpt #:   649  of  1401
     c_bands:  1 eigenvalues not converged
     total cpu time spent up to now is     1387.3 secs

     Computing kpt #:   650  of  1401
     c_bands:  1 eigenvalues not converged
     total cpu time spent up to now is     1389.4 secs

     Computing kpt #:   651  of  1401
     c_bands:  1 eigenvalues not converged
     total cpu time spent up to now is     1391.5 secs

     Computing kpt #:   652  of  1401
     c_bands:  1 eigenvalues not converged
     total cpu time spent up to now is     1393.5 secs

     Computing kpt #:   653  of  1401
     c_bands:  1 eigenvalues not converged
     total cpu time spent up to now is     1395.6 secs

     Computing kpt #:   654  of  1401
     c_bands:  1 eigenvalues not converged
     total cpu time spent up to now is     1397.7 secs

     Computing kpt #:   655  of  1401
     c_bands:  1 eigenvalues not converged
     total cpu time spent up to now is     1400.4 secs

     Computing kpt #:   656  of  1401
     c_bands:  1 eigenvalues not converged
     total cpu time spent up to now is     1402.6 secs

     Computing kpt #:   657  of  1401
     c_bands:  1 eigenvalues not converged
     total cpu time spent up to now is     1404.6 secs

     Computing kpt #:   658  of  1401
     c_bands:  1 eigenvalues not converged
     total cpu time spent up to now is     1406.8 secs

     Computing kpt #:   659  of  1401
     c_bands:  1 eigenvalues not converged
     total cpu time spent up to now is     1408.9 secs

     Computing kpt #:   660  of  1401
     c_bands:  1 eigenvalues not converged
     total cpu time spent up to now is     1411.0 secs

     Computing kpt #:   661  of  1401
     c_bands:  1 eigenvalues not converged
     total cpu time spent up to now is     1413.1 secs

     Computing kpt #:   662  of  1401
     c_bands:  1 eigenvalues not converged
     total cpu time spent up to now is     1415.1 secs

     Computing kpt #:   663  of  1401
     c_bands:  1 eigenvalues not converged
     total cpu time spent up to now is     1417.3 secs

     Computing kpt #:   664  of  1401
     c_bands:  1 eigenvalues not converged
     total cpu time spent up to now is     1419.4 secs

     Computing kpt #:   665  of  1401
     c_bands:  1 eigenvalues not converged
     total cpu time spent up to now is     1421.6 secs

     Computing kpt #:   666  of  1401
     c_bands:  1 eigenvalues not converged
     total cpu time spent up to now is     1424.0 secs

     Computing kpt #:   667  of  1401
     c_bands:  1 eigenvalues not converged
     total cpu time spent up to now is     1426.0 secs

     Computing kpt #:   668  of  1401
     c_bands:  1 eigenvalues not converged
     total cpu time spent up to now is     1428.1 secs

     Computing kpt #:   669  of  1401
     c_bands:  1 eigenvalues not converged
     total cpu time spent up to now is     1430.1 secs

     Computing kpt #:   670  of  1401
     c_bands:  1 eigenvalues not converged
     total cpu time spent up to now is     1432.2 secs

     Computing kpt #:   671  of  1401
     c_bands:  1 eigenvalues not converged
     total cpu time spent up to now is     1434.2 secs

     Computing kpt #:   672  of  1401
     c_bands:  1 eigenvalues not converged
     total cpu time spent up to now is     1436.5 secs

     Computing kpt #:   673  of  1401
     c_bands:  1 eigenvalues not converged
     total cpu time spent up to now is     1438.5 secs

     Computing kpt #:   674  of  1401
     c_bands:  1 eigenvalues not converged
     total cpu time spent up to now is     1440.5 secs

     Computing kpt #:   675  of  1401
     c_bands:  1 eigenvalues not converged
     total cpu time spent up to now is     1442.6 secs

     Computing kpt #:   676  of  1401
     c_bands:  1 eigenvalues not converged
     total cpu time spent up to now is     1444.6 secs

     Computing kpt #:   677  of  1401
     c_bands:  1 eigenvalues not converged
     total cpu time spent up to now is     1446.7 secs

     Computing kpt #:   678  of  1401
     c_bands:  1 eigenvalues not converged
     total cpu time spent up to now is     1448.7 secs

     Computing kpt #:   679  of  1401
     c_bands:  1 eigenvalues not converged
     total cpu time spent up to now is     1450.8 secs

     Computing kpt #:   680  of  1401
     c_bands:  1 eigenvalues not converged
     total cpu time spent up to now is     1452.9 secs

     Computing kpt #:   681  of  1401
     c_bands:  1 eigenvalues not converged
     total cpu time spent up to now is     1454.9 secs

     Computing kpt #:   682  of  1401
     c_bands:  1 eigenvalues not converged
     total cpu time spent up to now is     1457.0 secs

     Computing kpt #:   683  of  1401
     c_bands:  1 eigenvalues not converged
     total cpu time spent up to now is     1460.5 secs

     Computing kpt #:   684  of  1401
     c_bands:  1 eigenvalues not converged
     total cpu time spent up to now is     1463.0 secs

     Computing kpt #:   685  of  1401
     c_bands:  1 eigenvalues not converged
     total cpu time spent up to now is     1465.1 secs

     Computing kpt #:   686  of  1401
     c_bands:  1 eigenvalues not converged
     total cpu time spent up to now is     1467.3 secs

     Computing kpt #:   687  of  1401
     c_bands:  1 eigenvalues not converged
     total cpu time spent up to now is     1469.4 secs

     Computing kpt #:   688  of  1401
     c_bands:  1 eigenvalues not converged
     total cpu time spent up to now is     1471.5 secs

     Computing kpt #:   689  of  1401
     c_bands:  1 eigenvalues not converged
     total cpu time spent up to now is     1473.5 secs

     Computing kpt #:   690  of  1401
     c_bands:  1 eigenvalues not converged
     total cpu time spent up to now is     1475.7 secs

     Computing kpt #:   691  of  1401
     c_bands:  1 eigenvalues not converged
     total cpu time spent up to now is     1478.0 secs

     Computing kpt #:   692  of  1401
     c_bands:  1 eigenvalues not converged
     total cpu time spent up to now is     1480.1 secs

     Computing kpt #:   693  of  1401
     c_bands:  1 eigenvalues not converged
     total cpu time spent up to now is     1482.5 secs

     Computing kpt #:   694  of  1401
     c_bands:  1 eigenvalues not converged
     total cpu time spent up to now is     1484.5 secs

     Computing kpt #:   695  of  1401
     c_bands:  1 eigenvalues not converged
     total cpu time spent up to now is     1486.6 secs

     Computing kpt #:   696  of  1401
     c_bands:  1 eigenvalues not converged
     total cpu time spent up to now is     1488.9 secs

     Computing kpt #:   697  of  1401
     c_bands:  1 eigenvalues not converged
     total cpu time spent up to now is     1491.0 secs

     Computing kpt #:   698  of  1401
     c_bands:  1 eigenvalues not converged
     total cpu time spent up to now is     1493.3 secs

     Computing kpt #:   699  of  1401
     c_bands:  1 eigenvalues not converged
     total cpu time spent up to now is     1495.3 secs

     Computing kpt #:   700  of  1401
     c_bands:  1 eigenvalues not converged
     total cpu time spent up to now is     1497.4 secs

     Computing kpt #:   701  of  1401
     c_bands:  1 eigenvalues not converged
     total cpu time spent up to now is     1499.4 secs

     Computing kpt #:   702  of  1401
     c_bands:  1 eigenvalues not converged
     total cpu time spent up to now is     1501.6 secs

     Computing kpt #:   703  of  1401
     c_bands:  1 eigenvalues not converged
     total cpu time spent up to now is     1503.7 secs

     Computing kpt #:   704  of  1401
     c_bands:  1 eigenvalues not converged
     total cpu time spent up to now is     1505.7 secs

     Computing kpt #:   705  of  1401
     c_bands:  1 eigenvalues not converged
     total cpu time spent up to now is     1507.8 secs

     Computing kpt #:   706  of  1401
     c_bands:  1 eigenvalues not converged
     total cpu time spent up to now is     1509.9 secs

     Computing kpt #:   707  of  1401
     c_bands:  1 eigenvalues not converged
     total cpu time spent up to now is     1512.1 secs

     Computing kpt #:   708  of  1401
     c_bands:  1 eigenvalues not converged
     total cpu time spent up to now is     1514.3 secs

     Computing kpt #:   709  of  1401
     c_bands:  1 eigenvalues not converged
     total cpu time spent up to now is     1516.5 secs

     Computing kpt #:   710  of  1401
     c_bands:  1 eigenvalues not converged
     total cpu time spent up to now is     1519.1 secs

     Computing kpt #:   711  of  1401
     c_bands:  1 eigenvalues not converged
     total cpu time spent up to now is     1521.5 secs

     Computing kpt #:   712  of  1401
     c_bands:  1 eigenvalues not converged
     total cpu time spent up to now is     1523.8 secs

     Computing kpt #:   713  of  1401
     c_bands:  1 eigenvalues not converged
     total cpu time spent up to now is     1525.9 secs

     Computing kpt #:   714  of  1401
     c_bands:  1 eigenvalues not converged
     total cpu time spent up to now is     1528.2 secs

     Computing kpt #:   715  of  1401
     c_bands:  1 eigenvalues not converged
     total cpu time spent up to now is     1530.3 secs

     Computing kpt #:   716  of  1401
     c_bands:  1 eigenvalues not converged
     total cpu time spent up to now is     1532.4 secs

     Computing kpt #:   717  of  1401
     c_bands:  1 eigenvalues not converged
     total cpu time spent up to now is     1534.5 secs

     Computing kpt #:   718  of  1401
     c_bands:  1 eigenvalues not converged
     total cpu time spent up to now is     1536.7 secs

     Computing kpt #:   719  of  1401
     c_bands:  1 eigenvalues not converged
     total cpu time spent up to now is     1538.7 secs

     Computing kpt #:   720  of  1401
     c_bands:  1 eigenvalues not converged
     total cpu time spent up to now is     1540.8 secs

     Computing kpt #:   721  of  1401
     c_bands:  1 eigenvalues not converged
     total cpu time spent up to now is     1542.9 secs

     Computing kpt #:   722  of  1401
     c_bands:  1 eigenvalues not converged
     total cpu time spent up to now is     1545.0 secs

     Computing kpt #:   723  of  1401
     c_bands:  1 eigenvalues not converged
     total cpu time spent up to now is     1547.1 secs

     Computing kpt #:   724  of  1401
     c_bands:  1 eigenvalues not converged
     total cpu time spent up to now is     1549.4 secs

     Computing kpt #:   725  of  1401
     c_bands:  1 eigenvalues not converged
     total cpu time spent up to now is     1551.7 secs

     Computing kpt #:   726  of  1401
     c_bands:  1 eigenvalues not converged
     total cpu time spent up to now is     1553.8 secs

     Computing kpt #:   727  of  1401
     c_bands:  1 eigenvalues not converged
     total cpu time spent up to now is     1555.8 secs

     Computing kpt #:   728  of  1401
     c_bands:  1 eigenvalues not converged
     total cpu time spent up to now is     1557.8 secs

     Computing kpt #:   729  of  1401
     c_bands:  1 eigenvalues not converged
     total cpu time spent up to now is     1560.0 secs

     Computing kpt #:   730  of  1401
     c_bands:  1 eigenvalues not converged
     total cpu time spent up to now is     1562.2 secs

     Computing kpt #:   731  of  1401
     c_bands:  1 eigenvalues not converged
     total cpu time spent up to now is     1564.3 secs

     Computing kpt #:   732  of  1401
     c_bands:  1 eigenvalues not converged
     total cpu time spent up to now is     1566.4 secs

     Computing kpt #:   733  of  1401
     c_bands:  1 eigenvalues not converged
     total cpu time spent up to now is     1568.5 secs

     Computing kpt #:   734  of  1401
     c_bands:  1 eigenvalues not converged
     total cpu time spent up to now is     1570.6 secs

     Computing kpt #:   735  of  1401
     c_bands:  1 eigenvalues not converged
     total cpu time spent up to now is     1572.7 secs

     Computing kpt #:   736  of  1401
     c_bands:  1 eigenvalues not converged
     total cpu time spent up to now is     1574.9 secs

     Computing kpt #:   737  of  1401
     c_bands:  1 eigenvalues not converged
     total cpu time spent up to now is     1576.9 secs

     Computing kpt #:   738  of  1401
     c_bands:  1 eigenvalues not converged
     total cpu time spent up to now is     1579.6 secs

     Computing kpt #:   739  of  1401
     c_bands:  1 eigenvalues not converged
     total cpu time spent up to now is     1581.9 secs

     Computing kpt #:   740  of  1401
     c_bands:  1 eigenvalues not converged
     total cpu time spent up to now is     1584.7 secs

     Computing kpt #:   741  of  1401
     c_bands:  1 eigenvalues not converged
     total cpu time spent up to now is     1586.8 secs

     Computing kpt #:   742  of  1401
     c_bands:  1 eigenvalues not converged
     total cpu time spent up to now is     1589.0 secs

     Computing kpt #:   743  of  1401
     c_bands:  1 eigenvalues not converged
     total cpu time spent up to now is     1591.5 secs

     Computing kpt #:   744  of  1401
     c_bands:  1 eigenvalues not converged
     total cpu time spent up to now is     1593.7 secs

     Computing kpt #:   745  of  1401
     c_bands:  1 eigenvalues not converged
     total cpu time spent up to now is     1596.2 secs

     Computing kpt #:   746  of  1401
     c_bands:  1 eigenvalues not converged
     total cpu time spent up to now is     1598.8 secs

     Computing kpt #:   747  of  1401
     c_bands:  1 eigenvalues not converged
     total cpu time spent up to now is     1601.2 secs

     Computing kpt #:   748  of  1401
     c_bands:  1 eigenvalues not converged
     total cpu time spent up to now is     1604.0 secs

     Computing kpt #:   749  of  1401
     c_bands:  1 eigenvalues not converged
     total cpu time spent up to now is     1606.5 secs

     Computing kpt #:   750  of  1401
     c_bands:  1 eigenvalues not converged
     total cpu time spent up to now is     1608.7 secs

     Computing kpt #:   751  of  1401
     c_bands:  1 eigenvalues not converged
     total cpu time spent up to now is     1611.1 secs

     Computing kpt #:   752  of  1401
     c_bands:  1 eigenvalues not converged
     total cpu time spent up to now is     1613.3 secs

     Computing kpt #:   753  of  1401
     c_bands:  1 eigenvalues not converged
     total cpu time spent up to now is     1615.9 secs

     Computing kpt #:   754  of  1401
     c_bands:  1 eigenvalues not converged
     total cpu time spent up to now is     1618.2 secs

     Computing kpt #:   755  of  1401
     c_bands:  1 eigenvalues not converged
     total cpu time spent up to now is     1620.3 secs

     Computing kpt #:   756  of  1401
     c_bands:  1 eigenvalues not converged
     total cpu time spent up to now is     1622.3 secs

     Computing kpt #:   757  of  1401
     c_bands:  1 eigenvalues not converged
     total cpu time spent up to now is     1624.4 secs

     Computing kpt #:   758  of  1401
     c_bands:  1 eigenvalues not converged
     total cpu time spent up to now is     1626.8 secs

     Computing kpt #:   759  of  1401
     c_bands:  1 eigenvalues not converged
     total cpu time spent up to now is     1629.1 secs

     Computing kpt #:   760  of  1401
     c_bands:  1 eigenvalues not converged
     total cpu time spent up to now is     1631.2 secs

     Computing kpt #:   761  of  1401
     c_bands:  1 eigenvalues not converged
     total cpu time spent up to now is     1633.4 secs

     Computing kpt #:   762  of  1401
     c_bands:  1 eigenvalues not converged
     total cpu time spent up to now is     1635.8 secs

     Computing kpt #:   763  of  1401
     c_bands:  1 eigenvalues not converged
     total cpu time spent up to now is     1638.3 secs

     Computing kpt #:   764  of  1401
     c_bands:  1 eigenvalues not converged
     total cpu time spent up to now is     1641.7 secs

     Computing kpt #:   765  of  1401
     c_bands:  1 eigenvalues not converged
     total cpu time spent up to now is     1643.9 secs

     Computing kpt #:   766  of  1401
     c_bands:  1 eigenvalues not converged
     total cpu time spent up to now is     1646.8 secs

     Computing kpt #:   767  of  1401
     c_bands:  1 eigenvalues not converged
     total cpu time spent up to now is     1649.3 secs

     Computing kpt #:   768  of  1401
     c_bands:  1 eigenvalues not converged
     total cpu time spent up to now is     1651.7 secs

     Computing kpt #:   769  of  1401
     c_bands:  1 eigenvalues not converged
     total cpu time spent up to now is     1654.4 secs

     Computing kpt #:   770  of  1401
     c_bands:  1 eigenvalues not converged
     total cpu time spent up to now is     1656.9 secs

     Computing kpt #:   771  of  1401
     c_bands:  1 eigenvalues not converged
     total cpu time spent up to now is     1659.1 secs

     Computing kpt #:   772  of  1401
     c_bands:  1 eigenvalues not converged
     total cpu time spent up to now is     1661.3 secs

     Computing kpt #:   773  of  1401
     c_bands:  1 eigenvalues not converged
     total cpu time spent up to now is     1664.0 secs

     Computing kpt #:   774  of  1401
     c_bands:  1 eigenvalues not converged
     total cpu time spent up to now is     1666.2 secs

     Computing kpt #:   775  of  1401
     c_bands:  1 eigenvalues not converged
     total cpu time spent up to now is     1668.9 secs

     Computing kpt #:   776  of  1401
     c_bands:  1 eigenvalues not converged
     total cpu time spent up to now is     1671.0 secs

     Computing kpt #:   777  of  1401
     c_bands:  1 eigenvalues not converged
     total cpu time spent up to now is     1673.2 secs

     Computing kpt #:   778  of  1401
     c_bands:  1 eigenvalues not converged
     total cpu time spent up to now is     1675.6 secs

     Computing kpt #:   779  of  1401
     c_bands:  1 eigenvalues not converged
     total cpu time spent up to now is     1677.7 secs

     Computing kpt #:   780  of  1401
     c_bands:  1 eigenvalues not converged
     total cpu time spent up to now is     1679.9 secs

     Computing kpt #:   781  of  1401
     c_bands:  1 eigenvalues not converged
     total cpu time spent up to now is     1682.1 secs

     Computing kpt #:   782  of  1401
     c_bands:  1 eigenvalues not converged
     total cpu time spent up to now is     1684.3 secs

     Computing kpt #:   783  of  1401
     c_bands:  1 eigenvalues not converged
     total cpu time spent up to now is     1686.6 secs

     Computing kpt #:   784  of  1401
     c_bands:  1 eigenvalues not converged
     total cpu time spent up to now is     1688.7 secs

     Computing kpt #:   785  of  1401
     c_bands:  1 eigenvalues not converged
     total cpu time spent up to now is     1690.9 secs

     Computing kpt #:   786  of  1401
     c_bands:  1 eigenvalues not converged
     total cpu time spent up to now is     1693.1 secs

     Computing kpt #:   787  of  1401
     c_bands:  1 eigenvalues not converged
     total cpu time spent up to now is     1695.7 secs

     Computing kpt #:   788  of  1401
     c_bands:  1 eigenvalues not converged
     total cpu time spent up to now is     1698.1 secs

     Computing kpt #:   789  of  1401
     c_bands:  1 eigenvalues not converged
     total cpu time spent up to now is     1701.0 secs

     Computing kpt #:   790  of  1401
     c_bands:  1 eigenvalues not converged
     total cpu time spent up to now is     1703.7 secs

     Computing kpt #:   791  of  1401
     c_bands:  1 eigenvalues not converged
     total cpu time spent up to now is     1705.8 secs

     Computing kpt #:   792  of  1401
     c_bands:  1 eigenvalues not converged
     total cpu time spent up to now is     1707.9 secs

     Computing kpt #:   793  of  1401
     c_bands:  1 eigenvalues not converged
     total cpu time spent up to now is     1710.1 secs

     Computing kpt #:   794  of  1401
     c_bands:  1 eigenvalues not converged
     total cpu time spent up to now is     1712.2 secs

     Computing kpt #:   795  of  1401
     c_bands:  1 eigenvalues not converged
     total cpu time spent up to now is     1714.4 secs

     Computing kpt #:   796  of  1401
     total cpu time spent up to now is     1716.4 secs

     Computing kpt #:   797  of  1401
     total cpu time spent up to now is     1718.5 secs

     Computing kpt #:   798  of  1401
     total cpu time spent up to now is     1720.3 secs

     Computing kpt #:   799  of  1401
     total cpu time spent up to now is     1722.2 secs

     Computing kpt #:   800  of  1401
     total cpu time spent up to now is     1724.0 secs

     Computing kpt #:   801  of  1401
     total cpu time spent up to now is     1725.9 secs

     Computing kpt #:   802  of  1401
     total cpu time spent up to now is     1727.7 secs

     Computing kpt #:   803  of  1401
     total cpu time spent up to now is     1729.5 secs

     Computing kpt #:   804  of  1401
     total cpu time spent up to now is     1731.3 secs

     Computing kpt #:   805  of  1401
     total cpu time spent up to now is     1733.3 secs

     Computing kpt #:   806  of  1401
     total cpu time spent up to now is     1735.2 secs

     Computing kpt #:   807  of  1401
     total cpu time spent up to now is     1737.0 secs

     Computing kpt #:   808  of  1401
     total cpu time spent up to now is     1739.0 secs

     Computing kpt #:   809  of  1401
     total cpu time spent up to now is     1740.8 secs

     Computing kpt #:   810  of  1401
     total cpu time spent up to now is     1742.6 secs

     Computing kpt #:   811  of  1401
     total cpu time spent up to now is     1744.5 secs

     Computing kpt #:   812  of  1401
     total cpu time spent up to now is     1746.3 secs

     Computing kpt #:   813  of  1401
     total cpu time spent up to now is     1748.4 secs

     Computing kpt #:   814  of  1401
     total cpu time spent up to now is     1750.3 secs

     Computing kpt #:   815  of  1401
     total cpu time spent up to now is     1752.1 secs

     Computing kpt #:   816  of  1401
     total cpu time spent up to now is     1754.0 secs

     Computing kpt #:   817  of  1401
     total cpu time spent up to now is     1755.7 secs

     Computing kpt #:   818  of  1401
     total cpu time spent up to now is     1757.6 secs

     Computing kpt #:   819  of  1401
     total cpu time spent up to now is     1760.3 secs

     Computing kpt #:   820  of  1401
     total cpu time spent up to now is     1762.3 secs

     Computing kpt #:   821  of  1401
     total cpu time spent up to now is     1764.2 secs

     Computing kpt #:   822  of  1401
     total cpu time spent up to now is     1766.2 secs

     Computing kpt #:   823  of  1401
     total cpu time spent up to now is     1768.2 secs

     Computing kpt #:   824  of  1401
     total cpu time spent up to now is     1770.0 secs

     Computing kpt #:   825  of  1401
     total cpu time spent up to now is     1771.9 secs

     Computing kpt #:   826  of  1401
     total cpu time spent up to now is     1773.7 secs

     Computing kpt #:   827  of  1401
     total cpu time spent up to now is     1775.7 secs

     Computing kpt #:   828  of  1401
     total cpu time spent up to now is     1777.7 secs

     Computing kpt #:   829  of  1401
     total cpu time spent up to now is     1779.8 secs

     Computing kpt #:   830  of  1401
     total cpu time spent up to now is     1782.0 secs

     Computing kpt #:   831  of  1401
     total cpu time spent up to now is     1784.7 secs

     Computing kpt #:   832  of  1401
     total cpu time spent up to now is     1786.6 secs

     Computing kpt #:   833  of  1401
     total cpu time spent up to now is     1789.1 secs

     Computing kpt #:   834  of  1401
     total cpu time spent up to now is     1791.0 secs

     Computing kpt #:   835  of  1401
     total cpu time spent up to now is     1792.9 secs

     Computing kpt #:   836  of  1401
     total cpu time spent up to now is     1795.2 secs

     Computing kpt #:   837  of  1401
     total cpu time spent up to now is     1797.4 secs

     Computing kpt #:   838  of  1401
     total cpu time spent up to now is     1799.3 secs

     Computing kpt #:   839  of  1401
     total cpu time spent up to now is     1801.2 secs

     Computing kpt #:   840  of  1401
     total cpu time spent up to now is     1803.2 secs

     Computing kpt #:   841  of  1401
     total cpu time spent up to now is     1805.1 secs

     Computing kpt #:   842  of  1401
     total cpu time spent up to now is     1807.1 secs

     Computing kpt #:   843  of  1401
     total cpu time spent up to now is     1809.3 secs

     Computing kpt #:   844  of  1401
     total cpu time spent up to now is     1811.2 secs

     Computing kpt #:   845  of  1401
     total cpu time spent up to now is     1813.1 secs

     Computing kpt #:   846  of  1401
     total cpu time spent up to now is     1815.0 secs

     Computing kpt #:   847  of  1401
     total cpu time spent up to now is     1816.9 secs

     Computing kpt #:   848  of  1401
     total cpu time spent up to now is     1819.2 secs

     Computing kpt #:   849  of  1401
     total cpu time spent up to now is     1821.4 secs

     Computing kpt #:   850  of  1401
     total cpu time spent up to now is     1823.3 secs

     Computing kpt #:   851  of  1401
     total cpu time spent up to now is     1825.3 secs

     Computing kpt #:   852  of  1401
     total cpu time spent up to now is     1827.4 secs

     Computing kpt #:   853  of  1401
     total cpu time spent up to now is     1829.4 secs

     Computing kpt #:   854  of  1401
     total cpu time spent up to now is     1831.3 secs

     Computing kpt #:   855  of  1401
     total cpu time spent up to now is     1833.4 secs

     Computing kpt #:   856  of  1401
     total cpu time spent up to now is     1835.4 secs

     Computing kpt #:   857  of  1401
     total cpu time spent up to now is     1837.4 secs

     Computing kpt #:   858  of  1401
     total cpu time spent up to now is     1839.4 secs

     Computing kpt #:   859  of  1401
     total cpu time spent up to now is     1841.5 secs

     Computing kpt #:   860  of  1401
     total cpu time spent up to now is     1843.6 secs

     Computing kpt #:   861  of  1401
     total cpu time spent up to now is     1845.6 secs

     Computing kpt #:   862  of  1401
     total cpu time spent up to now is     1847.6 secs

     Computing kpt #:   863  of  1401
     total cpu time spent up to now is     1850.0 secs

     Computing kpt #:   864  of  1401
     total cpu time spent up to now is     1852.0 secs

     Computing kpt #:   865  of  1401
     total cpu time spent up to now is     1853.9 secs

     Computing kpt #:   866  of  1401
     total cpu time spent up to now is     1855.9 secs

     Computing kpt #:   867  of  1401
     total cpu time spent up to now is     1857.9 secs

     Computing kpt #:   868  of  1401
     c_bands:  1 eigenvalues not converged
     total cpu time spent up to now is     1860.0 secs

     Computing kpt #:   869  of  1401
     total cpu time spent up to now is     1862.0 secs

     Computing kpt #:   870  of  1401
     total cpu time spent up to now is     1864.0 secs

     Computing kpt #:   871  of  1401
     total cpu time spent up to now is     1865.9 secs

     Computing kpt #:   872  of  1401
     total cpu time spent up to now is     1868.0 secs

     Computing kpt #:   873  of  1401
     total cpu time spent up to now is     1869.9 secs

     Computing kpt #:   874  of  1401
     total cpu time spent up to now is     1872.0 secs

     Computing kpt #:   875  of  1401
     total cpu time spent up to now is     1874.0 secs

     Computing kpt #:   876  of  1401
     total cpu time spent up to now is     1876.1 secs

     Computing kpt #:   877  of  1401
     c_bands:  1 eigenvalues not converged
     total cpu time spent up to now is     1878.8 secs

     Computing kpt #:   878  of  1401
     total cpu time spent up to now is     1881.0 secs

     Computing kpt #:   879  of  1401
     total cpu time spent up to now is     1883.0 secs

     Computing kpt #:   880  of  1401
     total cpu time spent up to now is     1885.0 secs

     Computing kpt #:   881  of  1401
     total cpu time spent up to now is     1887.3 secs

     Computing kpt #:   882  of  1401
     total cpu time spent up to now is     1889.5 secs

     Computing kpt #:   883  of  1401
     total cpu time spent up to now is     1891.6 secs

     Computing kpt #:   884  of  1401
     total cpu time spent up to now is     1893.7 secs

     Computing kpt #:   885  of  1401
     total cpu time spent up to now is     1895.8 secs

     Computing kpt #:   886  of  1401
     total cpu time spent up to now is     1897.7 secs

     Computing kpt #:   887  of  1401
     total cpu time spent up to now is     1899.8 secs

     Computing kpt #:   888  of  1401
     total cpu time spent up to now is     1901.9 secs

     Computing kpt #:   889  of  1401
     total cpu time spent up to now is     1903.9 secs

     Computing kpt #:   890  of  1401
     total cpu time spent up to now is     1906.0 secs

     Computing kpt #:   891  of  1401
     total cpu time spent up to now is     1908.0 secs

     Computing kpt #:   892  of  1401
     total cpu time spent up to now is     1910.0 secs

     Computing kpt #:   893  of  1401
     total cpu time spent up to now is     1912.1 secs

     Computing kpt #:   894  of  1401
     total cpu time spent up to now is     1914.2 secs

     Computing kpt #:   895  of  1401
     c_bands:  1 eigenvalues not converged
     total cpu time spent up to now is     1916.3 secs

     Computing kpt #:   896  of  1401
     c_bands:  1 eigenvalues not converged
     total cpu time spent up to now is     1918.4 secs

     Computing kpt #:   897  of  1401
     total cpu time spent up to now is     1920.4 secs

     Computing kpt #:   898  of  1401
     c_bands:  1 eigenvalues not converged
     total cpu time spent up to now is     1922.5 secs

     Computing kpt #:   899  of  1401
     c_bands:  1 eigenvalues not converged
     total cpu time spent up to now is     1924.5 secs

     Computing kpt #:   900  of  1401
     c_bands:  1 eigenvalues not converged
     total cpu time spent up to now is     1926.8 secs

     Computing kpt #:   901  of  1401
     c_bands:  1 eigenvalues not converged
     total cpu time spent up to now is     1928.9 secs

     Computing kpt #:   902  of  1401
     total cpu time spent up to now is     1931.0 secs

     Computing kpt #:   903  of  1401
     total cpu time spent up to now is     1933.0 secs

     Computing kpt #:   904  of  1401
     c_bands:  1 eigenvalues not converged
     total cpu time spent up to now is     1935.1 secs

     Computing kpt #:   905  of  1401
     total cpu time spent up to now is     1937.1 secs

     Computing kpt #:   906  of  1401
     total cpu time spent up to now is     1940.1 secs

     Computing kpt #:   907  of  1401
     c_bands:  1 eigenvalues not converged
     total cpu time spent up to now is     1942.5 secs

     Computing kpt #:   908  of  1401
     c_bands:  1 eigenvalues not converged
     total cpu time spent up to now is     1944.6 secs

     Computing kpt #:   909  of  1401
     c_bands:  1 eigenvalues not converged
     total cpu time spent up to now is     1946.7 secs

     Computing kpt #:   910  of  1401
     c_bands:  1 eigenvalues not converged
     total cpu time spent up to now is     1948.8 secs

     Computing kpt #:   911  of  1401
     c_bands:  1 eigenvalues not converged
     total cpu time spent up to now is     1950.9 secs

     Computing kpt #:   912  of  1401
     c_bands:  1 eigenvalues not converged
     total cpu time spent up to now is     1952.9 secs

     Computing kpt #:   913  of  1401
     c_bands:  1 eigenvalues not converged
     total cpu time spent up to now is     1955.0 secs

     Computing kpt #:   914  of  1401
     c_bands:  1 eigenvalues not converged
     total cpu time spent up to now is     1957.1 secs

     Computing kpt #:   915  of  1401
     c_bands:  1 eigenvalues not converged
     total cpu time spent up to now is     1959.4 secs

     Computing kpt #:   916  of  1401
     c_bands:  1 eigenvalues not converged
     total cpu time spent up to now is     1961.5 secs

     Computing kpt #:   917  of  1401
     c_bands:  1 eigenvalues not converged
     total cpu time spent up to now is     1963.5 secs

     Computing kpt #:   918  of  1401
     c_bands:  1 eigenvalues not converged
     total cpu time spent up to now is     1965.9 secs

     Computing kpt #:   919  of  1401
     c_bands:  1 eigenvalues not converged
     total cpu time spent up to now is     1968.5 secs

     Computing kpt #:   920  of  1401
     c_bands:  1 eigenvalues not converged
     total cpu time spent up to now is     1971.3 secs

     Computing kpt #:   921  of  1401
     c_bands:  1 eigenvalues not converged
     total cpu time spent up to now is     1973.7 secs

     Computing kpt #:   922  of  1401
     c_bands:  1 eigenvalues not converged
     total cpu time spent up to now is     1975.8 secs

     Computing kpt #:   923  of  1401
     c_bands:  1 eigenvalues not converged
     total cpu time spent up to now is     1978.1 secs

     Computing kpt #:   924  of  1401
     c_bands:  1 eigenvalues not converged
     total cpu time spent up to now is     1980.4 secs

     Computing kpt #:   925  of  1401
     c_bands:  1 eigenvalues not converged
     total cpu time spent up to now is     1982.5 secs

     Computing kpt #:   926  of  1401
     c_bands:  1 eigenvalues not converged
     total cpu time spent up to now is     1984.8 secs

     Computing kpt #:   927  of  1401
     c_bands:  1 eigenvalues not converged
     total cpu time spent up to now is     1987.4 secs

     Computing kpt #:   928  of  1401
     c_bands:  1 eigenvalues not converged
     total cpu time spent up to now is     1989.5 secs

     Computing kpt #:   929  of  1401
     c_bands:  1 eigenvalues not converged
     total cpu time spent up to now is     1991.8 secs

     Computing kpt #:   930  of  1401
     c_bands:  1 eigenvalues not converged
     total cpu time spent up to now is     1994.1 secs

     Computing kpt #:   931  of  1401
     c_bands:  1 eigenvalues not converged
     total cpu time spent up to now is     1996.2 secs

     Computing kpt #:   932  of  1401
     c_bands:  1 eigenvalues not converged
     total cpu time spent up to now is     1999.4 secs

     Computing kpt #:   933  of  1401
     c_bands:  1 eigenvalues not converged
     total cpu time spent up to now is     2001.9 secs

     Computing kpt #:   934  of  1401
     c_bands:  1 eigenvalues not converged
     total cpu time spent up to now is     2004.4 secs

     Computing kpt #:   935  of  1401
     total cpu time spent up to now is     2006.5 secs

     Computing kpt #:   936  of  1401
     total cpu time spent up to now is     2008.6 secs

     Computing kpt #:   937  of  1401
     c_bands:  1 eigenvalues not converged
     total cpu time spent up to now is     2010.7 secs

     Computing kpt #:   938  of  1401
     total cpu time spent up to now is     2013.2 secs

     Computing kpt #:   939  of  1401
     total cpu time spent up to now is     2015.6 secs

     Computing kpt #:   940  of  1401
     total cpu time spent up to now is     2018.0 secs

     Computing kpt #:   941  of  1401
     total cpu time spent up to now is     2020.2 secs

     Computing kpt #:   942  of  1401
     total cpu time spent up to now is     2022.2 secs

     Computing kpt #:   943  of  1401
     total cpu time spent up to now is     2024.3 secs

     Computing kpt #:   944  of  1401
     total cpu time spent up to now is     2026.4 secs

     Computing kpt #:   945  of  1401
     total cpu time spent up to now is     2028.6 secs

     Computing kpt #:   946  of  1401
     total cpu time spent up to now is     2030.5 secs

     Computing kpt #:   947  of  1401
     total cpu time spent up to now is     2032.6 secs

     Computing kpt #:   948  of  1401
     total cpu time spent up to now is     2034.8 secs

     Computing kpt #:   949  of  1401
     total cpu time spent up to now is     2036.8 secs

     Computing kpt #:   950  of  1401
     total cpu time spent up to now is     2038.7 secs

     Computing kpt #:   951  of  1401
     total cpu time spent up to now is     2040.7 secs

     Computing kpt #:   952  of  1401
     total cpu time spent up to now is     2042.7 secs

     Computing kpt #:   953  of  1401
     total cpu time spent up to now is     2044.6 secs

     Computing kpt #:   954  of  1401
     total cpu time spent up to now is     2046.7 secs

     Computing kpt #:   955  of  1401
     total cpu time spent up to now is     2048.8 secs

     Computing kpt #:   956  of  1401
     total cpu time spent up to now is     2050.8 secs

     Computing kpt #:   957  of  1401
     total cpu time spent up to now is     2052.9 secs

     Computing kpt #:   958  of  1401
     total cpu time spent up to now is     2054.9 secs

     Computing kpt #:   959  of  1401
     total cpu time spent up to now is     2056.9 secs

     Computing kpt #:   960  of  1401
     c_bands:  1 eigenvalues not converged
     total cpu time spent up to now is     2060.9 secs

     Computing kpt #:   961  of  1401
     total cpu time spent up to now is     2063.0 secs

     Computing kpt #:   962  of  1401
     total cpu time spent up to now is     2065.1 secs

     Computing kpt #:   963  of  1401
     total cpu time spent up to now is     2067.2 secs

     Computing kpt #:   964  of  1401
     total cpu time spent up to now is     2069.4 secs

     Computing kpt #:   965  of  1401
     total cpu time spent up to now is     2071.4 secs

     Computing kpt #:   966  of  1401
     total cpu time spent up to now is     2073.5 secs

     Computing kpt #:   967  of  1401
     total cpu time spent up to now is     2075.5 secs

     Computing kpt #:   968  of  1401
     total cpu time spent up to now is     2078.0 secs

     Computing kpt #:   969  of  1401
     total cpu time spent up to now is     2080.0 secs

     Computing kpt #:   970  of  1401
     total cpu time spent up to now is     2082.3 secs

     Computing kpt #:   971  of  1401
     total cpu time spent up to now is     2084.3 secs

     Computing kpt #:   972  of  1401
     total cpu time spent up to now is     2086.4 secs

     Computing kpt #:   973  of  1401
     total cpu time spent up to now is     2088.4 secs

     Computing kpt #:   974  of  1401
     total cpu time spent up to now is     2090.5 secs

     Computing kpt #:   975  of  1401
     total cpu time spent up to now is     2092.4 secs

     Computing kpt #:   976  of  1401
     total cpu time spent up to now is     2094.4 secs

     Computing kpt #:   977  of  1401
     total cpu time spent up to now is     2096.2 secs

     Computing kpt #:   978  of  1401
     total cpu time spent up to now is     2098.4 secs

     Computing kpt #:   979  of  1401
     total cpu time spent up to now is     2100.3 secs

     Computing kpt #:   980  of  1401
     total cpu time spent up to now is     2102.3 secs

     Computing kpt #:   981  of  1401
     total cpu time spent up to now is     2104.3 secs

     Computing kpt #:   982  of  1401
     c_bands:  1 eigenvalues not converged
     total cpu time spent up to now is     2106.4 secs

     Computing kpt #:   983  of  1401
     total cpu time spent up to now is     2108.6 secs

     Computing kpt #:   984  of  1401
     total cpu time spent up to now is     2110.6 secs

     Computing kpt #:   985  of  1401
     total cpu time spent up to now is     2112.6 secs

     Computing kpt #:   986  of  1401
     total cpu time spent up to now is     2114.5 secs

     Computing kpt #:   987  of  1401
     total cpu time spent up to now is     2116.4 secs

     Computing kpt #:   988  of  1401
     total cpu time spent up to now is     2118.6 secs

     Computing kpt #:   989  of  1401
     total cpu time spent up to now is     2120.9 secs

     Computing kpt #:   990  of  1401
     total cpu time spent up to now is     2122.9 secs

     Computing kpt #:   991  of  1401
     total cpu time spent up to now is     2124.7 secs

     Computing kpt #:   992  of  1401
     total cpu time spent up to now is     2126.7 secs

     Computing kpt #:   993  of  1401
     total cpu time spent up to now is     2128.6 secs

     Computing kpt #:   994  of  1401
     total cpu time spent up to now is     2130.5 secs

     Computing kpt #:   995  of  1401
     total cpu time spent up to now is     2132.6 secs

     Computing kpt #:   996  of  1401
     total cpu time spent up to now is     2134.6 secs

     Computing kpt #:   997  of  1401
     total cpu time spent up to now is     2136.6 secs

     Computing kpt #:   998  of  1401
     total cpu time spent up to now is     2138.4 secs

     Computing kpt #:   999  of  1401
     total cpu time spent up to now is     2140.3 secs

     Computing kpt #:  1000  of  1401
     total cpu time spent up to now is     2142.3 secs

     Computing kpt #:  1001  of  1401
     total cpu time spent up to now is     2144.2 secs

     Computing kpt #:  1002  of  1401
     total cpu time spent up to now is     2146.1 secs

     Computing kpt #:  1003  of  1401
     total cpu time spent up to now is     2148.4 secs

     Computing kpt #:  1004  of  1401
     total cpu time spent up to now is     2150.2 secs

     Computing kpt #:  1005  of  1401
     total cpu time spent up to now is     2152.1 secs

     Computing kpt #:  1006  of  1401
     total cpu time spent up to now is     2154.2 secs

     Computing kpt #:  1007  of  1401
     total cpu time spent up to now is     2156.3 secs

     Computing kpt #:  1008  of  1401
     total cpu time spent up to now is     2158.2 secs

     Computing kpt #:  1009  of  1401
     total cpu time spent up to now is     2160.2 secs

     Computing kpt #:  1010  of  1401
     total cpu time spent up to now is     2162.2 secs

     Computing kpt #:  1011  of  1401
     total cpu time spent up to now is     2164.1 secs

     Computing kpt #:  1012  of  1401
     total cpu time spent up to now is     2166.1 secs

     Computing kpt #:  1013  of  1401
     total cpu time spent up to now is     2168.1 secs

     Computing kpt #:  1014  of  1401
     total cpu time spent up to now is     2170.0 secs

     Computing kpt #:  1015  of  1401
     total cpu time spent up to now is     2172.0 secs

     Computing kpt #:  1016  of  1401
     total cpu time spent up to now is     2173.9 secs

     Computing kpt #:  1017  of  1401
     total cpu time spent up to now is     2175.7 secs

     Computing kpt #:  1018  of  1401
     total cpu time spent up to now is     2177.5 secs

     Computing kpt #:  1019  of  1401
     total cpu time spent up to now is     2179.9 secs

     Computing kpt #:  1020  of  1401
     total cpu time spent up to now is     2181.8 secs

     Computing kpt #:  1021  of  1401
     total cpu time spent up to now is     2183.7 secs

     Computing kpt #:  1022  of  1401
     total cpu time spent up to now is     2185.6 secs

     Computing kpt #:  1023  of  1401
     total cpu time spent up to now is     2187.3 secs

     Computing kpt #:  1024  of  1401
     c_bands:  1 eigenvalues not converged
     total cpu time spent up to now is     2189.3 secs

     Computing kpt #:  1025  of  1401
     total cpu time spent up to now is     2191.2 secs

     Computing kpt #:  1026  of  1401
     total cpu time spent up to now is     2193.1 secs

     Computing kpt #:  1027  of  1401
     total cpu time spent up to now is     2194.9 secs

     Computing kpt #:  1028  of  1401
     total cpu time spent up to now is     2196.8 secs

     Computing kpt #:  1029  of  1401
     total cpu time spent up to now is     2198.6 secs

     Computing kpt #:  1030  of  1401
     total cpu time spent up to now is     2200.4 secs

     Computing kpt #:  1031  of  1401
     total cpu time spent up to now is     2202.2 secs

     Computing kpt #:  1032  of  1401
     total cpu time spent up to now is     2204.3 secs

     Computing kpt #:  1033  of  1401
     total cpu time spent up to now is     2206.2 secs

     Computing kpt #:  1034  of  1401
     total cpu time spent up to now is     2208.0 secs

     Computing kpt #:  1035  of  1401
     total cpu time spent up to now is     2209.9 secs

     Computing kpt #:  1036  of  1401
     total cpu time spent up to now is     2211.8 secs

     Computing kpt #:  1037  of  1401
     total cpu time spent up to now is     2213.6 secs

     Computing kpt #:  1038  of  1401
     total cpu time spent up to now is     2215.4 secs

     Computing kpt #:  1039  of  1401
     total cpu time spent up to now is     2217.2 secs

     Computing kpt #:  1040  of  1401
     total cpu time spent up to now is     2219.0 secs

     Computing kpt #:  1041  of  1401
     total cpu time spent up to now is     2220.7 secs

     Computing kpt #:  1042  of  1401
     total cpu time spent up to now is     2222.6 secs

     Computing kpt #:  1043  of  1401
     total cpu time spent up to now is     2224.5 secs

     Computing kpt #:  1044  of  1401
     total cpu time spent up to now is     2226.3 secs

     Computing kpt #:  1045  of  1401
     total cpu time spent up to now is     2228.1 secs

     Computing kpt #:  1046  of  1401
     total cpu time spent up to now is     2229.8 secs

     Computing kpt #:  1047  of  1401
     total cpu time spent up to now is     2231.6 secs

     Computing kpt #:  1048  of  1401
     total cpu time spent up to now is     2233.4 secs

     Computing kpt #:  1049  of  1401
     total cpu time spent up to now is     2235.2 secs

     Computing kpt #:  1050  of  1401
     total cpu time spent up to now is     2237.1 secs

     Computing kpt #:  1051  of  1401
     total cpu time spent up to now is     2239.7 secs

     Computing kpt #:  1052  of  1401
     total cpu time spent up to now is     2241.9 secs

     Computing kpt #:  1053  of  1401
     total cpu time spent up to now is     2243.8 secs

     Computing kpt #:  1054  of  1401
     total cpu time spent up to now is     2245.7 secs

     Computing kpt #:  1055  of  1401
     total cpu time spent up to now is     2247.6 secs

     Computing kpt #:  1056  of  1401
     total cpu time spent up to now is     2249.5 secs

     Computing kpt #:  1057  of  1401
     total cpu time spent up to now is     2251.4 secs

     Computing kpt #:  1058  of  1401
     total cpu time spent up to now is     2253.2 secs

     Computing kpt #:  1059  of  1401
     total cpu time spent up to now is     2255.1 secs

     Computing kpt #:  1060  of  1401
     total cpu time spent up to now is     2257.0 secs

     Computing kpt #:  1061  of  1401
     total cpu time spent up to now is     2258.9 secs

     Computing kpt #:  1062  of  1401
     total cpu time spent up to now is     2260.7 secs

     Computing kpt #:  1063  of  1401
     total cpu time spent up to now is     2262.7 secs

     Computing kpt #:  1064  of  1401
     total cpu time spent up to now is     2264.7 secs

     Computing kpt #:  1065  of  1401
     total cpu time spent up to now is     2266.5 secs

     Computing kpt #:  1066  of  1401
     total cpu time spent up to now is     2268.3 secs

     Computing kpt #:  1067  of  1401
     total cpu time spent up to now is     2270.2 secs

     Computing kpt #:  1068  of  1401
     total cpu time spent up to now is     2272.1 secs

     Computing kpt #:  1069  of  1401
     total cpu time spent up to now is     2274.0 secs

     Computing kpt #:  1070  of  1401
     total cpu time spent up to now is     2275.9 secs

     Computing kpt #:  1071  of  1401
     total cpu time spent up to now is     2277.7 secs

     Computing kpt #:  1072  of  1401
     total cpu time spent up to now is     2279.6 secs

     Computing kpt #:  1073  of  1401
     total cpu time spent up to now is     2281.3 secs

     Computing kpt #:  1074  of  1401
     total cpu time spent up to now is     2283.2 secs

     Computing kpt #:  1075  of  1401
     total cpu time spent up to now is     2285.0 secs

     Computing kpt #:  1076  of  1401
     total cpu time spent up to now is     2286.9 secs

     Computing kpt #:  1077  of  1401
     total cpu time spent up to now is     2288.7 secs

     Computing kpt #:  1078  of  1401
     total cpu time spent up to now is     2290.5 secs

     Computing kpt #:  1079  of  1401
     total cpu time spent up to now is     2292.3 secs

     Computing kpt #:  1080  of  1401
     total cpu time spent up to now is     2294.0 secs

     Computing kpt #:  1081  of  1401
     total cpu time spent up to now is     2295.8 secs

     Computing kpt #:  1082  of  1401
     c_bands:  1 eigenvalues not converged
     total cpu time spent up to now is     2297.8 secs

     Computing kpt #:  1083  of  1401
     c_bands:  1 eigenvalues not converged
     total cpu time spent up to now is     2300.5 secs

     Computing kpt #:  1084  of  1401
     c_bands:  1 eigenvalues not converged
     total cpu time spent up to now is     2302.5 secs

     Computing kpt #:  1085  of  1401
     c_bands:  1 eigenvalues not converged
     total cpu time spent up to now is     2304.5 secs

     Computing kpt #:  1086  of  1401
     c_bands:  1 eigenvalues not converged
     total cpu time spent up to now is     2306.5 secs

     Computing kpt #:  1087  of  1401
     c_bands:  1 eigenvalues not converged
     total cpu time spent up to now is     2308.4 secs

     Computing kpt #:  1088  of  1401
     c_bands:  1 eigenvalues not converged
     total cpu time spent up to now is     2310.5 secs

     Computing kpt #:  1089  of  1401
     c_bands:  1 eigenvalues not converged
     total cpu time spent up to now is     2312.5 secs

     Computing kpt #:  1090  of  1401
     c_bands:  1 eigenvalues not converged
     total cpu time spent up to now is     2314.4 secs

     Computing kpt #:  1091  of  1401
     c_bands:  1 eigenvalues not converged
     total cpu time spent up to now is     2316.6 secs

     Computing kpt #:  1092  of  1401
     c_bands:  1 eigenvalues not converged
     total cpu time spent up to now is     2318.6 secs

     Computing kpt #:  1093  of  1401
     c_bands:  1 eigenvalues not converged
     total cpu time spent up to now is     2320.6 secs

     Computing kpt #:  1094  of  1401
     c_bands:  1 eigenvalues not converged
     total cpu time spent up to now is     2322.7 secs

     Computing kpt #:  1095  of  1401
     c_bands:  1 eigenvalues not converged
     total cpu time spent up to now is     2325.0 secs

     Computing kpt #:  1096  of  1401
     c_bands:  1 eigenvalues not converged
     total cpu time spent up to now is     2326.9 secs

     Computing kpt #:  1097  of  1401
     c_bands:  1 eigenvalues not converged
     total cpu time spent up to now is     2328.9 secs

     Computing kpt #:  1098  of  1401
     c_bands:  1 eigenvalues not converged
     total cpu time spent up to now is     2331.0 secs

     Computing kpt #:  1099  of  1401
     c_bands:  1 eigenvalues not converged
     total cpu time spent up to now is     2333.1 secs

     Computing kpt #:  1100  of  1401
     c_bands:  1 eigenvalues not converged
     total cpu time spent up to now is     2335.0 secs

     Computing kpt #:  1101  of  1401
     c_bands:  1 eigenvalues not converged
     total cpu time spent up to now is     2337.0 secs

     Computing kpt #:  1102  of  1401
     c_bands:  1 eigenvalues not converged
     total cpu time spent up to now is     2339.0 secs

     Computing kpt #:  1103  of  1401
     c_bands:  1 eigenvalues not converged
     total cpu time spent up to now is     2341.0 secs

     Computing kpt #:  1104  of  1401
     c_bands:  1 eigenvalues not converged
     total cpu time spent up to now is     2343.0 secs

     Computing kpt #:  1105  of  1401
     c_bands:  1 eigenvalues not converged
     total cpu time spent up to now is     2344.9 secs

     Computing kpt #:  1106  of  1401
     c_bands:  1 eigenvalues not converged
     total cpu time spent up to now is     2346.9 secs

     Computing kpt #:  1107  of  1401
     c_bands:  1 eigenvalues not converged
     total cpu time spent up to now is     2348.9 secs

     Computing kpt #:  1108  of  1401
     c_bands:  1 eigenvalues not converged
     total cpu time spent up to now is     2350.8 secs

     Computing kpt #:  1109  of  1401
     c_bands:  1 eigenvalues not converged
     total cpu time spent up to now is     2352.8 secs

     Computing kpt #:  1110  of  1401
     c_bands:  1 eigenvalues not converged
     total cpu time spent up to now is     2354.8 secs

     Computing kpt #:  1111  of  1401
     c_bands:  1 eigenvalues not converged
     total cpu time spent up to now is     2356.8 secs

     Computing kpt #:  1112  of  1401
     c_bands:  1 eigenvalues not converged
     total cpu time spent up to now is     2359.8 secs

     Computing kpt #:  1113  of  1401
     c_bands:  1 eigenvalues not converged
     total cpu time spent up to now is     2362.1 secs

     Computing kpt #:  1114  of  1401
     c_bands:  1 eigenvalues not converged
     total cpu time spent up to now is     2364.2 secs

     Computing kpt #:  1115  of  1401
     c_bands:  1 eigenvalues not converged
     total cpu time spent up to now is     2366.3 secs

     Computing kpt #:  1116  of  1401
     c_bands:  1 eigenvalues not converged
     total cpu time spent up to now is     2368.3 secs

     Computing kpt #:  1117  of  1401
     c_bands:  1 eigenvalues not converged
     total cpu time spent up to now is     2370.3 secs

     Computing kpt #:  1118  of  1401
     c_bands:  1 eigenvalues not converged
     total cpu time spent up to now is     2372.4 secs

     Computing kpt #:  1119  of  1401
     c_bands:  1 eigenvalues not converged
     total cpu time spent up to now is     2374.4 secs

     Computing kpt #:  1120  of  1401
     c_bands:  1 eigenvalues not converged
     total cpu time spent up to now is     2376.6 secs

     Computing kpt #:  1121  of  1401
     c_bands:  1 eigenvalues not converged
     total cpu time spent up to now is     2378.6 secs

     Computing kpt #:  1122  of  1401
     c_bands:  1 eigenvalues not converged
     total cpu time spent up to now is     2380.8 secs

     Computing kpt #:  1123  of  1401
     c_bands:  1 eigenvalues not converged
     total cpu time spent up to now is     2382.9 secs

     Computing kpt #:  1124  of  1401
     c_bands:  1 eigenvalues not converged
     total cpu time spent up to now is     2384.9 secs

     Computing kpt #:  1125  of  1401
     c_bands:  1 eigenvalues not converged
     total cpu time spent up to now is     2387.0 secs

     Computing kpt #:  1126  of  1401
     c_bands:  1 eigenvalues not converged
     total cpu time spent up to now is     2389.1 secs

     Computing kpt #:  1127  of  1401
     c_bands:  1 eigenvalues not converged
     total cpu time spent up to now is     2391.2 secs

     Computing kpt #:  1128  of  1401
     c_bands:  1 eigenvalues not converged
     total cpu time spent up to now is     2393.3 secs

     Computing kpt #:  1129  of  1401
     c_bands:  1 eigenvalues not converged
     total cpu time spent up to now is     2395.4 secs

     Computing kpt #:  1130  of  1401
     c_bands:  1 eigenvalues not converged
     total cpu time spent up to now is     2397.6 secs

     Computing kpt #:  1131  of  1401
     c_bands:  1 eigenvalues not converged
     total cpu time spent up to now is     2400.0 secs

     Computing kpt #:  1132  of  1401
     c_bands:  1 eigenvalues not converged
     total cpu time spent up to now is     2402.2 secs

     Computing kpt #:  1133  of  1401
     c_bands:  1 eigenvalues not converged
     total cpu time spent up to now is     2404.5 secs

     Computing kpt #:  1134  of  1401
     c_bands:  1 eigenvalues not converged
     total cpu time spent up to now is     2406.7 secs

     Computing kpt #:  1135  of  1401
     c_bands:  1 eigenvalues not converged
     total cpu time spent up to now is     2408.8 secs

     Computing kpt #:  1136  of  1401
     c_bands:  1 eigenvalues not converged
     total cpu time spent up to now is     2411.0 secs

     Computing kpt #:  1137  of  1401
     c_bands:  1 eigenvalues not converged
     total cpu time spent up to now is     2413.3 secs

     Computing kpt #:  1138  of  1401
     c_bands:  1 eigenvalues not converged
     total cpu time spent up to now is     2415.4 secs

     Computing kpt #:  1139  of  1401
     c_bands:  1 eigenvalues not converged
     total cpu time spent up to now is     2418.0 secs

     Computing kpt #:  1140  of  1401
     c_bands:  1 eigenvalues not converged
     total cpu time spent up to now is     2421.3 secs

     Computing kpt #:  1141  of  1401
     c_bands:  1 eigenvalues not converged
     total cpu time spent up to now is     2423.8 secs

     Computing kpt #:  1142  of  1401
     c_bands:  1 eigenvalues not converged
     total cpu time spent up to now is     2426.4 secs

     Computing kpt #:  1143  of  1401
     c_bands:  1 eigenvalues not converged
     total cpu time spent up to now is     2428.8 secs

     Computing kpt #:  1144  of  1401
     c_bands:  1 eigenvalues not converged
     total cpu time spent up to now is     2430.9 secs

     Computing kpt #:  1145  of  1401
     c_bands:  1 eigenvalues not converged
     total cpu time spent up to now is     2433.0 secs

     Computing kpt #:  1146  of  1401
     c_bands:  1 eigenvalues not converged
     total cpu time spent up to now is     2435.2 secs

     Computing kpt #:  1147  of  1401
     c_bands:  1 eigenvalues not converged
     total cpu time spent up to now is     2437.6 secs

     Computing kpt #:  1148  of  1401
     c_bands:  1 eigenvalues not converged
     total cpu time spent up to now is     2439.6 secs

     Computing kpt #:  1149  of  1401
     c_bands:  1 eigenvalues not converged
     total cpu time spent up to now is     2441.7 secs

     Computing kpt #:  1150  of  1401
     c_bands:  1 eigenvalues not converged
     total cpu time spent up to now is     2444.0 secs

     Computing kpt #:  1151  of  1401
     c_bands:  1 eigenvalues not converged
     total cpu time spent up to now is     2446.6 secs

     Computing kpt #:  1152  of  1401
     c_bands:  1 eigenvalues not converged
     total cpu time spent up to now is     2449.3 secs

     Computing kpt #:  1153  of  1401
     c_bands:  1 eigenvalues not converged
     total cpu time spent up to now is     2451.7 secs

     Computing kpt #:  1154  of  1401
     c_bands:  1 eigenvalues not converged
     total cpu time spent up to now is     2454.1 secs

     Computing kpt #:  1155  of  1401
     c_bands:  1 eigenvalues not converged
     total cpu time spent up to now is     2456.4 secs

     Computing kpt #:  1156  of  1401
     c_bands:  1 eigenvalues not converged
     total cpu time spent up to now is     2458.6 secs

     Computing kpt #:  1157  of  1401
     c_bands:  1 eigenvalues not converged
     total cpu time spent up to now is     2460.6 secs

     Computing kpt #:  1158  of  1401
     c_bands:  1 eigenvalues not converged
     total cpu time spent up to now is     2462.7 secs

     Computing kpt #:  1159  of  1401
     c_bands:  1 eigenvalues not converged
     total cpu time spent up to now is     2464.8 secs

     Computing kpt #:  1160  of  1401
     c_bands:  1 eigenvalues not converged
     total cpu time spent up to now is     2467.2 secs

     Computing kpt #:  1161  of  1401
     c_bands:  1 eigenvalues not converged
     total cpu time spent up to now is     2469.8 secs

     Computing kpt #:  1162  of  1401
     c_bands:  1 eigenvalues not converged
     total cpu time spent up to now is     2472.2 secs

     Computing kpt #:  1163  of  1401
     c_bands:  1 eigenvalues not converged
     total cpu time spent up to now is     2474.4 secs

     Computing kpt #:  1164  of  1401
     c_bands:  1 eigenvalues not converged
     total cpu time spent up to now is     2476.6 secs

     Computing kpt #:  1165  of  1401
     c_bands:  1 eigenvalues not converged
     total cpu time spent up to now is     2479.1 secs

     Computing kpt #:  1166  of  1401
     c_bands:  1 eigenvalues not converged
     total cpu time spent up to now is     2481.3 secs

     Computing kpt #:  1167  of  1401
     c_bands:  1 eigenvalues not converged
     total cpu time spent up to now is     2483.4 secs

     Computing kpt #:  1168  of  1401
     c_bands:  1 eigenvalues not converged
     total cpu time spent up to now is     2485.5 secs

     Computing kpt #:  1169  of  1401
     c_bands:  1 eigenvalues not converged
     total cpu time spent up to now is     2487.5 secs

     Computing kpt #:  1170  of  1401
     c_bands:  1 eigenvalues not converged
     total cpu time spent up to now is     2489.6 secs

     Computing kpt #:  1171  of  1401
     c_bands:  1 eigenvalues not converged
     total cpu time spent up to now is     2491.6 secs

     Computing kpt #:  1172  of  1401
     c_bands:  1 eigenvalues not converged
     total cpu time spent up to now is     2493.6 secs

     Computing kpt #:  1173  of  1401
     c_bands:  1 eigenvalues not converged
     total cpu time spent up to now is     2495.7 secs

     Computing kpt #:  1174  of  1401
     c_bands:  1 eigenvalues not converged
     total cpu time spent up to now is     2497.7 secs

     Computing kpt #:  1175  of  1401
     c_bands:  1 eigenvalues not converged
     total cpu time spent up to now is     2499.8 secs

     Computing kpt #:  1176  of  1401
     c_bands:  1 eigenvalues not converged
     total cpu time spent up to now is     2502.0 secs

     Computing kpt #:  1177  of  1401
     c_bands:  1 eigenvalues not converged
     total cpu time spent up to now is     2504.1 secs

     Computing kpt #:  1178  of  1401
     c_bands:  1 eigenvalues not converged
     total cpu time spent up to now is     2506.2 secs

     Computing kpt #:  1179  of  1401
     c_bands:  1 eigenvalues not converged
     total cpu time spent up to now is     2508.4 secs

     Computing kpt #:  1180  of  1401
     c_bands:  1 eigenvalues not converged
     total cpu time spent up to now is     2510.5 secs

     Computing kpt #:  1181  of  1401
     c_bands:  1 eigenvalues not converged
     total cpu time spent up to now is     2512.6 secs

     Computing kpt #:  1182  of  1401
     c_bands:  1 eigenvalues not converged
     total cpu time spent up to now is     2514.7 secs

     Computing kpt #:  1183  of  1401
     c_bands:  1 eigenvalues not converged
     total cpu time spent up to now is     2516.7 secs

     Computing kpt #:  1184  of  1401
     c_bands:  1 eigenvalues not converged
     total cpu time spent up to now is     2518.8 secs

     Computing kpt #:  1185  of  1401
     c_bands:  1 eigenvalues not converged
     total cpu time spent up to now is     2520.9 secs

     Computing kpt #:  1186  of  1401
     c_bands:  1 eigenvalues not converged
     total cpu time spent up to now is     2523.1 secs

     Computing kpt #:  1187  of  1401
     c_bands:  1 eigenvalues not converged
     total cpu time spent up to now is     2525.2 secs

     Computing kpt #:  1188  of  1401
     c_bands:  1 eigenvalues not converged
     total cpu time spent up to now is     2527.4 secs

     Computing kpt #:  1189  of  1401
     c_bands:  1 eigenvalues not converged
     total cpu time spent up to now is     2529.5 secs

     Computing kpt #:  1190  of  1401
     c_bands:  1 eigenvalues not converged
     total cpu time spent up to now is     2531.6 secs

     Computing kpt #:  1191  of  1401
     c_bands:  1 eigenvalues not converged
     total cpu time spent up to now is     2533.6 secs

     Computing kpt #:  1192  of  1401
     c_bands:  1 eigenvalues not converged
     total cpu time spent up to now is     2535.6 secs

     Computing kpt #:  1193  of  1401
     c_bands:  1 eigenvalues not converged
     total cpu time spent up to now is     2537.6 secs

     Computing kpt #:  1194  of  1401
     c_bands:  1 eigenvalues not converged
     total cpu time spent up to now is     2540.1 secs

     Computing kpt #:  1195  of  1401
     c_bands:  1 eigenvalues not converged
     total cpu time spent up to now is     2542.2 secs

     Computing kpt #:  1196  of  1401
     c_bands:  1 eigenvalues not converged
     total cpu time spent up to now is     2544.4 secs

     Computing kpt #:  1197  of  1401
     c_bands:  1 eigenvalues not converged
     total cpu time spent up to now is     2546.5 secs

     Computing kpt #:  1198  of  1401
     c_bands:  1 eigenvalues not converged
     total cpu time spent up to now is     2548.6 secs

     Computing kpt #:  1199  of  1401
     c_bands:  1 eigenvalues not converged
     total cpu time spent up to now is     2550.7 secs

     Computing kpt #:  1200  of  1401
     c_bands:  1 eigenvalues not converged
     total cpu time spent up to now is     2552.8 secs

     Computing kpt #:  1201  of  1401
     c_bands:  1 eigenvalues not converged
     total cpu time spent up to now is     2554.9 secs

     Computing kpt #:  1202  of  1401
     c_bands:  1 eigenvalues not converged
     total cpu time spent up to now is     2557.1 secs

     Computing kpt #:  1203  of  1401
     c_bands:  1 eigenvalues not converged
     total cpu time spent up to now is     2559.3 secs

     Computing kpt #:  1204  of  1401
     c_bands:  1 eigenvalues not converged
     total cpu time spent up to now is     2561.5 secs

     Computing kpt #:  1205  of  1401
     c_bands:  1 eigenvalues not converged
     total cpu time spent up to now is     2563.7 secs

     Computing kpt #:  1206  of  1401
     c_bands:  1 eigenvalues not converged
     total cpu time spent up to now is     2565.8 secs

     Computing kpt #:  1207  of  1401
     c_bands:  1 eigenvalues not converged
     total cpu time spent up to now is     2568.0 secs

     Computing kpt #:  1208  of  1401
     c_bands:  1 eigenvalues not converged
     total cpu time spent up to now is     2570.1 secs

     Computing kpt #:  1209  of  1401
     c_bands:  1 eigenvalues not converged
     total cpu time spent up to now is     2572.2 secs

     Computing kpt #:  1210  of  1401
     c_bands:  1 eigenvalues not converged
     total cpu time spent up to now is     2574.3 secs

     Computing kpt #:  1211  of  1401
     c_bands:  1 eigenvalues not converged
     total cpu time spent up to now is     2576.5 secs

     Computing kpt #:  1212  of  1401
     c_bands:  1 eigenvalues not converged
     total cpu time spent up to now is     2578.6 secs

     Computing kpt #:  1213  of  1401
     c_bands:  1 eigenvalues not converged
     total cpu time spent up to now is     2580.8 secs

     Computing kpt #:  1214  of  1401
     c_bands:  1 eigenvalues not converged
     total cpu time spent up to now is     2582.9 secs

     Computing kpt #:  1215  of  1401
     c_bands:  1 eigenvalues not converged
     total cpu time spent up to now is     2585.1 secs

     Computing kpt #:  1216  of  1401
     c_bands:  1 eigenvalues not converged
     total cpu time spent up to now is     2587.2 secs

     Computing kpt #:  1217  of  1401
     c_bands:  1 eigenvalues not converged
     total cpu time spent up to now is     2589.3 secs

     Computing kpt #:  1218  of  1401
     c_bands:  1 eigenvalues not converged
     total cpu time spent up to now is     2591.4 secs

     Computing kpt #:  1219  of  1401
     c_bands:  1 eigenvalues not converged
     total cpu time spent up to now is     2593.5 secs

     Computing kpt #:  1220  of  1401
     c_bands:  1 eigenvalues not converged
     total cpu time spent up to now is     2595.6 secs

     Computing kpt #:  1221  of  1401
     c_bands:  1 eigenvalues not converged
     total cpu time spent up to now is     2598.2 secs

     Computing kpt #:  1222  of  1401
     c_bands:  1 eigenvalues not converged
     total cpu time spent up to now is     2601.5 secs

     Computing kpt #:  1223  of  1401
     c_bands:  1 eigenvalues not converged
     total cpu time spent up to now is     2603.7 secs

     Computing kpt #:  1224  of  1401
     c_bands:  1 eigenvalues not converged
     total cpu time spent up to now is     2605.8 secs

     Computing kpt #:  1225  of  1401
     c_bands:  1 eigenvalues not converged
     total cpu time spent up to now is     2607.9 secs

     Computing kpt #:  1226  of  1401
     c_bands:  1 eigenvalues not converged
     total cpu time spent up to now is     2610.1 secs

     Computing kpt #:  1227  of  1401
     c_bands:  1 eigenvalues not converged
     total cpu time spent up to now is     2612.2 secs

     Computing kpt #:  1228  of  1401
     c_bands:  1 eigenvalues not converged
     total cpu time spent up to now is     2614.3 secs

     Computing kpt #:  1229  of  1401
     c_bands:  1 eigenvalues not converged
     total cpu time spent up to now is     2616.4 secs

     Computing kpt #:  1230  of  1401
     c_bands:  1 eigenvalues not converged
     total cpu time spent up to now is     2618.6 secs

     Computing kpt #:  1231  of  1401
     c_bands:  1 eigenvalues not converged
     total cpu time spent up to now is     2620.7 secs

     Computing kpt #:  1232  of  1401
     c_bands:  1 eigenvalues not converged
     total cpu time spent up to now is     2623.0 secs

     Computing kpt #:  1233  of  1401
     c_bands:  1 eigenvalues not converged
     total cpu time spent up to now is     2625.1 secs

     Computing kpt #:  1234  of  1401
     c_bands:  1 eigenvalues not converged
     total cpu time spent up to now is     2627.3 secs

     Computing kpt #:  1235  of  1401
     c_bands:  1 eigenvalues not converged
     total cpu time spent up to now is     2629.5 secs

     Computing kpt #:  1236  of  1401
     c_bands:  1 eigenvalues not converged
     total cpu time spent up to now is     2631.5 secs

     Computing kpt #:  1237  of  1401
     c_bands:  1 eigenvalues not converged
     total cpu time spent up to now is     2633.7 secs

     Computing kpt #:  1238  of  1401
     c_bands:  1 eigenvalues not converged
     total cpu time spent up to now is     2635.8 secs

     Computing kpt #:  1239  of  1401
     c_bands:  1 eigenvalues not converged
     total cpu time spent up to now is     2638.1 secs

     Computing kpt #:  1240  of  1401
     c_bands:  1 eigenvalues not converged
     total cpu time spent up to now is     2640.2 secs

     Computing kpt #:  1241  of  1401
     c_bands:  1 eigenvalues not converged
     total cpu time spent up to now is     2642.4 secs

     Computing kpt #:  1242  of  1401
     c_bands:  1 eigenvalues not converged
     total cpu time spent up to now is     2644.8 secs

     Computing kpt #:  1243  of  1401
     c_bands:  1 eigenvalues not converged
     total cpu time spent up to now is     2647.0 secs

     Computing kpt #:  1244  of  1401
     c_bands:  1 eigenvalues not converged
     total cpu time spent up to now is     2649.4 secs

     Computing kpt #:  1245  of  1401
     c_bands:  1 eigenvalues not converged
     total cpu time spent up to now is     2651.5 secs

     Computing kpt #:  1246  of  1401
     c_bands:  1 eigenvalues not converged
     total cpu time spent up to now is     2653.7 secs

     Computing kpt #:  1247  of  1401
     c_bands:  1 eigenvalues not converged
     total cpu time spent up to now is     2655.8 secs

     Computing kpt #:  1248  of  1401
     c_bands:  1 eigenvalues not converged
     total cpu time spent up to now is     2658.2 secs

     Computing kpt #:  1249  of  1401
     c_bands:  1 eigenvalues not converged
     total cpu time spent up to now is     2661.5 secs

     Computing kpt #:  1250  of  1401
     c_bands:  1 eigenvalues not converged
     total cpu time spent up to now is     2663.9 secs

     Computing kpt #:  1251  of  1401
     c_bands:  1 eigenvalues not converged
     total cpu time spent up to now is     2666.1 secs

     Computing kpt #:  1252  of  1401
     c_bands:  1 eigenvalues not converged
     total cpu time spent up to now is     2668.4 secs

     Computing kpt #:  1253  of  1401
     c_bands:  1 eigenvalues not converged
     total cpu time spent up to now is     2670.6 secs

     Computing kpt #:  1254  of  1401
     c_bands:  1 eigenvalues not converged
     total cpu time spent up to now is     2672.9 secs

     Computing kpt #:  1255  of  1401
     c_bands:  1 eigenvalues not converged
     total cpu time spent up to now is     2675.1 secs

     Computing kpt #:  1256  of  1401
     c_bands:  1 eigenvalues not converged
     total cpu time spent up to now is     2677.7 secs

     Computing kpt #:  1257  of  1401
     c_bands:  1 eigenvalues not converged
     total cpu time spent up to now is     2679.9 secs

     Computing kpt #:  1258  of  1401
     c_bands:  1 eigenvalues not converged
     total cpu time spent up to now is     2682.2 secs

     Computing kpt #:  1259  of  1401
     c_bands:  1 eigenvalues not converged
     total cpu time spent up to now is     2684.7 secs

     Computing kpt #:  1260  of  1401
     c_bands:  1 eigenvalues not converged
     total cpu time spent up to now is     2687.0 secs

     Computing kpt #:  1261  of  1401
     c_bands:  1 eigenvalues not converged
     total cpu time spent up to now is     2689.5 secs

     Computing kpt #:  1262  of  1401
     c_bands:  1 eigenvalues not converged
     total cpu time spent up to now is     2691.8 secs

     Computing kpt #:  1263  of  1401
     c_bands:  1 eigenvalues not converged
     total cpu time spent up to now is     2694.1 secs

     Computing kpt #:  1264  of  1401
     c_bands:  1 eigenvalues not converged
     total cpu time spent up to now is     2696.6 secs

     Computing kpt #:  1265  of  1401
     c_bands:  1 eigenvalues not converged
     total cpu time spent up to now is     2698.8 secs

     Computing kpt #:  1266  of  1401
     c_bands:  1 eigenvalues not converged
     total cpu time spent up to now is     2701.4 secs

     Computing kpt #:  1267  of  1401
     c_bands:  1 eigenvalues not converged
     total cpu time spent up to now is     2703.7 secs

     Computing kpt #:  1268  of  1401
     c_bands:  1 eigenvalues not converged
     total cpu time spent up to now is     2706.0 secs

     Computing kpt #:  1269  of  1401
     c_bands:  1 eigenvalues not converged
     total cpu time spent up to now is     2708.7 secs

     Computing kpt #:  1270  of  1401
     c_bands:  1 eigenvalues not converged
     total cpu time spent up to now is     2710.9 secs

     Computing kpt #:  1271  of  1401
     c_bands:  1 eigenvalues not converged
     total cpu time spent up to now is     2713.1 secs

     Computing kpt #:  1272  of  1401
     c_bands:  1 eigenvalues not converged
     total cpu time spent up to now is     2715.3 secs

     Computing kpt #:  1273  of  1401
     c_bands:  1 eigenvalues not converged
     total cpu time spent up to now is     2717.5 secs

     Computing kpt #:  1274  of  1401
     c_bands:  1 eigenvalues not converged
     total cpu time spent up to now is     2720.4 secs

     Computing kpt #:  1275  of  1401
     c_bands:  1 eigenvalues not converged
     total cpu time spent up to now is     2723.0 secs

     Computing kpt #:  1276  of  1401
     c_bands:  1 eigenvalues not converged
     total cpu time spent up to now is     2725.2 secs

     Computing kpt #:  1277  of  1401
     c_bands:  1 eigenvalues not converged
     total cpu time spent up to now is     2727.5 secs

     Computing kpt #:  1278  of  1401
     c_bands:  1 eigenvalues not converged
     total cpu time spent up to now is     2729.8 secs

     Computing kpt #:  1279  of  1401
     c_bands:  1 eigenvalues not converged
     total cpu time spent up to now is     2731.9 secs

     Computing kpt #:  1280  of  1401
     c_bands:  1 eigenvalues not converged
     total cpu time spent up to now is     2734.2 secs

     Computing kpt #:  1281  of  1401
     c_bands:  1 eigenvalues not converged
     total cpu time spent up to now is     2736.5 secs

     Computing kpt #:  1282  of  1401
     c_bands:  1 eigenvalues not converged
     total cpu time spent up to now is     2739.0 secs

     Computing kpt #:  1283  of  1401
     c_bands:  1 eigenvalues not converged
     total cpu time spent up to now is     2741.2 secs

     Computing kpt #:  1284  of  1401
     c_bands:  1 eigenvalues not converged
     total cpu time spent up to now is     2743.5 secs

     Computing kpt #:  1285  of  1401
     c_bands:  1 eigenvalues not converged
     total cpu time spent up to now is     2745.7 secs

     Computing kpt #:  1286  of  1401
     c_bands:  1 eigenvalues not converged
     total cpu time spent up to now is     2747.9 secs

     Computing kpt #:  1287  of  1401
     c_bands:  1 eigenvalues not converged
     total cpu time spent up to now is     2750.1 secs

     Computing kpt #:  1288  of  1401
     c_bands:  1 eigenvalues not converged
     total cpu time spent up to now is     2752.6 secs

     Computing kpt #:  1289  of  1401
     c_bands:  1 eigenvalues not converged
     total cpu time spent up to now is     2754.8 secs

     Computing kpt #:  1290  of  1401
     c_bands:  1 eigenvalues not converged
     total cpu time spent up to now is     2757.0 secs

     Computing kpt #:  1291  of  1401
     c_bands:  1 eigenvalues not converged
     total cpu time spent up to now is     2759.3 secs

     Computing kpt #:  1292  of  1401
     c_bands:  1 eigenvalues not converged
     total cpu time spent up to now is     2761.5 secs

     Computing kpt #:  1293  of  1401
     c_bands:  1 eigenvalues not converged
     total cpu time spent up to now is     2763.8 secs

     Computing kpt #:  1294  of  1401
     c_bands:  1 eigenvalues not converged
     total cpu time spent up to now is     2765.9 secs

     Computing kpt #:  1295  of  1401
     c_bands:  1 eigenvalues not converged
     total cpu time spent up to now is     2768.2 secs

     Computing kpt #:  1296  of  1401
     c_bands:  1 eigenvalues not converged
     total cpu time spent up to now is     2770.4 secs

     Computing kpt #:  1297  of  1401
     c_bands:  1 eigenvalues not converged
     total cpu time spent up to now is     2772.7 secs

     Computing kpt #:  1298  of  1401
     c_bands:  1 eigenvalues not converged
     total cpu time spent up to now is     2775.0 secs

     Computing kpt #:  1299  of  1401
     c_bands:  1 eigenvalues not converged
     total cpu time spent up to now is     2777.2 secs

     Computing kpt #:  1300  of  1401
     c_bands:  1 eigenvalues not converged
     total cpu time spent up to now is     2780.2 secs

     Computing kpt #:  1301  of  1401
     c_bands:  1 eigenvalues not converged
     total cpu time spent up to now is     2782.5 secs

     Computing kpt #:  1302  of  1401
     c_bands:  1 eigenvalues not converged
     total cpu time spent up to now is     2784.9 secs

     Computing kpt #:  1303  of  1401
     c_bands:  1 eigenvalues not converged
     total cpu time spent up to now is     2787.1 secs

     Computing kpt #:  1304  of  1401
     c_bands:  1 eigenvalues not converged
     total cpu time spent up to now is     2789.5 secs

     Computing kpt #:  1305  of  1401
     c_bands:  1 eigenvalues not converged
     total cpu time spent up to now is     2791.6 secs

     Computing kpt #:  1306  of  1401
     c_bands:  1 eigenvalues not converged
     total cpu time spent up to now is     2793.8 secs

     Computing kpt #:  1307  of  1401
     c_bands:  1 eigenvalues not converged
     total cpu time spent up to now is     2796.0 secs

     Computing kpt #:  1308  of  1401
     c_bands:  1 eigenvalues not converged
     total cpu time spent up to now is     2798.2 secs

     Computing kpt #:  1309  of  1401
     c_bands:  1 eigenvalues not converged
     total cpu time spent up to now is     2800.5 secs

     Computing kpt #:  1310  of  1401
     c_bands:  2 eigenvalues not converged
     total cpu time spent up to now is     2802.8 secs

     Computing kpt #:  1311  of  1401
     c_bands:  2 eigenvalues not converged
     total cpu time spent up to now is     2805.1 secs

     Computing kpt #:  1312  of  1401
     c_bands:  2 eigenvalues not converged
     total cpu time spent up to now is     2807.4 secs

     Computing kpt #:  1313  of  1401
     c_bands:  2 eigenvalues not converged
     total cpu time spent up to now is     2810.0 secs

     Computing kpt #:  1314  of  1401
     c_bands:  1 eigenvalues not converged
     total cpu time spent up to now is     2812.3 secs

     Computing kpt #:  1315  of  1401
     c_bands:  2 eigenvalues not converged
     total cpu time spent up to now is     2814.6 secs

     Computing kpt #:  1316  of  1401
     c_bands:  2 eigenvalues not converged
     total cpu time spent up to now is     2816.9 secs

     Computing kpt #:  1317  of  1401
     c_bands:  2 eigenvalues not converged
     total cpu time spent up to now is     2819.2 secs

     Computing kpt #:  1318  of  1401
     c_bands:  1 eigenvalues not converged
     total cpu time spent up to now is     2821.5 secs

     Computing kpt #:  1319  of  1401
     c_bands:  2 eigenvalues not converged
     total cpu time spent up to now is     2824.0 secs

     Computing kpt #:  1320  of  1401
     c_bands:  1 eigenvalues not converged
     total cpu time spent up to now is     2826.3 secs

     Computing kpt #:  1321  of  1401
     c_bands:  1 eigenvalues not converged
     total cpu time spent up to now is     2828.7 secs

     Computing kpt #:  1322  of  1401
     c_bands:  2 eigenvalues not converged
     total cpu time spent up to now is     2831.0 secs

     Computing kpt #:  1323  of  1401
     c_bands:  2 eigenvalues not converged
     total cpu time spent up to now is     2833.3 secs

     Computing kpt #:  1324  of  1401
     c_bands:  2 eigenvalues not converged
     total cpu time spent up to now is     2835.6 secs

     Computing kpt #:  1325  of  1401
     c_bands:  2 eigenvalues not converged
     total cpu time spent up to now is     2838.2 secs

     Computing kpt #:  1326  of  1401
     c_bands:  2 eigenvalues not converged
     total cpu time spent up to now is     2841.1 secs

     Computing kpt #:  1327  of  1401
     c_bands:  3 eigenvalues not converged
     total cpu time spent up to now is     2843.7 secs

     Computing kpt #:  1328  of  1401
     c_bands:  1 eigenvalues not converged
     total cpu time spent up to now is     2845.9 secs

     Computing kpt #:  1329  of  1401
     c_bands:  1 eigenvalues not converged
     total cpu time spent up to now is     2848.2 secs

     Computing kpt #:  1330  of  1401
     c_bands:  2 eigenvalues not converged
     total cpu time spent up to now is     2850.6 secs

     Computing kpt #:  1331  of  1401
     c_bands:  3 eigenvalues not converged
     total cpu time spent up to now is     2852.9 secs

     Computing kpt #:  1332  of  1401
     c_bands:  1 eigenvalues not converged
     total cpu time spent up to now is     2855.1 secs

     Computing kpt #:  1333  of  1401
     c_bands:  2 eigenvalues not converged
     total cpu time spent up to now is     2857.6 secs

     Computing kpt #:  1334  of  1401
     c_bands:  3 eigenvalues not converged
     total cpu time spent up to now is     2860.0 secs

     Computing kpt #:  1335  of  1401
     c_bands:  2 eigenvalues not converged
     total cpu time spent up to now is     2862.4 secs

     Computing kpt #:  1336  of  1401
     c_bands:  2 eigenvalues not converged
     total cpu time spent up to now is     2864.8 secs

     Computing kpt #:  1337  of  1401
     c_bands:  2 eigenvalues not converged
     total cpu time spent up to now is     2867.1 secs

     Computing kpt #:  1338  of  1401
     c_bands:  2 eigenvalues not converged
     total cpu time spent up to now is     2869.5 secs

     Computing kpt #:  1339  of  1401
     c_bands:  2 eigenvalues not converged
     total cpu time spent up to now is     2871.9 secs

     Computing kpt #:  1340  of  1401
     c_bands:  2 eigenvalues not converged
     total cpu time spent up to now is     2874.3 secs

     Computing kpt #:  1341  of  1401
     c_bands:  2 eigenvalues not converged
     total cpu time spent up to now is     2877.1 secs

     Computing kpt #:  1342  of  1401
     c_bands:  2 eigenvalues not converged
     total cpu time spent up to now is     2879.5 secs

     Computing kpt #:  1343  of  1401
     c_bands:  3 eigenvalues not converged
     total cpu time spent up to now is     2881.7 secs

     Computing kpt #:  1344  of  1401
     c_bands:  2 eigenvalues not converged
     total cpu time spent up to now is     2884.4 secs

     Computing kpt #:  1345  of  1401
     c_bands:  2 eigenvalues not converged
     total cpu time spent up to now is     2887.3 secs

     Computing kpt #:  1346  of  1401
     c_bands:  3 eigenvalues not converged
     total cpu time spent up to now is     2890.0 secs

     Computing kpt #:  1347  of  1401
     c_bands:  2 eigenvalues not converged
     total cpu time spent up to now is     2892.2 secs

     Computing kpt #:  1348  of  1401
     c_bands:  2 eigenvalues not converged
     total cpu time spent up to now is     2894.5 secs

     Computing kpt #:  1349  of  1401
     c_bands:  2 eigenvalues not converged
     total cpu time spent up to now is     2896.9 secs

     Computing kpt #:  1350  of  1401
     c_bands:  2 eigenvalues not converged
     total cpu time spent up to now is     2900.2 secs

     Computing kpt #:  1351  of  1401
     c_bands:  3 eigenvalues not converged
     total cpu time spent up to now is     2902.7 secs

     Computing kpt #:  1352  of  1401
     c_bands:  3 eigenvalues not converged
     total cpu time spent up to now is     2905.1 secs

     Computing kpt #:  1353  of  1401
     c_bands:  3 eigenvalues not converged
     total cpu time spent up to now is     2907.5 secs

     Computing kpt #:  1354  of  1401
     c_bands:  2 eigenvalues not converged
     total cpu time spent up to now is     2909.8 secs

     Computing kpt #:  1355  of  1401
     c_bands:  2 eigenvalues not converged
     total cpu time spent up to now is     2912.2 secs

     Computing kpt #:  1356  of  1401
     c_bands:  3 eigenvalues not converged
     total cpu time spent up to now is     2914.6 secs

     Computing kpt #:  1357  of  1401
     c_bands:  3 eigenvalues not converged
     total cpu time spent up to now is     2917.1 secs

     Computing kpt #:  1358  of  1401
     c_bands:  3 eigenvalues not converged
     total cpu time spent up to now is     2919.5 secs

     Computing kpt #:  1359  of  1401
     c_bands:  3 eigenvalues not converged
     total cpu time spent up to now is     2921.8 secs

     Computing kpt #:  1360  of  1401
     c_bands:  3 eigenvalues not converged
     total cpu time spent up to now is     2924.2 secs

     Computing kpt #:  1361  of  1401
     c_bands:  3 eigenvalues not converged
     total cpu time spent up to now is     2926.6 secs

     Computing kpt #:  1362  of  1401
     c_bands:  2 eigenvalues not converged
     total cpu time spent up to now is     2928.9 secs

     Computing kpt #:  1363  of  1401
     c_bands:  2 eigenvalues not converged
     total cpu time spent up to now is     2931.3 secs

     Computing kpt #:  1364  of  1401
     c_bands:  3 eigenvalues not converged
     total cpu time spent up to now is     2933.7 secs

     Computing kpt #:  1365  of  1401
     c_bands:  3 eigenvalues not converged
     total cpu time spent up to now is     2936.1 secs

     Computing kpt #:  1366  of  1401
     c_bands:  3 eigenvalues not converged
     total cpu time spent up to now is     2938.5 secs

     Computing kpt #:  1367  of  1401
     c_bands:  3 eigenvalues not converged
     total cpu time spent up to now is     2940.9 secs

     Computing kpt #:  1368  of  1401
     c_bands:  2 eigenvalues not converged
     total cpu time spent up to now is     2943.3 secs

     Computing kpt #:  1369  of  1401
     c_bands:  3 eigenvalues not converged
     total cpu time spent up to now is     2945.7 secs

     Computing kpt #:  1370  of  1401
     c_bands:  3 eigenvalues not converged
     total cpu time spent up to now is     2948.1 secs

     Computing kpt #:  1371  of  1401
     c_bands:  3 eigenvalues not converged
     total cpu time spent up to now is     2950.5 secs

     Computing kpt #:  1372  of  1401
     c_bands:  3 eigenvalues not converged
     total cpu time spent up to now is     2952.9 secs

     Computing kpt #:  1373  of  1401
     c_bands:  3 eigenvalues not converged
     total cpu time spent up to now is     2955.3 secs

     Computing kpt #:  1374  of  1401
     c_bands:  3 eigenvalues not converged
     total cpu time spent up to now is     2957.8 secs

     Computing kpt #:  1375  of  1401
     c_bands:  3 eigenvalues not converged
     total cpu time spent up to now is     2961.4 secs

     Computing kpt #:  1376  of  1401
     c_bands:  3 eigenvalues not converged
     total cpu time spent up to now is     2963.8 secs

     Computing kpt #:  1377  of  1401
     c_bands:  3 eigenvalues not converged
     total cpu time spent up to now is     2966.2 secs

     Computing kpt #:  1378  of  1401
     c_bands:  3 eigenvalues not converged
     total cpu time spent up to now is     2968.6 secs

     Computing kpt #:  1379  of  1401
     c_bands:  3 eigenvalues not converged
     total cpu time spent up to now is     2970.9 secs

     Computing kpt #:  1380  of  1401
     c_bands:  3 eigenvalues not converged
     total cpu time spent up to now is     2973.2 secs

     Computing kpt #:  1381  of  1401
     c_bands:  2 eigenvalues not converged
     total cpu time spent up to now is     2975.6 secs

     Computing kpt #:  1382  of  1401
     c_bands:  3 eigenvalues not converged
     total cpu time spent up to now is     2978.0 secs

     Computing kpt #:  1383  of  1401
     c_bands:  3 eigenvalues not converged
     total cpu time spent up to now is     2980.4 secs

     Computing kpt #:  1384  of  1401
     c_bands:  3 eigenvalues not converged
     total cpu time spent up to now is     2982.8 secs

     Computing kpt #:  1385  of  1401
     c_bands:  3 eigenvalues not converged
     total cpu time spent up to now is     2985.2 secs

     Computing kpt #:  1386  of  1401
     c_bands:  3 eigenvalues not converged
     total cpu time spent up to now is     2987.6 secs

     Computing kpt #:  1387  of  1401
     c_bands:  3 eigenvalues not converged
     total cpu time spent up to now is     2990.1 secs

     Computing kpt #:  1388  of  1401
     c_bands:  3 eigenvalues not converged
     total cpu time spent up to now is     2992.4 secs

     Computing kpt #:  1389  of  1401
     c_bands:  3 eigenvalues not converged
     total cpu time spent up to now is     2994.8 secs

     Computing kpt #:  1390  of  1401
     c_bands:  3 eigenvalues not converged
     total cpu time spent up to now is     2997.1 secs

     Computing kpt #:  1391  of  1401
     c_bands:  3 eigenvalues not converged
     total cpu time spent up to now is     2999.4 secs

     Computing kpt #:  1392  of  1401
     c_bands:  3 eigenvalues not converged
     total cpu time spent up to now is     3001.9 secs

     Computing kpt #:  1393  of  1401
     c_bands:  3 eigenvalues not converged
     total cpu time spent up to now is     3004.3 secs

     Computing kpt #:  1394  of  1401
     c_bands:  3 eigenvalues not converged
     total cpu time spent up to now is     3006.7 secs

     Computing kpt #:  1395  of  1401
     c_bands:  3 eigenvalues not converged
     total cpu time spent up to now is     3009.1 secs

     Computing kpt #:  1396  of  1401
     c_bands:  1 eigenvalues not converged
     total cpu time spent up to now is     3011.4 secs

     Computing kpt #:  1397  of  1401
     c_bands:  3 eigenvalues not converged
     total cpu time spent up to now is     3013.7 secs

     Computing kpt #:  1398  of  1401
     c_bands:  3 eigenvalues not converged
     total cpu time spent up to now is     3016.2 secs

     Computing kpt #:  1399  of  1401
     c_bands:  3 eigenvalues not converged
     total cpu time spent up to now is     3019.0 secs

     Computing kpt #:  1400  of  1401
     c_bands:  3 eigenvalues not converged
     total cpu time spent up to now is     3021.6 secs

     Computing kpt #:  1401  of  1401
     total cpu time spent up to now is     3023.3 secs

     ethr =  5.56E-13,  avg # of iterations =106.1

     total cpu time spent up to now is     3023.3 secs

     End of band structure calculation

          k = 0.0000 0.0000 0.0000 ( 10969 PWs)   bands (ev):

    -6.4319  -6.4319  -4.0239  -4.0239  -4.0239  -4.0239  -3.4543  -3.4543
    -3.2804  -3.2804  -3.2804  -3.2804   3.7969   3.7969   4.6455   4.6455
     4.6455   4.6455   4.9497   4.9497   8.7843

          k = 0.0000 0.0022 0.0000 ( 10969 PWs)   bands (ev):

    -6.4319  -6.4319  -4.0240  -4.0240  -4.0238  -4.0238  -3.4543  -3.4543
    -3.2805  -3.2805  -3.2803  -3.2803   3.7968   3.7968   4.6447   4.6447
     4.6455   4.6455   4.9506   4.9506   8.7843

          k = 0.0000 0.0044 0.0000 ( 10969 PWs)   bands (ev):

    -6.4319  -6.4319  -4.0241  -4.0241  -4.0237  -4.0237  -3.4543  -3.4543
    -3.2806  -3.2806  -3.2802  -3.2802   3.7964   3.7964   4.6421   4.6421
     4.6453   4.6453   4.9535   4.9535   8.7844

          k = 0.0000 0.0066 0.0000 ( 10969 PWs)   bands (ev):

    -6.4318  -6.4318  -4.0242  -4.0242  -4.0236  -4.0236  -3.4543  -3.4543
    -3.2807  -3.2807  -3.2800  -3.2800   3.7958   3.7958   4.6380   4.6380
     4.6449   4.6449   4.9580   4.9580   8.7846

          k = 0.0000 0.0088 0.0000 ( 10969 PWs)   bands (ev):

    -6.4317  -6.4317  -4.0242  -4.0242  -4.0235  -4.0235  -3.4543  -3.4543
    -3.2808  -3.2808  -3.2799  -3.2799   3.7949   3.7949   4.6324   4.6324
     4.6445   4.6445   4.9642   4.9642   8.7848

          k = 0.0000 0.0110 0.0000 ( 10969 PWs)   bands (ev):

    -6.4316  -6.4316  -4.0243  -4.0243  -4.0234  -4.0234  -3.4542  -3.4542
    -3.2809  -3.2809  -3.2798  -3.2798   3.7937   3.7937   4.6255   4.6255
     4.6439   4.6439   4.9719   4.9719   8.7850

          k = 0.0000 0.0133 0.0000 ( 10969 PWs)   bands (ev):

    -6.4315  -6.4315  -4.0243  -4.0243  -4.0233  -4.0233  -3.4542  -3.4542
    -3.2810  -3.2810  -3.2797  -3.2797   3.7922   3.7922   4.6175   4.6175
     4.6432   4.6432   4.9809   4.9809   8.7854

          k = 0.0000 0.0155 0.0000 ( 10969 PWs)   bands (ev):

    -6.4314  -6.4314  -4.0244  -4.0244  -4.0232  -4.0232  -3.4541  -3.4541
    -3.2811  -3.2811  -3.2796  -3.2796   3.7905   3.7905   4.6085   4.6085
     4.6423   4.6423   4.9910   4.9910   8.7857

          k = 0.0000 0.0177 0.0000 ( 10969 PWs)   bands (ev):

    -6.4312  -6.4312  -4.0244  -4.0244  -4.0230  -4.0230  -3.4541  -3.4541
    -3.2812  -3.2812  -3.2795  -3.2795   3.7886   3.7886   4.5988   4.5988
     4.6413   4.6413   5.0021   5.0021   8.7861

          k = 0.0000 0.0199 0.0000 ( 10969 PWs)   bands (ev):

    -6.4310  -6.4310  -4.0245  -4.0245  -4.0229  -4.0229  -3.4540  -3.4540
    -3.2813  -3.2813  -3.2793  -3.2793   3.7863   3.7863   4.5883   4.5883
     4.6402   4.6402   5.0140   5.0140   8.7865

          k = 0.0000 0.0221 0.0000 ( 10969 PWs)   bands (ev):

    -6.4308  -6.4308  -4.0245  -4.0245  -4.0228  -4.0228  -3.4539  -3.4539
    -3.2814  -3.2814  -3.2792  -3.2792   3.7838   3.7838   4.5774   4.5774
     4.6389   4.6389   5.0267   5.0267   8.7870

          k = 0.0000 0.0243 0.0000 ( 10969 PWs)   bands (ev):

    -6.4306  -6.4306  -4.0245  -4.0245  -4.0226  -4.0226  -3.4538  -3.4538
    -3.2815  -3.2815  -3.2791  -3.2791   3.7811   3.7811   4.5660   4.5660
     4.6376   4.6376   5.0399   5.0399   8.7875

          k = 0.0000 0.0265 0.0000 ( 10969 PWs)   bands (ev):

    -6.4303  -6.4303  -4.0245  -4.0245  -4.0224  -4.0224  -3.4537  -3.4537
    -3.2815  -3.2815  -3.2789  -3.2789   3.7780   3.7780   4.5542   4.5542
     4.6360   4.6360   5.0537   5.0537   8.7880

          k = 0.0000 0.0287 0.0000 ( 10961 PWs)   bands (ev):

    -6.4301  -6.4301  -4.0245  -4.0245  -4.0223  -4.0223  -3.4536  -3.4536
    -3.2816  -3.2816  -3.2788  -3.2788   3.7747   3.7747   4.5421   4.5421
     4.6344   4.6344   5.0680   5.0680   8.7885

          k = 0.0000 0.0309 0.0000 ( 10961 PWs)   bands (ev):

    -6.4298  -6.4298  -4.0246  -4.0246  -4.0221  -4.0221  -3.4535  -3.4535
    -3.2817  -3.2817  -3.2787  -3.2787   3.7712   3.7712   4.5299   4.5299
     4.6326   4.6326   5.0827   5.0827   8.7890

          k = 0.0000 0.0331 0.0000 ( 10961 PWs)   bands (ev):

    -6.4295  -6.4295  -4.0246  -4.0246  -4.0219  -4.0219  -3.4533  -3.4533
    -3.2818  -3.2818  -3.2785  -3.2785   3.7673   3.7673   4.5175   4.5175
     4.6307   4.6307   5.0977   5.0977   8.7895

          k = 0.0000 0.0354 0.0000 ( 10961 PWs)   bands (ev):

    -6.4291  -6.4291  -4.0246  -4.0246  -4.0217  -4.0217  -3.4532  -3.4532
    -3.2819  -3.2819  -3.2784  -3.2784   3.7632   3.7632   4.5049   4.5049
     4.6287   4.6287   5.1130   5.1130   8.7899

          k = 0.0000 0.0376 0.0000 ( 10961 PWs)   bands (ev):

    -6.4288  -6.4288  -4.0246  -4.0246  -4.0215  -4.0215  -3.4531  -3.4531
    -3.2820  -3.2820  -3.2782  -3.2782   3.7588   3.7588   4.4923   4.4923
     4.6266   4.6266   5.1286   5.1286   8.7904

          k = 0.0000 0.0398 0.0000 ( 10945 PWs)   bands (ev):

    -6.4284  -6.4284  -4.0245  -4.0245  -4.0213  -4.0213  -3.4529  -3.4529
    -3.2820  -3.2820  -3.2781  -3.2781   3.7542   3.7542   4.4796   4.4796
     4.6243   4.6243   5.1445   5.1445   8.7907

          k = 0.0000 0.0420 0.0000 ( 10945 PWs)   bands (ev):

    -6.4280  -6.4280  -4.0245  -4.0245  -4.0211  -4.0211  -3.4527  -3.4527
    -3.2821  -3.2821  -3.2779  -3.2779   3.7492   3.7492   4.4669   4.4669
     4.6219   4.6219   5.1605   5.1605   8.7910

          k = 0.0000 0.0442 0.0000 ( 10937 PWs)   bands (ev):

    -6.4276  -6.4276  -4.0245  -4.0245  -4.0209  -4.0209  -3.4526  -3.4526
    -3.2822  -3.2822  -3.2778  -3.2778   3.7440   3.7440   4.4542   4.4542
     4.6194   4.6194   5.1767   5.1767   8.7912

          k = 0.0000 0.0464 0.0000 ( 10937 PWs)   bands (ev):

    -6.4271  -6.4271  -4.0245  -4.0245  -4.0207  -4.0207  -3.4524  -3.4524
    -3.2823  -3.2823  -3.2776  -3.2776   3.7386   3.7386   4.4415   4.4415
     4.6167   4.6167   5.1931   5.1931   8.7913

          k = 0.0000 0.0486 0.0000 ( 10937 PWs)   bands (ev):

    -6.4267  -6.4267  -4.0245  -4.0245  -4.0204  -4.0204  -3.4522  -3.4522
    -3.2823  -3.2823  -3.2775  -3.2775   3.7328   3.7328   4.4289   4.4289
     4.6139   4.6139   5.2097   5.2097   8.7913

          k = 0.0000 0.0508 0.0000 ( 10937 PWs)   bands (ev):

    -6.4262  -6.4262  -4.0244  -4.0244  -4.0202  -4.0202  -3.4520  -3.4520
    -3.2824  -3.2824  -3.2773  -3.2773   3.7268   3.7268   4.4163   4.4163
     4.6111   4.6111   5.2264   5.2264   8.7912

          k = 0.0000 0.0530 0.0000 ( 10937 PWs)   bands (ev):

    -6.4257  -6.4257  -4.0244  -4.0244  -4.0199  -4.0199  -3.4518  -3.4518
    -3.2825  -3.2825  -3.2771  -3.2771   3.7205   3.7205   4.4038   4.4038
     4.6080   4.6080   5.2432   5.2432   8.7909

          k = 0.0000 0.0552 0.0000 ( 10937 PWs)   bands (ev):

    -6.4251  -6.4251  -4.0244  -4.0244  -4.0197  -4.0197  -3.4516  -3.4516
    -3.2826  -3.2826  -3.2770  -3.2770   3.7139   3.7139   4.3913   4.3913
     4.6049   4.6049   5.2601   5.2601   8.7904

          k = 0.0000 0.0575 0.0000 ( 10937 PWs)   bands (ev):

    -6.4246  -6.4246  -4.0243  -4.0243  -4.0194  -4.0194  -3.4514  -3.4514
    -3.2826  -3.2826  -3.2768  -3.2768   3.7070   3.7070   4.3790   4.3790
     4.6016   4.6016   5.2772   5.2772   8.7898

          k = 0.0000 0.0597 0.0000 ( 10937 PWs)   bands (ev):

    -6.4240  -6.4240  -4.0243  -4.0243  -4.0191  -4.0191  -3.4511  -3.4511
    -3.2827  -3.2827  -3.2766  -3.2766   3.6999   3.6999   4.3667   4.3667
     4.5983   4.5983   5.2943   5.2943   8.7889

          k = 0.0000 0.0619 0.0000 ( 10945 PWs)   bands (ev):

    -6.4234  -6.4234  -4.0242  -4.0242  -4.0189  -4.0189  -3.4509  -3.4509
    -3.2828  -3.2828  -3.2765  -3.2765   3.6925   3.6925   4.3546   4.3546
     4.5948   4.5948   5.3115   5.3115   8.7879

          k = 0.0000 0.0641 0.0000 ( 10937 PWs)   bands (ev):

    -6.4228  -6.4228  -4.0242  -4.0242  -4.0186  -4.0186  -3.4506  -3.4506
    -3.2828  -3.2828  -3.2763  -3.2763   3.6848   3.6848   4.3425   4.3425
     4.5912   4.5912   5.3288   5.3288   8.7866

          k = 0.0000 0.0663 0.0000 ( 10937 PWs)   bands (ev):

    -6.4222  -6.4222  -4.0241  -4.0241  -4.0183  -4.0183  -3.4504  -3.4504
    -3.2829  -3.2829  -3.2761  -3.2761   3.6769   3.6769   4.3306   4.3306
     4.5875   4.5875   5.3462   5.3462   8.7850

          k = 0.0000 0.0685 0.0000 ( 10937 PWs)   bands (ev):

    -6.4215  -6.4215  -4.0240  -4.0240  -4.0180  -4.0180  -3.4501  -3.4501
    -3.2830  -3.2830  -3.2759  -3.2759   3.6687   3.6687   4.3188   4.3188
     4.5836   4.5836   5.3636   5.3636   8.7832

          k = 0.0000 0.0707 0.0000 ( 10937 PWs)   bands (ev):

    -6.4209  -6.4209  -4.0240  -4.0240  -4.0177  -4.0177  -3.4498  -3.4498
    -3.2830  -3.2830  -3.2757  -3.2757   3.6602   3.6602   4.3071   4.3071
     4.5797   4.5797   5.3811   5.3811   8.7811

          k = 0.0000 0.0729 0.0000 ( 10937 PWs)   bands (ev):

    -6.4202  -6.4202  -4.0239  -4.0239  -4.0173  -4.0173  -3.4495  -3.4495
    -3.2831  -3.2831  -3.2755  -3.2755   3.6514   3.6514   4.2956   4.2956
     4.5756   4.5756   5.3987   5.3987   8.7787

          k = 0.0000 0.0751 0.0000 ( 10937 PWs)   bands (ev):

    -6.4194  -6.4194  -4.0238  -4.0238  -4.0170  -4.0170  -3.4492  -3.4492
    -3.2832  -3.2832  -3.2753  -3.2753   3.6424   3.6424   4.2841   4.2841
     4.5714   4.5714   5.4163   5.4163   8.7760

          k = 0.0000 0.0773 0.0000 ( 10937 PWs)   bands (ev):

    -6.4187  -6.4187  -4.0237  -4.0237  -4.0167  -4.0167  -3.4489  -3.4489
    -3.2832  -3.2832  -3.2751  -3.2751   3.6332   3.6332   4.2728   4.2728
     4.5672   4.5672   5.4340   5.4340   8.7730

          k = 0.0000 0.0795 0.0000 ( 10937 PWs)   bands (ev):

    -6.4180  -6.4180  -4.0237  -4.0237  -4.0163  -4.0163  -3.4486  -3.4486
    -3.2833  -3.2833  -3.2749  -3.2749   3.6237   3.6237   4.2617   4.2617
     4.5628   4.5628   5.4517   5.4517   8.7697

          k = 0.0000 0.0818 0.0000 ( 10933 PWs)   bands (ev):

    -6.4172  -6.4172  -4.0236  -4.0236  -4.0160  -4.0160  -3.4483  -3.4483
    -3.2834  -3.2834  -3.2747  -3.2747   3.6139   3.6139   4.2506   4.2506
     4.5583   4.5583   5.4694   5.4694   8.7661

          k = 0.0000 0.0840 0.0000 ( 10933 PWs)   bands (ev):

    -6.4164  -6.4164  -4.0235  -4.0235  -4.0156  -4.0156  -3.4480  -3.4480
    -3.2834  -3.2834  -3.2745  -3.2745   3.6039   3.6039   4.2397   4.2397
     4.5537   4.5537   5.4872   5.4872   8.7622

          k = 0.0000 0.0862 0.0000 ( 10933 PWs)   bands (ev):

    -6.4156  -6.4156  -4.0234  -4.0234  -4.0152  -4.0152  -3.4476  -3.4476
    -3.2835  -3.2835  -3.2743  -3.2743   3.5936   3.5936   4.2289   4.2289
     4.5490   4.5490   5.5050   5.5050   8.7580

          k = 0.0000 0.0884 0.0000 ( 10933 PWs)   bands (ev):

    -6.4147  -6.4147  -4.0233  -4.0233  -4.0148  -4.0148  -3.4473  -3.4473
    -3.2835  -3.2835  -3.2741  -3.2741   3.5831   3.5831   4.2183   4.2183
     4.5442   4.5442   5.5228   5.5228   8.7535

          k = 0.0000 0.0906 0.0000 ( 10925 PWs)   bands (ev):

    -6.4139  -6.4139  -4.0232  -4.0232  -4.0144  -4.0144  -3.4469  -3.4469
    -3.2836  -3.2836  -3.2739  -3.2739   3.5724   3.5724   4.2078   4.2078
     4.5393   4.5393   5.5407   5.5407   8.7487

          k = 0.0000 0.0928 0.0000 ( 10925 PWs)   bands (ev):

    -6.4130  -6.4130  -4.0231  -4.0231  -4.0140  -4.0140  -3.4466  -3.4466
    -3.2837  -3.2837  -3.2736  -3.2736   3.5614   3.5614   4.1974   4.1974
     4.5343   4.5343   5.5585   5.5585   8.7436

          k = 0.0000 0.0950 0.0000 ( 10925 PWs)   bands (ev):

    -6.4121  -6.4121  -4.0230  -4.0230  -4.0136  -4.0136  -3.4462  -3.4462
    -3.2837  -3.2837  -3.2734  -3.2734   3.5502   3.5502   4.1871   4.1871
     4.5291   4.5291   5.5764   5.5764   8.7383

          k = 0.0000 0.0972 0.0000 ( 10925 PWs)   bands (ev):

    -6.4112  -6.4112  -4.0229  -4.0229  -4.0132  -4.0132  -3.4458  -3.4458
    -3.2838  -3.2838  -3.2732  -3.2732   3.5389   3.5389   4.1769   4.1769
     4.5239   4.5239   5.5944   5.5944   8.7326

          k = 0.0000 0.0994 0.0000 ( 10925 PWs)   bands (ev):

    -6.4102  -6.4102  -4.0228  -4.0228  -4.0128  -4.0128  -3.4454  -3.4454
    -3.2838  -3.2838  -3.2729  -3.2729   3.5272   3.5272   4.1669   4.1669
     4.5186   4.5186   5.6123   5.6123   8.7267

          k = 0.0000 0.1016 0.0000 ( 10925 PWs)   bands (ev):

    -6.4093  -6.4093  -4.0226  -4.0226  -4.0124  -4.0124  -3.4450  -3.4450
    -3.2839  -3.2839  -3.2727  -3.2727   3.5154   3.5154   4.1569   4.1569
     4.5132   4.5132   5.6303   5.6303   8.7206

          k = 0.0000 0.1039 0.0000 ( 10925 PWs)   bands (ev):

    -6.4083  -6.4083  -4.0225  -4.0225  -4.0119  -4.0119  -3.4446  -3.4446
    -3.2840  -3.2840  -3.2724  -3.2724   3.5034   3.5034   4.1471   4.1471
     4.5078   4.5078   5.6482   5.6482   8.7142

          k = 0.0000 0.1061 0.0000 ( 10925 PWs)   bands (ev):

    -6.4073  -6.4073  -4.0224  -4.0224  -4.0115  -4.0115  -3.4442  -3.4442
    -3.2840  -3.2840  -3.2722  -3.2722   3.4912   3.4912   4.1374   4.1374
     4.5022   4.5022   5.6662   5.6662   8.7076

          k = 0.0000 0.1083 0.0000 ( 10925 PWs)   bands (ev):

    -6.4063  -6.4063  -4.0223  -4.0223  -4.0110  -4.0110  -3.4438  -3.4438
    -3.2841  -3.2841  -3.2719  -3.2719   3.4788   3.4788   4.1278   4.1278
     4.4965   4.4965   5.6842   5.6842   8.7007

          k = 0.0000 0.1105 0.0000 ( 10925 PWs)   bands (ev):

    -6.4053  -6.4053  -4.0221  -4.0221  -4.0105  -4.0105  -3.4433  -3.4433
    -3.2841  -3.2841  -3.2717  -3.2717   3.4663   3.4663   4.1183   4.1183
     4.4907   4.4907   5.7022   5.7022   8.6936

          k = 0.0000 0.1127 0.0000 ( 10925 PWs)   bands (ev):

    -6.4042  -6.4042  -4.0220  -4.0220  -4.0101  -4.0101  -3.4429  -3.4429
    -3.2842  -3.2842  -3.2714  -3.2714   3.4535   3.4535   4.1089   4.1089
     4.4849   4.4849   5.7201   5.7201   8.6864

          k = 0.0000 0.1149 0.0000 ( 10913 PWs)   bands (ev):

    -6.4031  -6.4031  -4.0219  -4.0219  -4.0096  -4.0096  -3.4424  -3.4424
    -3.2842  -3.2842  -3.2712  -3.2712   3.4406   3.4406   4.0995   4.0995
     4.4790   4.4790   5.7381   5.7381   8.6789

          k = 0.0000 0.1171 0.0000 ( 10913 PWs)   bands (ev):

    -6.4021  -6.4021  -4.0217  -4.0217  -4.0091  -4.0091  -3.4420  -3.4420
    -3.2843  -3.2843  -3.2709  -3.2709   3.4275   3.4275   4.0903   4.0903
     4.4729   4.4729   5.7561   5.7561   8.6713

          k = 0.0000 0.1193 0.0000 ( 10922 PWs)   bands (ev):

    -6.4009  -6.4009  -4.0216  -4.0216  -4.0086  -4.0086  -3.4415  -3.4415
    -3.2843  -3.2843  -3.2706  -3.2706   3.4143   3.4143   4.0811   4.0811
     4.4668   4.4668   5.7741   5.7741   8.6635

          k = 0.0000 0.1215 0.0000 ( 10922 PWs)   bands (ev):

    -6.3998  -6.3998  -4.0214  -4.0214  -4.0081  -4.0081  -3.4410  -3.4410
    -3.2844  -3.2844  -3.2703  -3.2703   3.4009   3.4009   4.0720   4.0720
     4.4607   4.4607   5.7921   5.7921   8.6555

          k = 0.0000 0.1237 0.0000 ( 10922 PWs)   bands (ev):

    -6.3987  -6.3987  -4.0213  -4.0213  -4.0075  -4.0075  -3.4406  -3.4406
    -3.2844  -3.2844  -3.2700  -3.2700   3.3874   3.3874   4.0630   4.0630
     4.4544   4.4544   5.8100   5.8100   8.6474

          k = 0.0000 0.1260 0.0000 ( 10922 PWs)   bands (ev):

    -6.3975  -6.3975  -4.0211  -4.0211  -4.0070  -4.0070  -3.4401  -3.4401
    -3.2845  -3.2845  -3.2698  -3.2698   3.3737   3.3737   4.0540   4.0540
     4.4480   4.4480   5.8280   5.8280   8.6391

          k = 0.0000 0.1282 0.0000 ( 10922 PWs)   bands (ev):

    -6.3963  -6.3963  -4.0210  -4.0210  -4.0065  -4.0065  -3.4396  -3.4396
    -3.2845  -3.2845  -3.2695  -3.2695   3.3599   3.3599   4.0452   4.0452
     4.4416   4.4416   5.8459   5.8459   8.6307

          k = 0.0000 0.1304 0.0000 ( 10922 PWs)   bands (ev):

    -6.3951  -6.3951  -4.0208  -4.0208  -4.0059  -4.0059  -3.4390  -3.4390
    -3.2846  -3.2846  -3.2692  -3.2692   3.3460   3.3460   4.0363   4.0363
     4.4351   4.4351   5.8639   5.8639   8.6221

          k = 0.0000 0.1326 0.0000 ( 10922 PWs)   bands (ev):

    -6.3939  -6.3939  -4.0207  -4.0207  -4.0054  -4.0054  -3.4385  -3.4385
    -3.2846  -3.2846  -3.2689  -3.2689   3.3320   3.3320   4.0276   4.0276
     4.4286   4.4286   5.8818   5.8818   8.6135

          k = 0.0000 0.1348 0.0000 ( 10930 PWs)   bands (ev):

    -6.3927  -6.3927  -4.0205  -4.0205  -4.0048  -4.0048  -3.4380  -3.4380
    -3.2847  -3.2847  -3.2686  -3.2686   3.3178   3.3178   4.0189   4.0189
     4.4219   4.4219   5.8997   5.8997   8.6047

          k = 0.0000 0.1370 0.0000 ( 10922 PWs)   bands (ev):

    -6.3914  -6.3914  -4.0204  -4.0204  -4.0042  -4.0042  -3.4375  -3.4375
    -3.2847  -3.2847  -3.2683  -3.2683   3.3036   3.3036   4.0102   4.0102
     4.4152   4.4152   5.9176   5.9176   8.5958

          k = 0.0000 0.1392 0.0000 ( 10922 PWs)   bands (ev):

    -6.3901  -6.3901  -4.0202  -4.0202  -4.0036  -4.0036  -3.4369  -3.4369
    -3.2848  -3.2848  -3.2679  -3.2679   3.2892   3.2892   4.0016   4.0016
     4.4084   4.4084   5.9354   5.9354   8.5868

          k = 0.0000 0.1414 0.0000 ( 10922 PWs)   bands (ev):

    -6.3888  -6.3888  -4.0200  -4.0200  -4.0030  -4.0030  -3.4364  -3.4364
    -3.2848  -3.2848  -3.2676  -3.2676   3.2747   3.2747   3.9931   3.9931
     4.4015   4.4015   5.9533   5.9533   8.5777

          k = 0.0000 0.1436 0.0000 ( 10922 PWs)   bands (ev):

    -6.3875  -6.3875  -4.0198  -4.0198  -4.0024  -4.0024  -3.4358  -3.4358
    -3.2849  -3.2849  -3.2673  -3.2673   3.2601   3.2601   3.9845   3.9845
     4.3946   4.3946   5.9711   5.9711   8.5685

          k = 0.0000 0.1458 0.0000 ( 10930 PWs)   bands (ev):

    -6.3862  -6.3862  -4.0197  -4.0197  -4.0018  -4.0018  -3.4352  -3.4352
    -3.2849  -3.2849  -3.2670  -3.2670   3.2455   3.2455   3.9761   3.9761
     4.3876   4.3876   5.9889   5.9889   8.5593

          k = 0.0000 0.1481 0.0000 ( 10930 PWs)   bands (ev):

    -6.3849  -6.3849  -4.0195  -4.0195  -4.0012  -4.0012  -3.4346  -3.4346
    -3.2850  -3.2850  -3.2666  -3.2666   3.2307   3.2307   3.9676   3.9676
     4.3806   4.3806   6.0066   6.0066   8.5499

          k = 0.0000 0.1503 0.0000 ( 10930 PWs)   bands (ev):

    -6.3835  -6.3835  -4.0193  -4.0193  -4.0006  -4.0006  -3.4341  -3.4341
    -3.2850  -3.2850  -3.2663  -3.2663   3.2159   3.2159   3.9592   3.9592
     4.3735   4.3735   6.0243   6.0243   8.5405

          k = 0.0000 0.1525 0.0000 ( 10930 PWs)   bands (ev):

    -6.3821  -6.3821  -4.0191  -4.0191  -3.9999  -3.9999  -3.4335  -3.4335
    -3.2851  -3.2851  -3.2659  -3.2659   3.2010   3.2010   3.9508   3.9508
     4.3663   4.3663   6.0420   6.0420   8.5310

          k = 0.0000 0.1547 0.0000 ( 10930 PWs)   bands (ev):

    -6.3807  -6.3807  -4.0190  -4.0190  -3.9993  -3.9993  -3.4328  -3.4328
    -3.2851  -3.2851  -3.2656  -3.2656   3.1860   3.1860   3.9425   3.9425
     4.3590   4.3590   6.0597   6.0597   8.5215

          k = 0.0000 0.1569 0.0000 ( 10930 PWs)   bands (ev):

    -6.3793  -6.3793  -4.0188  -4.0188  -3.9986  -3.9986  -3.4322  -3.4322
    -3.2851  -3.2851  -3.2652  -3.2652   3.1709   3.1709   3.9341   3.9341
     4.3517   4.3517   6.0773   6.0773   8.5119

          k = 0.0000 0.1591 0.0000 ( 10930 PWs)   bands (ev):

    -6.3779  -6.3779  -4.0186  -4.0186  -3.9980  -3.9980  -3.4316  -3.4316
    -3.2852  -3.2852  -3.2649  -3.2649   3.1558   3.1558   3.9258   3.9258
     4.3444   4.3444   6.0949   6.0949   8.5022

          k = 0.0000 0.1613 0.0000 ( 10922 PWs)   bands (ev):

    -6.3765  -6.3765  -4.0184  -4.0184  -3.9973  -3.9973  -3.4310  -3.4310
    -3.2852  -3.2852  -3.2645  -3.2645   3.1406   3.1406   3.9175   3.9175
     4.3370   4.3370   6.1124   6.1124   8.4925

          k = 0.0000 0.1635 0.0000 ( 10922 PWs)   bands (ev):

    -6.3750  -6.3750  -4.0182  -4.0182  -3.9966  -3.9966  -3.4303  -3.4303
    -3.2853  -3.2853  -3.2641  -3.2641   3.1254   3.1254   3.9093   3.9093
     4.3295   4.3295   6.1299   6.1299   8.4828

          k = 0.0000 0.1657 0.0000 ( 10922 PWs)   bands (ev):

    -6.3735  -6.3735  -4.0180  -4.0180  -3.9959  -3.9959  -3.4297  -3.4297
    -3.2853  -3.2853  -3.2638  -3.2638   3.1101   3.1101   3.9010   3.9010
     4.3220   4.3220   6.1474   6.1474   8.4730

          k = 0.0000 0.1679 0.0000 ( 10922 PWs)   bands (ev):

    -6.3720  -6.3720  -4.0178  -4.0178  -3.9952  -3.9952  -3.4290  -3.4290
    -3.2854  -3.2854  -3.2634  -3.2634   3.0947   3.0947   3.8928   3.8928
     4.3144   4.3144   6.1648   6.1648   8.4631

          k = 0.0000 0.1701 0.0000 ( 10918 PWs)   bands (ev):

    -6.3705  -6.3705  -4.0176  -4.0176  -3.9945  -3.9945  -3.4284  -3.4284
    -3.2854  -3.2854  -3.2630  -3.2630   3.0793   3.0793   3.8846   3.8846
     4.3068   4.3068   6.1822   6.1822   8.4533

          k = 0.0000 0.1724 0.0000 ( 10918 PWs)   bands (ev):

    -6.3690  -6.3690  -4.0174  -4.0174  -3.9938  -3.9938  -3.4277  -3.4277
    -3.2854  -3.2854  -3.2626  -3.2626   3.0639   3.0639   3.8764   3.8764
     4.2991   4.2991   6.1995   6.1995   8.4434

          k = 0.0000 0.1746 0.0000 ( 10918 PWs)   bands (ev):

    -6.3675  -6.3675  -4.0172  -4.0172  -3.9931  -3.9931  -3.4270  -3.4270
    -3.2855  -3.2855  -3.2622  -3.2622   3.0484   3.0484   3.8682   3.8682
     4.2914   4.2914   6.2168   6.2168   8.4335

          k = 0.0000 0.1768 0.0000 ( 10926 PWs)   bands (ev):

    -6.3659  -6.3659  -4.0170  -4.0170  -3.9923  -3.9923  -3.4263  -3.4263
    -3.2855  -3.2855  -3.2618  -3.2618   3.0328   3.0328   3.8600   3.8600
     4.2836   4.2836   6.2340   6.2340   8.4235

          k = 0.0000 0.1790 0.0000 ( 10918 PWs)   bands (ev):

    -6.3643  -6.3643  -4.0168  -4.0168  -3.9916  -3.9916  -3.4256  -3.4256
    -3.2856  -3.2856  -3.2614  -3.2614   3.0173   3.0173   3.8518   3.8518
     4.2758   4.2758   6.2511   6.2511   8.4136

          k = 0.0000 0.1812 0.0000 ( 10918 PWs)   bands (ev):

    -6.3627  -6.3627  -4.0166  -4.0166  -3.9908  -3.9908  -3.4249  -3.4249
    -3.2856  -3.2856  -3.2610  -3.2610   3.0017   3.0017   3.8437   3.8437
     4.2680   4.2680   6.2682   6.2682   8.4036

          k = 0.0000 0.1834 0.0000 ( 10918 PWs)   bands (ev):

    -6.3611  -6.3611  -4.0163  -4.0163  -3.9901  -3.9901  -3.4242  -3.4242
    -3.2856  -3.2856  -3.2605  -3.2605   2.9860   2.9860   3.8355   3.8355
     4.2601   4.2601   6.2852   6.2852   8.3936

          k = 0.0000 0.1856 0.0000 ( 10914 PWs)   bands (ev):

    -6.3595  -6.3595  -4.0161  -4.0161  -3.9893  -3.9893  -3.4235  -3.4235
    -3.2857  -3.2857  -3.2601  -3.2601   2.9703   2.9703   3.8274   3.8274
     4.2521   4.2521   6.3022   6.3022   8.3836

          k = 0.0000 0.1878 0.0000 ( 10914 PWs)   bands (ev):

    -6.3579  -6.3579  -4.0159  -4.0159  -3.9885  -3.9885  -3.4228  -3.4228
    -3.2857  -3.2857  -3.2597  -3.2597   2.9546   2.9546   3.8192   3.8192
     4.2441   4.2441   6.3191   6.3191   8.3736

          k = 0.0000 0.1900 0.0000 ( 10910 PWs)   bands (ev):

    -6.3563  -6.3563  -4.0157  -4.0157  -3.9877  -3.9877  -3.4220  -3.4220
    -3.2858  -3.2858  -3.2592  -3.2592   2.9389   2.9389   3.8111   3.8111
     4.2361   4.2361   6.3359   6.3359   8.3636

          k = 0.0000 0.1922 0.0000 ( 10910 PWs)   bands (ev):

    -6.3546  -6.3546  -4.0155  -4.0155  -3.9869  -3.9869  -3.4213  -3.4213
    -3.2858  -3.2858  -3.2588  -3.2588   2.9231   2.9231   3.8029   3.8029
     4.2281   4.2281   6.3527   6.3527   8.3536

          k = 0.0000 0.1945 0.0000 ( 10910 PWs)   bands (ev):

    -6.3529  -6.3529  -4.0152  -4.0152  -3.9861  -3.9861  -3.4205  -3.4205
    -3.2858  -3.2858  -3.2583  -3.2583   2.9074   2.9074   3.7948   3.7948
     4.2200   4.2200   6.3694   6.3694   8.3436

          k = 0.0000 0.1967 0.0000 ( 10910 PWs)   bands (ev):

    -6.3512  -6.3512  -4.0150  -4.0150  -3.9853  -3.9853  -3.4198  -3.4198
    -3.2859  -3.2859  -3.2579  -3.2579   2.8916   2.8916   3.7867   3.7867
     4.2118   4.2118   6.3860   6.3860   8.3336

          k = 0.0000 0.1989 0.0000 ( 10902 PWs)   bands (ev):

    -6.3495  -6.3495  -4.0148  -4.0148  -3.9845  -3.9845  -3.4190  -3.4190
    -3.2859  -3.2859  -3.2574  -3.2574   2.8757   2.8757   3.7785   3.7785
     4.2037   4.2037   6.4026   6.4026   8.3236

          k = 0.0000 0.2011 0.0000 ( 10902 PWs)   bands (ev):

    -6.3478  -6.3478  -4.0146  -4.0146  -3.9837  -3.9837  -3.4182  -3.4182
    -3.2859  -3.2859  -3.2569  -3.2569   2.8599   2.8599   3.7704   3.7704
     4.1955   4.1955   6.4190   6.4190   8.3136

          k = 0.0000 0.2033 0.0000 ( 10902 PWs)   bands (ev):

    -6.3461  -6.3461  -4.0143  -4.0143  -3.9828  -3.9828  -3.4174  -3.4174
    -3.2860  -3.2860  -3.2564  -3.2564   2.8440   2.8440   3.7623   3.7623
     4.1873   4.1873   6.4354   6.4354   8.3036

          k = 0.0000 0.2055 0.0000 ( 10902 PWs)   bands (ev):

    -6.3444  -6.3444  -4.0141  -4.0141  -3.9820  -3.9820  -3.4167  -3.4167
    -3.2860  -3.2860  -3.2560  -3.2560   2.8282   2.8282   3.7542   3.7542
     4.1790   4.1790   6.4517   6.4517   8.2936

          k = 0.0000 0.2077 0.0000 ( 10910 PWs)   bands (ev):

    -6.3426  -6.3426  -4.0139  -4.0139  -3.9811  -3.9811  -3.4159  -3.4159
    -3.2860  -3.2860  -3.2555  -3.2555   2.8123   2.8123   3.7460   3.7460
     4.1707   4.1707   6.4679   6.4679   8.2837

          k = 0.0000 0.2099 0.0000 ( 10910 PWs)   bands (ev):

    -6.3409  -6.3409  -4.0136  -4.0136  -3.9802  -3.9802  -3.4150  -3.4150
    -3.2861  -3.2861  -3.2550  -3.2550   2.7964   2.7964   3.7379   3.7379
     4.1624   4.1624   6.4840   6.4840   8.2738

          k = 0.0000 0.2121 0.0000 ( 10910 PWs)   bands (ev):

    -6.3391  -6.3391  -4.0134  -4.0134  -3.9794  -3.9794  -3.4142  -3.4142
    -3.2861  -3.2861  -3.2544  -3.2544   2.7805   2.7805   3.7298   3.7298
     4.1541   4.1541   6.5000   6.5000   8.2638

          k = 0.0000 0.2143 0.0000 ( 10910 PWs)   bands (ev):

    -6.3373  -6.3373  -4.0131  -4.0131  -3.9785  -3.9785  -3.4134  -3.4134
    -3.2861  -3.2861  -3.2539  -3.2539   2.7646   2.7646   3.7216   3.7216
     4.1457   4.1457   6.5160   6.5160   8.2539

          k = 0.0000 0.2166 0.0000 ( 10902 PWs)   bands (ev):

    -6.3355  -6.3355  -4.0129  -4.0129  -3.9776  -3.9776  -3.4126  -3.4126
    -3.2862  -3.2862  -3.2534  -3.2534   2.7487   2.7487   3.7135   3.7135
     4.1373   4.1373   6.5318   6.5318   8.2441

          k = 0.0000 0.2188 0.0000 ( 10902 PWs)   bands (ev):

    -6.3337  -6.3337  -4.0127  -4.0127  -3.9767  -3.9767  -3.4117  -3.4117
    -3.2862  -3.2862  -3.2529  -3.2529   2.7328   2.7328   3.7054   3.7054
     4.1289   4.1289   6.5475   6.5475   8.2342

          k = 0.0000 0.2210 0.0000 ( 10918 PWs)   bands (ev):

    -6.3318  -6.3318  -4.0124  -4.0124  -3.9758  -3.9758  -3.4109  -3.4109
    -3.2862  -3.2862  -3.2523  -3.2523   2.7168   2.7168   3.6972   3.6972
     4.1205   4.1205   6.5632   6.5632   8.2244

          k = 0.0000 0.2232 0.0000 ( 10914 PWs)   bands (ev):

    -6.3300  -6.3300  -4.0122  -4.0122  -3.9749  -3.9749  -3.4101  -3.4101
    -3.2863  -3.2863  -3.2518  -3.2518   2.7009   2.7009   3.6891   3.6891
     4.1120   4.1120   6.5787   6.5787   8.2146

          k = 0.0000 0.2254 0.0000 ( 10910 PWs)   bands (ev):

    -6.3282  -6.3282  -4.0119  -4.0119  -3.9739  -3.9739  -3.4092  -3.4092
    -3.2863  -3.2863  -3.2512  -3.2512   2.6850   2.6850   3.6810   3.6810
     4.1035   4.1035   6.5941   6.5941   8.2049

          k = 0.0000 0.2276 0.0000 ( 10918 PWs)   bands (ev):

    -6.3263  -6.3263  -4.0117  -4.0117  -3.9730  -3.9730  -3.4083  -3.4083
    -3.2863  -3.2863  -3.2507  -3.2507   2.6691   2.6691   3.6728   3.6728
     4.0950   4.0950   6.6094   6.6094   8.1951

          k = 0.0000 0.2298 0.0000 ( 10918 PWs)   bands (ev):

    -6.3244  -6.3244  -4.0114  -4.0114  -3.9720  -3.9720  -3.4075  -3.4075
    -3.2863  -3.2863  -3.2501  -3.2501   2.6531   2.6531   3.6647   3.6647
     4.0865   4.0865   6.6246   6.6246   8.1854

          k = 0.0000 0.2320 0.0000 ( 10918 PWs)   bands (ev):

    -6.3225  -6.3225  -4.0112  -4.0112  -3.9711  -3.9711  -3.4066  -3.4066
    -3.2864  -3.2864  -3.2495  -3.2495   2.6372   2.6372   3.6566   3.6566
     4.0780   4.0780   6.6396   6.6396   8.1758

          k = 0.0000 0.2342 0.0000 ( 10918 PWs)   bands (ev):

    -6.3207  -6.3207  -4.0109  -4.0109  -3.9701  -3.9701  -3.4057  -3.4057
    -3.2864  -3.2864  -3.2489  -3.2489   2.6213   2.6213   3.6484   3.6484
     4.0694   4.0694   6.6546   6.6546   8.1662

          k = 0.0000 0.2364 0.0000 ( 10918 PWs)   bands (ev):

    -6.3188  -6.3188  -4.0106  -4.0106  -3.9692  -3.9692  -3.4048  -3.4048
    -3.2864  -3.2864  -3.2483  -3.2483   2.6054   2.6054   3.6403   3.6403
     4.0609   4.0609   6.6694   6.6694   8.1566

          k = 0.0000 0.2386 0.0000 ( 10918 PWs)   bands (ev):

    -6.3168  -6.3168  -4.0104  -4.0104  -3.9682  -3.9682  -3.4039  -3.4039
    -3.2864  -3.2864  -3.2477  -3.2477   2.5894   2.5894   3.6322   3.6322
     4.0523   4.0523   6.6841   6.6841   8.1471

          k = 0.0000 0.2409 0.0000 ( 10918 PWs)   bands (ev):

    -6.3149  -6.3149  -4.0101  -4.0101  -3.9672  -3.9672  -3.4030  -3.4030
    -3.2864  -3.2864  -3.2471  -3.2471   2.5735   2.5735   3.6240   3.6240
     4.0437   4.0437   6.6987   6.6987   8.1376

          k = 0.0000 0.2431 0.0000 ( 10918 PWs)   bands (ev):

    -6.3130  -6.3130  -4.0099  -4.0099  -3.9662  -3.9662  -3.4021  -3.4021
    -3.2865  -3.2865  -3.2465  -3.2465   2.5576   2.5576   3.6159   3.6159
     4.0351   4.0351   6.7131   6.7131   8.1281

          k = 0.0000 0.2453 0.0000 ( 10930 PWs)   bands (ev):

    -6.3110  -6.3110  -4.0096  -4.0096  -3.9652  -3.9652  -3.4012  -3.4012
    -3.2865  -3.2865  -3.2459  -3.2459   2.5417   2.5417   3.6078   3.6078
     4.0265   4.0265   6.7274   6.7274   8.1188

          k = 0.0000 0.2475 0.0000 ( 10930 PWs)   bands (ev):

    -6.3091  -6.3091  -4.0093  -4.0093  -3.9642  -3.9642  -3.4003  -3.4003
    -3.2865  -3.2865  -3.2452  -3.2452   2.5259   2.5259   3.5997   3.5997
     4.0179   4.0179   6.7415   6.7415   8.1094

          k = 0.0000 0.2497 0.0000 ( 10934 PWs)   bands (ev):

    -6.3071  -6.3071  -4.0091  -4.0091  -3.9632  -3.9632  -3.3994  -3.3994
    -3.2865  -3.2865  -3.2446  -3.2446   2.5100   2.5100   3.5915   3.5915
     4.0093   4.0093   6.7556   6.7556   8.1001

          k = 0.0000 0.2519 0.0000 ( 10930 PWs)   bands (ev):

    -6.3051  -6.3051  -4.0088  -4.0088  -3.9622  -3.9622  -3.3984  -3.3984
    -3.2865  -3.2865  -3.2439  -3.2439   2.4941   2.4941   3.5834   3.5834
     4.0006   4.0006   6.7694   6.7694   8.0909

          k = 0.0000 0.2541 0.0000 ( 10930 PWs)   bands (ev):

    -6.3032  -6.3032  -4.0085  -4.0085  -3.9611  -3.9611  -3.3975  -3.3975
    -3.2866  -3.2866  -3.2433  -3.2433   2.4782   2.4782   3.5753   3.5753
     3.9920   3.9920   6.7831   6.7831   8.0817

          k = 0.0000 0.2563 0.0000 ( 10938 PWs)   bands (ev):

    -6.3012  -6.3012  -4.0083  -4.0083  -3.9601  -3.9601  -3.3965  -3.3965
    -3.2866  -3.2866  -3.2426  -3.2426   2.4624   2.4624   3.5671   3.5671
     3.9833   3.9833   6.7967   6.7967   8.0726

          k = 0.0000 0.2585 0.0000 ( 10930 PWs)   bands (ev):

    -6.2992  -6.2992  -4.0080  -4.0080  -3.9591  -3.9591  -3.3956  -3.3956
    -3.2866  -3.2866  -3.2419  -3.2419   2.4466   2.4466   3.5590   3.5590
     3.9747   3.9747   6.8101   6.8101   8.0635

          k = 0.0000 0.2607 0.0000 ( 10930 PWs)   bands (ev):

    -6.2972  -6.2972  -4.0077  -4.0077  -3.9580  -3.9580  -3.3946  -3.3946
    -3.2866  -3.2866  -3.2412  -3.2412   2.4307   2.4307   3.5509   3.5509
     3.9660   3.9660   6.8233   6.8233   8.0545

          k = 0.0000 0.2630 0.0000 ( 10930 PWs)   bands (ev):

    -6.2952  -6.2952  -4.0075  -4.0075  -3.9570  -3.9570  -3.3937  -3.3937
    -3.2866  -3.2866  -3.2405  -3.2405   2.4149   2.4149   3.5428   3.5428
     3.9574   3.9574   6.8364   6.8364   8.0456

          k = 0.0000 0.2652 0.0000 ( 10922 PWs)   bands (ev):

    -6.2931  -6.2931  -4.0072  -4.0072  -3.9559  -3.9559  -3.3927  -3.3927
    -3.2866  -3.2866  -3.2398  -3.2398   2.3991   2.3991   3.5347   3.5347
     3.9487   3.9487   6.8493   6.8493   8.0367

          k = 0.0000 0.2674 0.0000 ( 10922 PWs)   bands (ev):

    -6.2911  -6.2911  -4.0069  -4.0069  -3.9548  -3.9548  -3.3917  -3.3917
    -3.2866  -3.2866  -3.2390  -3.2390   2.3834   2.3834   3.5266   3.5266
     3.9400   3.9400   6.8621   6.8621   8.0279

          k = 0.0000 0.2696 0.0000 ( 10922 PWs)   bands (ev):

    -6.2891  -6.2891  -4.0067  -4.0067  -3.9537  -3.9537  -3.3908  -3.3908
    -3.2866  -3.2866  -3.2383  -3.2383   2.3676   2.3676   3.5185   3.5185
     3.9314   3.9314   6.8746   6.8746   8.0191

          k = 0.0000 0.2718 0.0000 ( 10938 PWs)   bands (ev):

    -6.2870  -6.2870  -4.0064  -4.0064  -3.9526  -3.9526  -3.3898  -3.3898
    -3.2866  -3.2866  -3.2375  -3.2375   2.3519   2.3519   3.5104   3.5104
     3.9227   3.9227   6.8870   6.8870   8.0104

          k = 0.0000 0.2740 0.0000 ( 10938 PWs)   bands (ev):

    -6.2850  -6.2850  -4.0061  -4.0061  -3.9516  -3.9516  -3.3888  -3.3888
    -3.2866  -3.2866  -3.2368  -3.2368   2.3361   2.3361   3.5023   3.5023
     3.9140   3.9140   6.8992   6.8992   8.0018

          k = 0.0000 0.2762 0.0000 ( 10930 PWs)   bands (ev):

    -6.2829  -6.2829  -4.0058  -4.0058  -3.9504  -3.9504  -3.3878  -3.3878
    -3.2866  -3.2866  -3.2360  -3.2360   2.3204   2.3204   3.4942   3.4942
     3.9054   3.9054   6.9113   6.9113   7.9933

          k = 0.0000 0.2784 0.0000 ( 10930 PWs)   bands (ev):

    -6.2808  -6.2808  -4.0056  -4.0056  -3.9493  -3.9493  -3.3868  -3.3868
    -3.2866  -3.2866  -3.2352  -3.2352   2.3047   2.3047   3.4861   3.4861
     3.8967   3.8967   6.9231   6.9231   7.9848

          k = 0.0000 0.2806 0.0000 ( 10930 PWs)   bands (ev):

    -6.2788  -6.2788  -4.0053  -4.0053  -3.9482  -3.9482  -3.3858  -3.3858
    -3.2866  -3.2866  -3.2344  -3.2344   2.2891   2.2891   3.4781   3.4781
     3.8880   3.8880   6.9347   6.9347   7.9764

          k = 0.0000 0.2828 0.0000 ( 10930 PWs)   bands (ev):

    -6.2767  -6.2767  -4.0050  -4.0050  -3.9471  -3.9471  -3.3848  -3.3848
    -3.2866  -3.2866  -3.2336  -3.2336   2.2734   2.2734   3.4700   3.4700
     3.8794   3.8794   6.9462   6.9462   7.9681

          k = 0.0000 0.2851 0.0000 ( 10930 PWs)   bands (ev):

    -6.2746  -6.2746  -4.0047  -4.0047  -3.9460  -3.9460  -3.3838  -3.3838
    -3.2866  -3.2866  -3.2328  -3.2328   2.2578   2.2578   3.4620   3.4620
     3.8707   3.8707   6.9574   6.9574   7.9599

          k = 0.0000 0.2873 0.0000 ( 10930 PWs)   bands (ev):

    -6.2725  -6.2725  -4.0044  -4.0044  -3.9448  -3.9448  -3.3828  -3.3828
    -3.2866  -3.2866  -3.2320  -3.2320   2.2422   2.2422   3.4539   3.4539
     3.8621   3.8621   6.9685   6.9685   7.9518

          k = 0.0000 0.2895 0.0000 ( 10930 PWs)   bands (ev):

    -6.2704  -6.2704  -4.0042  -4.0042  -3.9437  -3.9437  -3.3818  -3.3818
    -3.2866  -3.2866  -3.2311  -3.2311   2.2266   2.2266   3.4459   3.4459
     3.8535   3.8535   6.9793   6.9793   7.9437

          k = 0.0000 0.2917 0.0000 ( 10938 PWs)   bands (ev):

    -6.2683  -6.2683  -4.0039  -4.0039  -3.9426  -3.9426  -3.3808  -3.3808
    -3.2866  -3.2866  -3.2303  -3.2303   2.2110   2.2110   3.4379   3.4379
     3.8448   3.8448   6.9899   6.9899   7.9357

          k = 0.0000 0.2939 0.0000 ( 10934 PWs)   bands (ev):

    -6.2662  -6.2662  -4.0036  -4.0036  -3.9414  -3.9414  -3.3798  -3.3798
    -3.2866  -3.2866  -3.2294  -3.2294   2.1955   2.1955   3.4298   3.4298
     3.8362   3.8362   7.0003   7.0003   7.9278

          k = 0.0000 0.2961 0.0000 ( 10934 PWs)   bands (ev):

    -6.2641  -6.2641  -4.0033  -4.0033  -3.9402  -3.9402  -3.3788  -3.3788
    -3.2866  -3.2866  -3.2285  -3.2285   2.1799   2.1799   3.4218   3.4218
     3.8276   3.8276   7.0105   7.0105   7.9200

          k = 0.0000 0.2983 0.0000 ( 10934 PWs)   bands (ev):

    -6.2620  -6.2620  -4.0030  -4.0030  -3.9391  -3.9391  -3.3778  -3.3778
    -3.2866  -3.2866  -3.2277  -3.2277   2.1645   2.1645   3.4138   3.4138
     3.8190   3.8190   7.0205   7.0205   7.9123

          k = 0.0000 0.3005 0.0000 ( 10934 PWs)   bands (ev):

    -6.2599  -6.2599  -4.0027  -4.0027  -3.9379  -3.9379  -3.3768  -3.3768
    -3.2866  -3.2866  -3.2267  -3.2267   2.1490   2.1490   3.4058   3.4058
     3.8104   3.8104   7.0302   7.0302   7.9047

          k = 0.0000 0.3027 0.0000 ( 10934 PWs)   bands (ev):

    -6.2578  -6.2578  -4.0025  -4.0025  -3.9367  -3.9367  -3.3757  -3.3757
    -3.2866  -3.2866  -3.2258  -3.2258   2.1335   2.1335   3.3979   3.3979
     3.8018   3.8018   7.0397   7.0397   7.8971

          k = 0.0000 0.3049 0.0000 ( 10934 PWs)   bands (ev):

    -6.2556  -6.2556  -4.0022  -4.0022  -3.9355  -3.9355  -3.3747  -3.3747
    -3.2865  -3.2865  -3.2249  -3.2249   2.1181   2.1181   3.3899   3.3899
     3.7933   3.7933   7.0490   7.0490   7.8897

          k = 0.0000 0.3071 0.0000 ( 10934 PWs)   bands (ev):

    -6.2535  -6.2535  -4.0019  -4.0019  -3.9344  -3.9344  -3.3737  -3.3737
    -3.2865  -3.2865  -3.2239  -3.2239   2.1027   2.1027   3.3820   3.3820
     3.7847   3.7847   7.0581   7.0581   7.8823

          k = 0.0000 0.3094 0.0000 ( 10934 PWs)   bands (ev):

    -6.2514  -6.2514  -4.0016  -4.0016  -3.9332  -3.9332  -3.3727  -3.3727
    -3.2865  -3.2865  -3.2230  -3.2230   2.0873   2.0873   3.3740   3.3740
     3.7762   3.7762   7.0669   7.0669   7.8751

          k = 0.0000 0.3116 0.0000 ( 10934 PWs)   bands (ev):

    -6.2492  -6.2492  -4.0013  -4.0013  -3.9320  -3.9320  -3.3716  -3.3716
    -3.2865  -3.2865  -3.2220  -3.2220   2.0720   2.0720   3.3661   3.3661
     3.7677   3.7677   7.0754   7.0754   7.8679

          k = 0.0000 0.3138 0.0000 ( 10934 PWs)   bands (ev):

    -6.2471  -6.2471  -4.0010  -4.0010  -3.9308  -3.9308  -3.3706  -3.3706
    -3.2865  -3.2865  -3.2210  -3.2210   2.0567   2.0567   3.3582   3.3582
     3.7591   3.7591   7.0838   7.0838   7.8609

          k = 0.0000 0.3160 0.0000 ( 10942 PWs)   bands (ev):

    -6.2449  -6.2449  -4.0007  -4.0007  -3.9296  -3.9296  -3.3696  -3.3696
    -3.2864  -3.2864  -3.2200  -3.2200   2.0414   2.0414   3.3503   3.3503
     3.7507   3.7507   7.0918   7.0918   7.8539

          k = 0.0000 0.3182 0.0000 ( 10942 PWs)   bands (ev):

    -6.2428  -6.2428  -4.0004  -4.0004  -3.9283  -3.9283  -3.3686  -3.3686
    -3.2864  -3.2864  -3.2190  -3.2190   2.0261   2.0261   3.3424   3.3424
     3.7422   3.7422   7.0997   7.0997   7.8471

          k = 0.0000 0.3204 0.0000 ( 10942 PWs)   bands (ev):

    -6.2406  -6.2406  -4.0002  -4.0002  -3.9271  -3.9271  -3.3675  -3.3675
    -3.2864  -3.2864  -3.2180  -3.2180   2.0109   2.0109   3.3345   3.3345
     3.7337   3.7337   7.1072   7.1072   7.8404

          k = 0.0000 0.3226 0.0000 ( 10934 PWs)   bands (ev):

    -6.2385  -6.2385  -3.9999  -3.9999  -3.9259  -3.9259  -3.3665  -3.3665
    -3.2863  -3.2863  -3.2169  -3.2169   1.9957   1.9957   3.3267   3.3267
     3.7253   3.7253   7.1146   7.1146   7.8337

          k = 0.0000 0.3248 0.0000 ( 10930 PWs)   bands (ev):

    -6.2363  -6.2363  -3.9996  -3.9996  -3.9247  -3.9247  -3.3655  -3.3655
    -3.2863  -3.2863  -3.2158  -3.2158   1.9805   1.9805   3.3189   3.3189
     3.7168   3.7168   7.1216   7.1216   7.8272

          k = 0.0000 0.3270 0.0000 ( 10930 PWs)   bands (ev):

    -6.2342  -6.2342  -3.9993  -3.9993  -3.9234  -3.9234  -3.3645  -3.3645
    -3.2863  -3.2863  -3.2148  -3.2148   1.9654   1.9654   3.3110   3.3110
     3.7084   3.7084   7.1284   7.1284   7.8208

          k = 0.0000 0.3292 0.0000 ( 10930 PWs)   bands (ev):

    -6.2320  -6.2320  -3.9990  -3.9990  -3.9222  -3.9222  -3.3634  -3.3634
    -3.2862  -3.2862  -3.2137  -3.2137   1.9502   1.9502   3.3032   3.3032
     3.7000   3.7000   7.1350   7.1350   7.8145

          k = 0.0000 0.3315 0.0000 ( 10930 PWs)   bands (ev):

    -6.2299  -6.2299  -3.9987  -3.9987  -3.9210  -3.9210  -3.3624  -3.3624
    -3.2862  -3.2862  -3.2126  -3.2126   1.9352   1.9352   3.2955   3.2955
     3.6917   3.6917   7.1412   7.1412   7.8083

          k = 0.0000 0.3337 0.0000 ( 10930 PWs)   bands (ev):

    -6.2277  -6.2277  -3.9984  -3.9984  -3.9197  -3.9197  -3.3614  -3.3614
    -3.2861  -3.2861  -3.2114  -3.2114   1.9201   1.9201   3.2877   3.2877
     3.6833   3.6833   7.1472   7.1472   7.8022

          k = 0.0000 0.3359 0.0000 ( 10930 PWs)   bands (ev):

    -6.2255  -6.2255  -3.9981  -3.9981  -3.9185  -3.9185  -3.3604  -3.3604
    -3.2861  -3.2861  -3.2103  -3.2103   1.9051   1.9051   3.2800   3.2800
     3.6750   3.6750   7.1530   7.1530   7.7962

          k = 0.0000 0.3381 0.0000 ( 10930 PWs)   bands (ev):

    -6.2234  -6.2234  -3.9979  -3.9979  -3.9172  -3.9172  -3.3594  -3.3594
    -3.2860  -3.2860  -3.2091  -3.2091   1.8901   1.8901   3.2722   3.2722
     3.6667   3.6667   7.1585   7.1585   7.7903

          k = 0.0000 0.3403 0.0000 ( 10930 PWs)   bands (ev):

    -6.2212  -6.2212  -3.9976  -3.9976  -3.9160  -3.9160  -3.3584  -3.3584
    -3.2860  -3.2860  -3.2079  -3.2079   1.8752   1.8752   3.2645   3.2645
     3.6584   3.6584   7.1637   7.1637   7.7845

          k = 0.0000 0.3425 0.0000 ( 10930 PWs)   bands (ev):

    -6.2191  -6.2191  -3.9973  -3.9973  -3.9147  -3.9147  -3.3574  -3.3574
    -3.2859  -3.2859  -3.2067  -3.2067   1.8602   1.8602   3.2568   3.2568
     3.6501   3.6501   7.1686   7.1686   7.7789

          k = 0.0000 0.3447 0.0000 ( 10930 PWs)   bands (ev):

    -6.2169  -6.2169  -3.9970  -3.9970  -3.9134  -3.9134  -3.3564  -3.3564
    -3.2858  -3.2858  -3.2055  -3.2055   1.8454   1.8454   3.2492   3.2492
     3.6419   3.6419   7.1733   7.1733   7.7733

          k = 0.0000 0.3469 0.0000 ( 10930 PWs)   bands (ev):

    -6.2147  -6.2147  -3.9967  -3.9967  -3.9122  -3.9122  -3.3554  -3.3554
    -3.2858  -3.2858  -3.2043  -3.2043   1.8305   1.8305   3.2415   3.2415
     3.6337   3.6337   7.1777   7.1777   7.7679

          k = 0.0000 0.3491 0.0000 ( 10930 PWs)   bands (ev):

    -6.2126  -6.2126  -3.9964  -3.9964  -3.9109  -3.9109  -3.3544  -3.3544
    -3.2857  -3.2857  -3.2030  -3.2030   1.8157   1.8157   3.2339   3.2339
     3.6255   3.6255   7.1819   7.1819   7.7626

          k = 0.0000 0.3513 0.0000 ( 10930 PWs)   bands (ev):

    -6.2104  -6.2104  -3.9961  -3.9961  -3.9096  -3.9096  -3.3534  -3.3534
    -3.2856  -3.2856  -3.2018  -3.2018   1.8009   1.8009   3.2263   3.2263
     3.6173   3.6173   7.1857   7.1857   7.7574

          k = 0.0000 0.3536 0.0000 ( 10930 PWs)   bands (ev):

    -6.2082  -6.2082  -3.9958  -3.9958  -3.9084  -3.9084  -3.3524  -3.3524
    -3.2856  -3.2856  -3.2005  -3.2005   1.7862   1.7862   3.2187   3.2187
     3.6092   3.6092   7.1894   7.1894   7.7522

          k = 0.0000 0.3558 0.0000 ( 10930 PWs)   bands (ev):

    -6.2061  -6.2061  -3.9955  -3.9955  -3.9071  -3.9071  -3.3514  -3.3514
    -3.2855  -3.2855  -3.1992  -3.1992   1.7715   1.7715   3.2112   3.2112
     3.6011   3.6011   7.1927   7.1927   7.7472

          k = 0.0000 0.3580 0.0000 ( 10930 PWs)   bands (ev):

    -6.2039  -6.2039  -3.9953  -3.9953  -3.9058  -3.9058  -3.3504  -3.3504
    -3.2854  -3.2854  -3.1978  -3.1978   1.7568   1.7568   3.2036   3.2036
     3.5930   3.5930   7.1958   7.1958   7.7423

          k = 0.0000 0.3602 0.0000 ( 10930 PWs)   bands (ev):

    -6.2018  -6.2018  -3.9950  -3.9950  -3.9045  -3.9045  -3.3494  -3.3494
    -3.2853  -3.2853  -3.1965  -3.1965   1.7422   1.7422   3.1961   3.1961
     3.5849   3.5849   7.1986   7.1986   7.7375

          k = 0.0000 0.3624 0.0000 ( 10914 PWs)   bands (ev):

    -6.1996  -6.1996  -3.9947  -3.9947  -3.9032  -3.9032  -3.3485  -3.3485
    -3.2852  -3.2852  -3.1951  -3.1951   1.7276   1.7276   3.1886   3.1886
     3.5769   3.5769   7.2012   7.2012   7.7328

          k = 0.0000 0.3646 0.0000 ( 10906 PWs)   bands (ev):

    -6.1975  -6.1975  -3.9944  -3.9944  -3.9020  -3.9020  -3.3475  -3.3475
    -3.2852  -3.2852  -3.1938  -3.1938   1.7130   1.7130   3.1812   3.1812
     3.5689   3.5689   7.2036   7.2036   7.7281

          k = 0.0000 0.3668 0.0000 ( 10906 PWs)   bands (ev):

    -6.1953  -6.1953  -3.9941  -3.9941  -3.9007  -3.9007  -3.3466  -3.3466
    -3.2851  -3.2851  -3.1924  -3.1924   1.6985   1.6985   3.1738   3.1738
     3.5609   3.5609   7.2056   7.2056   7.7236

          k = 0.0000 0.3690 0.0000 ( 10898 PWs)   bands (ev):

    -6.1932  -6.1932  -3.9938  -3.9938  -3.8994  -3.8994  -3.3456  -3.3456
    -3.2850  -3.2850  -3.1909  -3.1909   1.6840   1.6840   3.1663   3.1663
     3.5530   3.5530   7.2075   7.2075   7.7192

          k = 0.0000 0.3712 0.0000 ( 10890 PWs)   bands (ev):

    -6.1910  -6.1910  -3.9935  -3.9935  -3.8981  -3.8981  -3.3447  -3.3447
    -3.2849  -3.2849  -3.1895  -3.1895   1.6696   1.6696   3.1590   3.1590
     3.5451   3.5451   7.2091   7.2091   7.7148

          k = 0.0000 0.3734 0.0000 ( 10890 PWs)   bands (ev):

    -6.1889  -6.1889  -3.9933  -3.9933  -3.8968  -3.8968  -3.3437  -3.3437
    -3.2848  -3.2848  -3.1880  -3.1880   1.6552   1.6552   3.1516   3.1516
     3.5372   3.5372   7.2105   7.2105   7.7105

          k = 0.0000 0.3757 0.0000 ( 10890 PWs)   bands (ev):

    -6.1867  -6.1867  -3.9930  -3.9930  -3.8955  -3.8955  -3.3428  -3.3428
    -3.2846  -3.2846  -3.1866  -3.1866   1.6409   1.6409   3.1443   3.1443
     3.5293   3.5293   7.2116   7.2116   7.7063

          k = 0.0000 0.3779 0.0000 ( 10890 PWs)   bands (ev):

    -6.1846  -6.1846  -3.9927  -3.9927  -3.8942  -3.8942  -3.3419  -3.3419
    -3.2845  -3.2845  -3.1851  -3.1851   1.6266   1.6266   3.1370   3.1370
     3.5215   3.5215   7.2125   7.2125   7.7021

          k = 0.0000 0.3801 0.0000 ( 10890 PWs)   bands (ev):

    -6.1825  -6.1825  -3.9924  -3.9924  -3.8929  -3.8929  -3.3410  -3.3410
    -3.2844  -3.2844  -3.1835  -3.1835   1.6123   1.6123   3.1297   3.1297
     3.5137   3.5137   7.2132   7.2132   7.6981

          k = 0.0000 0.3823 0.0000 ( 10902 PWs)   bands (ev):

    -6.1803  -6.1803  -3.9921  -3.9921  -3.8916  -3.8916  -3.3401  -3.3401
    -3.2843  -3.2843  -3.1820  -3.1820   1.5981   1.5981   3.1225   3.1225
     3.5059   3.5059   7.2137   7.2137   7.6941

          k = 0.0000 0.3845 0.0000 ( 10902 PWs)   bands (ev):

    -6.1782  -6.1782  -3.9918  -3.9918  -3.8903  -3.8903  -3.3392  -3.3392
    -3.2842  -3.2842  -3.1805  -3.1805   1.5839   1.5839   3.1152   3.1152
     3.4982   3.4982   7.2140   7.2140   7.6901

          k = 0.0000 0.3867 0.0000 ( 10902 PWs)   bands (ev):

    -6.1761  -6.1761  -3.9916  -3.9916  -3.8890  -3.8890  -3.3383  -3.3383
    -3.2840  -3.2840  -3.1789  -3.1789   1.5697   1.5697   3.1081   3.1081
     3.4905   3.4905   7.2141   7.2141   7.6862

          k = 0.0000 0.3889 0.0000 ( 10902 PWs)   bands (ev):

    -6.1740  -6.1740  -3.9913  -3.9913  -3.8877  -3.8877  -3.3374  -3.3374
    -3.2839  -3.2839  -3.1773  -3.1773   1.5556   1.5556   3.1009   3.1009
     3.4829   3.4829   7.2140   7.2140   7.6824

          k = 0.0000 0.3911 0.0000 ( 10902 PWs)   bands (ev):

    -6.1719  -6.1719  -3.9910  -3.9910  -3.8864  -3.8864  -3.3366  -3.3366
    -3.2837  -3.2837  -3.1757  -3.1757   1.5416   1.5416   3.0938   3.0938
     3.4752   3.4752   7.2137   7.2137   7.6786

          k = 0.0000 0.3933 0.0000 ( 10902 PWs)   bands (ev):

    -6.1698  -6.1698  -3.9907  -3.9907  -3.8852  -3.8852  -3.3357  -3.3357
    -3.2836  -3.2836  -3.1740  -3.1740   1.5276   1.5276   3.0867   3.0867
     3.4676   3.4676   7.2132   7.2132   7.6748

          k = 0.0000 0.3955 0.0000 ( 10902 PWs)   bands (ev):

    -6.1677  -6.1677  -3.9904  -3.9904  -3.8839  -3.8839  -3.3349  -3.3349
    -3.2834  -3.2834  -3.1724  -3.1724   1.5136   1.5136   3.0796   3.0796
     3.4601   3.4601   7.2126   7.2126   7.6711

          k = 0.0000 0.3977 0.0000 ( 10910 PWs)   bands (ev):

    -6.1656  -6.1656  -3.9902  -3.9902  -3.8826  -3.8826  -3.3340  -3.3340
    -3.2833  -3.2833  -3.1707  -3.1707   1.4997   1.4997   3.0726   3.0726
     3.4526   3.4526   7.2118   7.2118   7.6674

          k = 0.0000 0.4000 0.0000 ( 10910 PWs)   bands (ev):

    -6.1635  -6.1635  -3.9899  -3.9899  -3.8813  -3.8813  -3.3332  -3.3332
    -3.2831  -3.2831  -3.1690  -3.1690   1.4859   1.4859   3.0656   3.0656
     3.4451   3.4451   7.2108   7.2108   7.6637

          k = 0.0000 0.4022 0.0000 ( 10910 PWs)   bands (ev):

    -6.1614  -6.1614  -3.9896  -3.9896  -3.8800  -3.8800  -3.3324  -3.3324
    -3.2830  -3.2830  -3.1673  -3.1673   1.4721   1.4721   3.0586   3.0586
     3.4376   3.4376   7.2097   7.2097   7.6600

          k = 0.0000 0.4044 0.0000 ( 10910 PWs)   bands (ev):

    -6.1593  -6.1593  -3.9893  -3.9893  -3.8787  -3.8787  -3.3316  -3.3316
    -3.2828  -3.2828  -3.1655  -3.1655   1.4583   1.4583   3.0516   3.0516
     3.4302   3.4302   7.2084   7.2084   7.6564

          k = 0.0000 0.4066 0.0000 ( 10910 PWs)   bands (ev):

    -6.1572  -6.1572  -3.9891  -3.9891  -3.8774  -3.8774  -3.3308  -3.3308
    -3.2826  -3.2826  -3.1638  -3.1638   1.4446   1.4446   3.0447   3.0447
     3.4229   3.4229   7.2070   7.2070   7.6528

          k = 0.0000 0.4088 0.0000 ( 10902 PWs)   bands (ev):

    -6.1552  -6.1552  -3.9888  -3.9888  -3.8761  -3.8761  -3.3300  -3.3300
    -3.2824  -3.2824  -3.1620  -3.1620   1.4309   1.4309   3.0379   3.0379
     3.4155   3.4155   7.2055   7.2055   7.6491

          k = 0.0000 0.4110 0.0000 ( 10902 PWs)   bands (ev):

    -6.1531  -6.1531  -3.9885  -3.9885  -3.8748  -3.8748  -3.3293  -3.3293
    -3.2822  -3.2822  -3.1602  -3.1602   1.4173   1.4173   3.0310   3.0310
     3.4082   3.4082   7.2038   7.2038   7.6455

          k = 0.0000 0.4132 0.0000 ( 10902 PWs)   bands (ev):

    -6.1510  -6.1510  -3.9882  -3.9882  -3.8735  -3.8735  -3.3285  -3.3285
    -3.2820  -3.2820  -3.1583  -3.1583   1.4037   1.4037   3.0242   3.0242
     3.4010   3.4010   7.2021   7.2021   7.6419

          k = 0.0000 0.4154 0.0000 ( 10910 PWs)   bands (ev):

    -6.1490  -6.1490  -3.9880  -3.9880  -3.8722  -3.8722  -3.3278  -3.3278
    -3.2818  -3.2818  -3.1565  -3.1565   1.3902   1.3902   3.0174   3.0174
     3.3937   3.3937   7.2002   7.2002   7.6383

          k = 0.0000 0.4176 0.0000 ( 10910 PWs)   bands (ev):

    -6.1470  -6.1470  -3.9877  -3.9877  -3.8710  -3.8710  -3.3270  -3.3270
    -3.2816  -3.2816  -3.1546  -3.1546   1.3767   1.3767   3.0107   3.0107
     3.3865   3.3865   7.1982   7.1982   7.6346

          k = 0.0000 0.4198 0.0000 ( 10922 PWs)   bands (ev):

    -6.1449  -6.1449  -3.9874  -3.9874  -3.8697  -3.8697  -3.3263  -3.3263
    -3.2814  -3.2814  -3.1528  -3.1528   1.3633   1.3633   3.0040   3.0040
     3.3794   3.3794   7.1961   7.1961   7.6310

          k = 0.0000 0.4221 0.0000 ( 10922 PWs)   bands (ev):

    -6.1429  -6.1429  -3.9872  -3.9872  -3.8684  -3.8684  -3.3256  -3.3256
    -3.2812  -3.2812  -3.1509  -3.1509   1.3500   1.3500   2.9973   2.9973
     3.3723   3.3723   7.1940   7.1940   7.6273

          k = 0.0000 0.4243 0.0000 ( 10922 PWs)   bands (ev):

    -6.1409  -6.1409  -3.9869  -3.9869  -3.8671  -3.8671  -3.3249  -3.3249
    -3.2810  -3.2810  -3.1489  -3.1489   1.3367   1.3367   2.9907   2.9907
     3.3652   3.3652   7.1917   7.1917   7.6236

          k = 0.0000 0.4265 0.0000 ( 10914 PWs)   bands (ev):

    -6.1389  -6.1389  -3.9866  -3.9866  -3.8659  -3.8659  -3.3242  -3.3242
    -3.2808  -3.2808  -3.1470  -3.1470   1.3234   1.3234   2.9841   2.9841
     3.3582   3.3582   7.1894   7.1894   7.6199

          k = 0.0000 0.4287 0.0000 ( 10914 PWs)   bands (ev):

    -6.1369  -6.1369  -3.9864  -3.9864  -3.8646  -3.8646  -3.3235  -3.3235
    -3.2805  -3.2805  -3.1450  -3.1450   1.3102   1.3102   2.9775   2.9775
     3.3512   3.3512   7.1870   7.1870   7.6162

          k = 0.0000 0.4309 0.0000 ( 10906 PWs)   bands (ev):

    -6.1349  -6.1349  -3.9861  -3.9861  -3.8633  -3.8633  -3.3229  -3.3229
    -3.2803  -3.2803  -3.1431  -3.1431   1.2971   1.2971   2.9710   2.9710
     3.3443   3.3443   7.1845   7.1845   7.6125

          k = 0.0000 0.4331 0.0000 ( 10906 PWs)   bands (ev):

    -6.1329  -6.1329  -3.9858  -3.9858  -3.8621  -3.8621  -3.3222  -3.3222
    -3.2800  -3.2800  -3.1411  -3.1411   1.2840   1.2840   2.9645   2.9645
     3.3374   3.3374   7.1820   7.1820   7.6087

          k = 0.0000 0.4353 0.0000 ( 10906 PWs)   bands (ev):

    -6.1309  -6.1309  -3.9856  -3.9856  -3.8608  -3.8608  -3.3216  -3.3216
    -3.2798  -3.2798  -3.1391  -3.1391   1.2709   1.2709   2.9581   2.9581
     3.3305   3.3305   7.1794   7.1794   7.6049

          k = 0.0000 0.4375 0.0000 ( 10906 PWs)   bands (ev):

    -6.1289  -6.1289  -3.9853  -3.9853  -3.8595  -3.8595  -3.3210  -3.3210
    -3.2795  -3.2795  -3.1370  -3.1370   1.2580   1.2580   2.9517   2.9517
     3.3237   3.3237   7.1768   7.1768   7.6010

          k = 0.0000 0.4397 0.0000 ( 10906 PWs)   bands (ev):

    -6.1270  -6.1270  -3.9850  -3.9850  -3.8583  -3.8583  -3.3204  -3.3204
    -3.2792  -3.2792  -3.1350  -3.1350   1.2451   1.2451   2.9453   2.9453
     3.3169   3.3169   7.1741   7.1741   7.5971

          k = 0.0000 0.4419 0.0000 ( 10906 PWs)   bands (ev):

    -6.1250  -6.1250  -3.9848  -3.9848  -3.8570  -3.8570  -3.3198  -3.3198
    -3.2790  -3.2790  -3.1329  -3.1329   1.2322   1.2322   2.9390   2.9390
     3.3102   3.3102   7.1713   7.1713   7.5932

          k = 0.0000 0.4442 0.0000 ( 10906 PWs)   bands (ev):

    -6.1231  -6.1231  -3.9845  -3.9845  -3.8558  -3.8558  -3.3192  -3.3192
    -3.2787  -3.2787  -3.1308  -3.1308   1.2194   1.2194   2.9327   2.9327
     3.3035   3.3035   7.1686   7.1686   7.5893

          k = 0.0000 0.4464 0.0000 ( 10914 PWs)   bands (ev):

    -6.1212  -6.1212  -3.9843  -3.9843  -3.8546  -3.8546  -3.3187  -3.3187
    -3.2784  -3.2784  -3.1287  -3.1287   1.2067   1.2067   2.9264   2.9264
     3.2969   3.2969   7.1658   7.1658   7.5853

          k = 0.0000 0.4486 0.0000 ( 10902 PWs)   bands (ev):

    -6.1192  -6.1192  -3.9840  -3.9840  -3.8533  -3.8533  -3.3181  -3.3181
    -3.2781  -3.2781  -3.1266  -3.1266   1.1940   1.1940   2.9202   2.9202
     3.2903   3.2903   7.1629   7.1629   7.5813

          k = 0.0000 0.4508 0.0000 ( 10902 PWs)   bands (ev):

    -6.1173  -6.1173  -3.9838  -3.9838  -3.8521  -3.8521  -3.3176  -3.3176
    -3.2778  -3.2778  -3.1244  -3.1244   1.1814   1.1814   2.9140   2.9140
     3.2837   3.2837   7.1601   7.1601   7.5772

          k = 0.0000 0.4530 0.0000 ( 10902 PWs)   bands (ev):

    -6.1154  -6.1154  -3.9835  -3.9835  -3.8509  -3.8509  -3.3170  -3.3170
    -3.2775  -3.2775  -3.1223  -3.1223   1.1688   1.1688   2.9079   2.9079
     3.2772   3.2772   7.1572   7.1572   7.5731

          k = 0.0000 0.4552 0.0000 ( 10902 PWs)   bands (ev):

    -6.1135  -6.1135  -3.9833  -3.9833  -3.8496  -3.8496  -3.3165  -3.3165
    -3.2772  -3.2772  -3.1201  -3.1201   1.1563   1.1563   2.9018   2.9018
     3.2707   3.2707   7.1543   7.1543   7.5690

          k = 0.0000 0.4574 0.0000 ( 10902 PWs)   bands (ev):

    -6.1116  -6.1116  -3.9830  -3.9830  -3.8484  -3.8484  -3.3160  -3.3160
    -3.2769  -3.2769  -3.1179  -3.1179   1.1439   1.1439   2.8957   2.8957
     3.2643   3.2643   7.1514   7.1514   7.5648

          k = 0.0000 0.4596 0.0000 ( 10902 PWs)   bands (ev):

    -6.1098  -6.1098  -3.9828  -3.9828  -3.8472  -3.8472  -3.3155  -3.3155
    -3.2766  -3.2766  -3.1157  -3.1157   1.1316   1.1316   2.8897   2.8897
     3.2579   3.2579   7.1485   7.1485   7.5605

          k = 0.0000 0.4618 0.0000 ( 10902 PWs)   bands (ev):

    -6.1079  -6.1079  -3.9825  -3.9825  -3.8460  -3.8460  -3.3151  -3.3151
    -3.2763  -3.2763  -3.1135  -3.1135   1.1193   1.1193   2.8838   2.8838
     3.2516   3.2516   7.1455   7.1455   7.5563

          k = 0.0000 0.4640 0.0000 ( 10902 PWs)   bands (ev):

    -6.1061  -6.1061  -3.9823  -3.9823  -3.8448  -3.8448  -3.3146  -3.3146
    -3.2759  -3.2759  -3.1113  -3.1113   1.1070   1.1070   2.8778   2.8778
     3.2453   3.2453   7.1426   7.1426   7.5520

          k = 0.0000 0.4662 0.0000 ( 10902 PWs)   bands (ev):

    -6.1042  -6.1042  -3.9820  -3.9820  -3.8436  -3.8436  -3.3141  -3.3141
    -3.2756  -3.2756  -3.1090  -3.1090   1.0949   1.0949   2.8719   2.8719
     3.2391   3.2391   7.1397   7.1397   7.5476

          k = 0.0000 0.4685 0.0000 ( 10886 PWs)   bands (ev):

    -6.1024  -6.1024  -3.9818  -3.9818  -3.8424  -3.8424  -3.3137  -3.3137
    -3.2753  -3.2753  -3.1068  -3.1068   1.0828   1.0828   2.8661   2.8661
     3.2329   3.2329   7.1367   7.1367   7.5433

          k = 0.0000 0.4707 0.0000 ( 10878 PWs)   bands (ev):

    -6.1006  -6.1006  -3.9816  -3.9816  -3.8412  -3.8412  -3.3133  -3.3133
    -3.2749  -3.2749  -3.1045  -3.1045   1.0707   1.0707   2.8603   2.8603
     3.2268   3.2268   7.1338   7.1338   7.5388

          k = 0.0000 0.4729 0.0000 ( 10878 PWs)   bands (ev):

    -6.0988  -6.0988  -3.9813  -3.9813  -3.8401  -3.8401  -3.3129  -3.3129
    -3.2746  -3.2746  -3.1022  -3.1022   1.0588   1.0588   2.8545   2.8545
     3.2207   3.2207   7.1308   7.1308   7.5344

          k = 0.0000 0.4751 0.0000 ( 10874 PWs)   bands (ev):

    -6.0970  -6.0970  -3.9811  -3.9811  -3.8389  -3.8389  -3.3125  -3.3125
    -3.2742  -3.2742  -3.0999  -3.0999   1.0469   1.0469   2.8488   2.8488
     3.2146   3.2146   7.1279   7.1279   7.5299

          k = 0.0000 0.4773 0.0000 ( 10890 PWs)   bands (ev):

    -6.0952  -6.0952  -3.9809  -3.9809  -3.8377  -3.8377  -3.3121  -3.3121
    -3.2739  -3.2739  -3.0976  -3.0976   1.0351   1.0351   2.8432   2.8432
     3.2086   3.2086   7.1250   7.1250   7.5254

          k = 0.0000 0.4795 0.0000 ( 10890 PWs)   bands (ev):

    -6.0934  -6.0934  -3.9806  -3.9806  -3.8366  -3.8366  -3.3117  -3.3117
    -3.2735  -3.2735  -3.0953  -3.0953   1.0233   1.0233   2.8375   2.8375
     3.2027   3.2027   7.1221   7.1221   7.5208

          k = 0.0000 0.4817 0.0000 ( 10890 PWs)   bands (ev):

    -6.0917  -6.0917  -3.9804  -3.9804  -3.8354  -3.8354  -3.3113  -3.3113
    -3.2732  -3.2732  -3.0930  -3.0930   1.0116   1.0116   2.8320   2.8320
     3.1968   3.1968   7.1192   7.1192   7.5162

          k = 0.0000 0.4839 0.0000 ( 10898 PWs)   bands (ev):

    -6.0899  -6.0899  -3.9802  -3.9802  -3.8343  -3.8343  -3.3109  -3.3109
    -3.2728  -3.2728  -3.0906  -3.0906   1.0000   1.0000   2.8264   2.8264
     3.1909   3.1909   7.1164   7.1164   7.5116

          k = 0.0000 0.4861 0.0000 ( 10898 PWs)   bands (ev):

    -6.0882  -6.0882  -3.9799  -3.9799  -3.8332  -3.8332  -3.3106  -3.3106
    -3.2724  -3.2724  -3.0883  -3.0883   0.9885   0.9885   2.8209   2.8209
     3.1851   3.1851   7.1135   7.1135   7.5069

          k = 0.0000 0.4883 0.0000 ( 10898 PWs)   bands (ev):

    -6.0865  -6.0865  -3.9797  -3.9797  -3.8320  -3.8320  -3.3102  -3.3102
    -3.2721  -3.2721  -3.0859  -3.0859   0.9770   0.9770   2.8155   2.8155
     3.1794   3.1794   7.1107   7.1107   7.5022

          k = 0.0000 0.4906 0.0000 ( 10898 PWs)   bands (ev):

    -6.0848  -6.0848  -3.9795  -3.9795  -3.8309  -3.8309  -3.3099  -3.3099
    -3.2717  -3.2717  -3.0835  -3.0835   0.9656   0.9656   2.8101   2.8101
     3.1737   3.1737   7.1079   7.1079   7.4975

          k = 0.0000 0.4928 0.0000 ( 10906 PWs)   bands (ev):

    -6.0831  -6.0831  -3.9793  -3.9793  -3.8298  -3.8298  -3.3096  -3.3096
    -3.2713  -3.2713  -3.0811  -3.0811   0.9543   0.9543   2.8047   2.8047
     3.1680   3.1680   7.1051   7.1051   7.4927

          k = 0.0000 0.4950 0.0000 ( 10906 PWs)   bands (ev):

    -6.0814  -6.0814  -3.9790  -3.9790  -3.8287  -3.8287  -3.3093  -3.3093
    -3.2710  -3.2710  -3.0788  -3.0788   0.9431   0.9431   2.7994   2.7994
     3.1624   3.1624   7.1024   7.1024   7.4879

          k = 0.0000 0.4972 0.0000 ( 10906 PWs)   bands (ev):

    -6.0797  -6.0797  -3.9788  -3.9788  -3.8276  -3.8276  -3.3090  -3.3090
    -3.2706  -3.2706  -3.0764  -3.0764   0.9319   0.9319   2.7941   2.7941
     3.1568   3.1568   7.0996   7.0996   7.4831

          k = 0.0000 0.4994 0.0000 ( 10906 PWs)   bands (ev):

    -6.0781  -6.0781  -3.9786  -3.9786  -3.8265  -3.8265  -3.3087  -3.3087
    -3.2702  -3.2702  -3.0740  -3.0740   0.9209   0.9209   2.7889   2.7889
     3.1513   3.1513   7.0969   7.0969   7.4783

          k = 0.0000 0.5016 0.0000 ( 10906 PWs)   bands (ev):

    -6.0764  -6.0764  -3.9784  -3.9784  -3.8254  -3.8254  -3.3084  -3.3084
    -3.2698  -3.2698  -3.0715  -3.0715   0.9098   0.9098   2.7838   2.7838
     3.1459   3.1459   7.0943   7.0943   7.4734

          k = 0.0000 0.5038 0.0000 ( 10906 PWs)   bands (ev):

    -6.0748  -6.0748  -3.9782  -3.9782  -3.8243  -3.8243  -3.3081  -3.3081
    -3.2695  -3.2695  -3.0691  -3.0691   0.8989   0.8989   2.7786   2.7786
     3.1405   3.1405   7.0916   7.0916   7.4685

          k = 0.0000 0.5060 0.0000 ( 10906 PWs)   bands (ev):

    -6.0732  -6.0732  -3.9780  -3.9780  -3.8233  -3.8233  -3.3078  -3.3078
    -3.2691  -3.2691  -3.0667  -3.0667   0.8881   0.8881   2.7736   2.7736
     3.1351   3.1351   7.0890   7.0890   7.4636

          k = 0.0000 0.5082 0.0000 ( 10890 PWs)   bands (ev):

    -6.0716  -6.0716  -3.9778  -3.9778  -3.8222  -3.8222  -3.3076  -3.3076
    -3.2687  -3.2687  -3.0643  -3.0643   0.8773   0.8773   2.7685   2.7685
     3.1298   3.1298   7.0865   7.0865   7.4587

          k = 0.0000 0.5104 0.0000 ( 10890 PWs)   bands (ev):

    -6.0700  -6.0700  -3.9775  -3.9775  -3.8212  -3.8212  -3.3073  -3.3073
    -3.2683  -3.2683  -3.0618  -3.0618   0.8666   0.8666   2.7636   2.7636
     3.1246   3.1246   7.0839   7.0839   7.4538

          k = 0.0000 0.5127 0.0000 ( 10890 PWs)   bands (ev):

    -6.0684  -6.0684  -3.9773  -3.9773  -3.8201  -3.8201  -3.3071  -3.3071
    -3.2679  -3.2679  -3.0594  -3.0594   0.8560   0.8560   2.7586   2.7586
     3.1194   3.1194   7.0814   7.0814   7.4488

          k = 0.0000 0.5149 0.0000 ( 10890 PWs)   bands (ev):

    -6.0669  -6.0669  -3.9771  -3.9771  -3.8191  -3.8191  -3.3068  -3.3068
    -3.2675  -3.2675  -3.0570  -3.0570   0.8455   0.8455   2.7537   2.7537
     3.1142   3.1142   7.0790   7.0790   7.4438

          k = 0.0000 0.5171 0.0000 ( 10890 PWs)   bands (ev):

    -6.0653  -6.0653  -3.9769  -3.9769  -3.8181  -3.8181  -3.3066  -3.3066
    -3.2672  -3.2672  -3.0545  -3.0545   0.8351   0.8351   2.7489   2.7489
     3.1091   3.1091   7.0766   7.0766   7.4389

          k = 0.0000 0.5193 0.0000 ( 10890 PWs)   bands (ev):

    -6.0638  -6.0638  -3.9767  -3.9767  -3.8171  -3.8171  -3.3064  -3.3064
    -3.2668  -3.2668  -3.0521  -3.0521   0.8248   0.8248   2.7441   2.7441
     3.1041   3.1041   7.0742   7.0742   7.4339

          k = 0.0000 0.5215 0.0000 ( 10890 PWs)   bands (ev):

    -6.0623  -6.0623  -3.9765  -3.9765  -3.8161  -3.8161  -3.3061  -3.3061
    -3.2664  -3.2664  -3.0497  -3.0497   0.8145   0.8145   2.7394   2.7394
     3.0991   3.0991   7.0718   7.0718   7.4288

          k = 0.0000 0.5237 0.0000 ( 10886 PWs)   bands (ev):

    -6.0608  -6.0608  -3.9763  -3.9763  -3.8151  -3.8151  -3.3059  -3.3059
    -3.2660  -3.2660  -3.0472  -3.0472   0.8043   0.8043   2.7347   2.7347
     3.0942   3.0942   7.0695   7.0695   7.4238

          k = 0.0000 0.5259 0.0000 ( 10886 PWs)   bands (ev):

    -6.0593  -6.0593  -3.9761  -3.9761  -3.8141  -3.8141  -3.3057  -3.3057
    -3.2656  -3.2656  -3.0448  -3.0448   0.7943   0.7943   2.7301   2.7301
     3.0893   3.0893   7.0673   7.0673   7.4188

          k = 0.0000 0.5281 0.0000 ( 10894 PWs)   bands (ev):

    -6.0578  -6.0578  -3.9759  -3.9759  -3.8131  -3.8131  -3.3055  -3.3055
    -3.2653  -3.2653  -3.0423  -3.0423   0.7843   0.7843   2.7255   2.7255
     3.0845   3.0845   7.0651   7.0651   7.4138

          k = 0.0000 0.5303 0.0000 ( 10902 PWs)   bands (ev):

    -6.0564  -6.0564  -3.9758  -3.9758  -3.8121  -3.8121  -3.3053  -3.3053
    -3.2649  -3.2649  -3.0399  -3.0399   0.7744   0.7744   2.7209   2.7209
     3.0797   3.0797   7.0629   7.0629   7.4087

          k = 0.0000 0.5325 0.0000 ( 10898 PWs)   bands (ev):

    -6.0549  -6.0549  -3.9756  -3.9756  -3.8112  -3.8112  -3.3051  -3.3051
    -3.2645  -3.2645  -3.0375  -3.0375   0.7645   0.7645   2.7165   2.7165
     3.0750   3.0750   7.0608   7.0608   7.4037

          k = 0.0000 0.5347 0.0000 ( 10886 PWs)   bands (ev):

    -6.0535  -6.0535  -3.9754  -3.9754  -3.8102  -3.8102  -3.3049  -3.3049
    -3.2641  -3.2641  -3.0350  -3.0350   0.7548   0.7548   2.7120   2.7120
     3.0703   3.0703   7.0587   7.0587   7.3986

          k = 0.0000 0.5370 0.0000 ( 10886 PWs)   bands (ev):

    -6.0521  -6.0521  -3.9752  -3.9752  -3.8093  -3.8093  -3.3048  -3.3048
    -3.2638  -3.2638  -3.0326  -3.0326   0.7452   0.7452   2.7076   2.7076
     3.0657   3.0657   7.0567   7.0567   7.3936

          k = 0.0000 0.5392 0.0000 ( 10886 PWs)   bands (ev):

    -6.0507  -6.0507  -3.9750  -3.9750  -3.8084  -3.8084  -3.3046  -3.3046
    -3.2634  -3.2634  -3.0302  -3.0302   0.7357   0.7357   2.7033   2.7033
     3.0612   3.0612   7.0547   7.0547   7.3885

          k = 0.0000 0.5414 0.0000 ( 10894 PWs)   bands (ev):

    -6.0493  -6.0493  -3.9748  -3.9748  -3.8074  -3.8074  -3.3044  -3.3044
    -3.2630  -3.2630  -3.0278  -3.0278   0.7262   0.7262   2.6990   2.6990
     3.0567   3.0567   7.0527   7.0527   7.3835

          k = 0.0000 0.5436 0.0000 ( 10894 PWs)   bands (ev):

    -6.0480  -6.0480  -3.9747  -3.9747  -3.8065  -3.8065  -3.3042  -3.3042
    -3.2627  -3.2627  -3.0254  -3.0254   0.7169   0.7169   2.6948   2.6948
     3.0522   3.0522   7.0508   7.0508   7.3784

          k = 0.0000 0.5458 0.0000 ( 10894 PWs)   bands (ev):

    -6.0466  -6.0466  -3.9745  -3.9745  -3.8056  -3.8056  -3.3041  -3.3041
    -3.2623  -3.2623  -3.0230  -3.0230   0.7076   0.7076   2.6906   2.6906
     3.0478   3.0478   7.0490   7.0490   7.3734

          k = 0.0000 0.5480 0.0000 ( 10882 PWs)   bands (ev):

    -6.0453  -6.0453  -3.9743  -3.9743  -3.8047  -3.8047  -3.3039  -3.3039
    -3.2620  -3.2620  -3.0206  -3.0206   0.6985   0.6985   2.6865   2.6865
     3.0435   3.0435   7.0472   7.0472   7.3684

          k = 0.0000 0.5502 0.0000 ( 10890 PWs)   bands (ev):

    -6.0440  -6.0440  -3.9741  -3.9741  -3.8039  -3.8039  -3.3038  -3.3038
    -3.2616  -3.2616  -3.0182  -3.0182   0.6894   0.6894   2.6824   2.6824
     3.0392   3.0392   7.0455   7.0455   7.3633

          k = 0.0000 0.5524 0.0000 ( 10890 PWs)   bands (ev):

    -6.0427  -6.0427  -3.9740  -3.9740  -3.8030  -3.8030  -3.3036  -3.3036
    -3.2612  -3.2612  -3.0158  -3.0158   0.6805   0.6805   2.6784   2.6784
     3.0350   3.0350   7.0438   7.0438   7.3583

          k = 0.0000 0.5546 0.0000 ( 10890 PWs)   bands (ev):

    -6.0414  -6.0414  -3.9738  -3.9738  -3.8022  -3.8022  -3.3035  -3.3035
    -3.2609  -3.2609  -3.0134  -3.0134   0.6716   0.6716   2.6744   2.6744
     3.0308   3.0308   7.0421   7.0421   7.3533

          k = 0.0000 0.5568 0.0000 ( 10886 PWs)   bands (ev):

    -6.0401  -6.0401  -3.9736  -3.9736  -3.8013  -3.8013  -3.3033  -3.3033
    -3.2605  -3.2605  -3.0111  -3.0111   0.6628   0.6628   2.6705   2.6705
     3.0267   3.0267   7.0405   7.0405   7.3483

          k = 0.0000 0.5591 0.0000 ( 10886 PWs)   bands (ev):

    -6.0389  -6.0389  -3.9735  -3.9735  -3.8005  -3.8005  -3.3032  -3.3032
    -3.2602  -3.2602  -3.0087  -3.0087   0.6542   0.6542   2.6666   2.6666
     3.0227   3.0227   7.0390   7.0390   7.3433

          k = 0.0000 0.5613 0.0000 ( 10886 PWs)   bands (ev):

    -6.0376  -6.0376  -3.9733  -3.9733  -3.7997  -3.7997  -3.3031  -3.3031
    -3.2599  -3.2599  -3.0064  -3.0064   0.6456   0.6456   2.6628   2.6628
     3.0187   3.0187   7.0375   7.0375   7.3384

          k = 0.0000 0.5635 0.0000 ( 10886 PWs)   bands (ev):

    -6.0364  -6.0364  -3.9732  -3.9732  -3.7988  -3.7988  -3.3029  -3.3029
    -3.2595  -3.2595  -3.0041  -3.0041   0.6372   0.6372   2.6591   2.6591
     3.0147   3.0147   7.0360   7.0360   7.3334

          k = 0.0000 0.5657 0.0000 ( 10878 PWs)   bands (ev):

    -6.0352  -6.0352  -3.9730  -3.9730  -3.7980  -3.7980  -3.3028  -3.3028
    -3.2592  -3.2592  -3.0018  -3.0018   0.6288   0.6288   2.6554   2.6554
     3.0108   3.0108   7.0346   7.0346   7.3285

          k = 0.0000 0.5679 0.0000 ( 10882 PWs)   bands (ev):

    -6.0340  -6.0340  -3.9728  -3.9728  -3.7973  -3.7973  -3.3027  -3.3027
    -3.2589  -3.2589  -2.9995  -2.9995   0.6206   0.6206   2.6517   2.6517
     3.0070   3.0070   7.0333   7.0333   7.3236

          k = 0.0000 0.5701 0.0000 ( 10882 PWs)   bands (ev):

    -6.0329  -6.0329  -3.9727  -3.9727  -3.7965  -3.7965  -3.3026  -3.3026
    -3.2585  -3.2585  -2.9972  -2.9972   0.6125   0.6125   2.6481   2.6481
     3.0032   3.0032   7.0320   7.0320   7.3187

          k = 0.0000 0.5723 0.0000 ( 10882 PWs)   bands (ev):

    -6.0317  -6.0317  -3.9725  -3.9725  -3.7957  -3.7957  -3.3025  -3.3025
    -3.2582  -3.2582  -2.9949  -2.9949   0.6044   0.6044   2.6446   2.6446
     2.9995   2.9995   7.0308   7.0308   7.3138

          k = 0.0000 0.5745 0.0000 ( 10882 PWs)   bands (ev):

    -6.0306  -6.0306  -3.9724  -3.9724  -3.7949  -3.7949  -3.3023  -3.3023
    -3.2579  -3.2579  -2.9927  -2.9927   0.5965   0.5965   2.6411   2.6411
     2.9959   2.9959   7.0296   7.0296   7.3089

          k = 0.0000 0.5767 0.0000 ( 10882 PWs)   bands (ev):

    -6.0295  -6.0295  -3.9722  -3.9722  -3.7942  -3.7942  -3.3022  -3.3022
    -3.2576  -3.2576  -2.9905  -2.9905   0.5887   0.5887   2.6376   2.6376
     2.9923   2.9923   7.0285   7.0285   7.3041

          k = 0.0000 0.5789 0.0000 ( 10890 PWs)   bands (ev):

    -6.0284  -6.0284  -3.9721  -3.9721  -3.7935  -3.7935  -3.3021  -3.3021
    -3.2573  -3.2573  -2.9883  -2.9883   0.5810   0.5810   2.6342   2.6342
     2.9887   2.9887   7.0274   7.0274   7.2993

          k = 0.0000 0.5812 0.0000 ( 10890 PWs)   bands (ev):

    -6.0273  -6.0273  -3.9720  -3.9720  -3.7927  -3.7927  -3.3020  -3.3020
    -3.2569  -3.2569  -2.9861  -2.9861   0.5734   0.5734   2.6309   2.6309
     2.9852   2.9852   7.0264   7.0264   7.2945

          k = 0.0000 0.5834 0.0000 ( 10890 PWs)   bands (ev):

    -6.0263  -6.0263  -3.9718  -3.9718  -3.7920  -3.7920  -3.3019  -3.3019
    -3.2566  -3.2566  -2.9839  -2.9839   0.5659   0.5659   2.6276   2.6276
     2.9818   2.9818   7.0254   7.0254   7.2897

          k = 0.0000 0.5856 0.0000 ( 10890 PWs)   bands (ev):

    -6.0252  -6.0252  -3.9717  -3.9717  -3.7913  -3.7913  -3.3018  -3.3018
    -3.2563  -3.2563  -2.9818  -2.9818   0.5586   0.5586   2.6244   2.6244
     2.9784   2.9784   7.0245   7.0245   7.2850

          k = 0.0000 0.5878 0.0000 ( 10882 PWs)   bands (ev):

    -6.0242  -6.0242  -3.9716  -3.9716  -3.7907  -3.7907  -3.3017  -3.3017
    -3.2561  -3.2561  -2.9796  -2.9796   0.5513   0.5513   2.6213   2.6213
     2.9751   2.9751   7.0236   7.0236   7.2803

          k = 0.0000 0.5900 0.0000 ( 10882 PWs)   bands (ev):

    -6.0232  -6.0232  -3.9714  -3.9714  -3.7900  -3.7900  -3.3016  -3.3016
    -3.2558  -3.2558  -2.9775  -2.9775   0.5442   0.5442   2.6182   2.6182
     2.9719   2.9719   7.0228   7.0228   7.2756

          k = 0.0000 0.5922 0.0000 ( 10882 PWs)   bands (ev):

    -6.0222  -6.0222  -3.9713  -3.9713  -3.7893  -3.7893  -3.3015  -3.3015
    -3.2555  -3.2555  -2.9754  -2.9754   0.5372   0.5372   2.6151   2.6151
     2.9687   2.9687   7.0221   7.0221   7.2709

          k = 0.0000 0.5944 0.0000 ( 10898 PWs)   bands (ev):

    -6.0212  -6.0212  -3.9712  -3.9712  -3.7887  -3.7887  -3.3014  -3.3014
    -3.2552  -3.2552  -2.9734  -2.9734   0.5303   0.5303   2.6121   2.6121
     2.9656   2.9656   7.0214   7.0214   7.2663

          k = 0.0000 0.5966 0.0000 ( 10898 PWs)   bands (ev):

    -6.0203  -6.0203  -3.9710  -3.9710  -3.7880  -3.7880  -3.3014  -3.3014
    -3.2549  -3.2549  -2.9713  -2.9713   0.5235   0.5235   2.6092   2.6092
     2.9625   2.9625   7.0207   7.0207   7.2617

          k = 0.0000 0.5988 0.0000 ( 10898 PWs)   bands (ev):

    -6.0193  -6.0193  -3.9709  -3.9709  -3.7874  -3.7874  -3.3013  -3.3013
    -3.2546  -3.2546  -2.9693  -2.9693   0.5168   0.5168   2.6063   2.6063
     2.9595   2.9595   7.0201   7.0201   7.2572

          k = 0.0000 0.6010 0.0000 ( 10898 PWs)   bands (ev):

    -6.0184  -6.0184  -3.9708  -3.9708  -3.7868  -3.7868  -3.3012  -3.3012
    -3.2544  -3.2544  -2.9674  -2.9674   0.5102   0.5102   2.6035   2.6035
     2.9565   2.9565   7.0196   7.0196   7.2527

          k = 0.0000 0.6033 0.0000 ( 10898 PWs)   bands (ev):

    -6.0175  -6.0175  -3.9707  -3.9707  -3.7862  -3.7862  -3.3011  -3.3011
    -3.2541  -3.2541  -2.9654  -2.9654   0.5038   0.5038   2.6007   2.6007
     2.9536   2.9536   7.0191   7.0191   7.2482

          k = 0.0000 0.6055 0.0000 ( 10894 PWs)   bands (ev):

    -6.0166  -6.0166  -3.9706  -3.9706  -3.7856  -3.7856  -3.3010  -3.3010
    -3.2539  -3.2539  -2.9635  -2.9635   0.4975   0.4975   2.5980   2.5980
     2.9508   2.9508   7.0187   7.0187   7.2437

          k = 0.0000 0.6077 0.0000 ( 10894 PWs)   bands (ev):

    -6.0157  -6.0157  -3.9705  -3.9705  -3.7850  -3.7850  -3.3009  -3.3009
    -3.2536  -3.2536  -2.9616  -2.9616   0.4913   0.4913   2.5953   2.5953
     2.9480   2.9480   7.0183   7.0183   7.2393

          k = 0.0000 0.6099 0.0000 ( 10894 PWs)   bands (ev):

    -6.0149  -6.0149  -3.9703  -3.9703  -3.7844  -3.7844  -3.3009  -3.3009
    -3.2534  -3.2534  -2.9597  -2.9597   0.4852   0.4852   2.5927   2.5927
     2.9453   2.9453   7.0180   7.0180   7.2349

          k = 0.0000 0.6121 0.0000 ( 10886 PWs)   bands (ev):

    -6.0141  -6.0141  -3.9702  -3.9702  -3.7839  -3.7839  -3.3008  -3.3008
    -3.2531  -3.2531  -2.9579  -2.9579   0.4793   0.4793   2.5902   2.5902
     2.9426   2.9426   7.0177   7.0177   7.2306

          k = 0.0000 0.6143 0.0000 ( 10886 PWs)   bands (ev):

    -6.0133  -6.0133  -3.9701  -3.9701  -3.7833  -3.7833  -3.3007  -3.3007
    -3.2529  -3.2529  -2.9561  -2.9561   0.4735   0.4735   2.5877   2.5877
     2.9400   2.9400   7.0175   7.0175   7.2263

          k = 0.0000 0.6165 0.0000 ( 10886 PWs)   bands (ev):

    -6.0125  -6.0125  -3.9700  -3.9700  -3.7828  -3.7828  -3.3007  -3.3007
    -3.2526  -3.2526  -2.9543  -2.9543   0.4678   0.4678   2.5852   2.5852
     2.9375   2.9375   7.0173   7.0173   7.2221

          k = 0.0000 0.6187 0.0000 ( 10886 PWs)   bands (ev):

    -6.0117  -6.0117  -3.9699  -3.9699  -3.7823  -3.7823  -3.3006  -3.3006
    -3.2524  -3.2524  -2.9525  -2.9525   0.4622   0.4622   2.5829   2.5829
     2.9350   2.9350   7.0172   7.0172   7.2179

          k = 0.0000 0.6209 0.0000 ( 10886 PWs)   bands (ev):

    -6.0109  -6.0109  -3.9698  -3.9698  -3.7818  -3.7818  -3.3005  -3.3005
    -3.2522  -3.2522  -2.9508  -2.9508   0.4567   0.4567   2.5806   2.5806
     2.9326   2.9326   7.0172   7.0172   7.2137

          k = 0.0000 0.6231 0.0000 ( 10886 PWs)   bands (ev):

    -6.0102  -6.0102  -3.9697  -3.9697  -3.7813  -3.7813  -3.3005  -3.3005
    -3.2520  -3.2520  -2.9491  -2.9491   0.4514   0.4514   2.5783   2.5783
     2.9302   2.9302   7.0171   7.0171   7.2096

          k = 0.0000 0.6253 0.0000 ( 10870 PWs)   bands (ev):

    -6.0095  -6.0095  -3.9696  -3.9696  -3.7808  -3.7808  -3.3004  -3.3004
    -3.2518  -3.2518  -2.9475  -2.9475   0.4462   0.4462   2.5761   2.5761
     2.9279   2.9279   7.0172   7.0172   7.2056

          k = 0.0000 0.6276 0.0000 ( 10870 PWs)   bands (ev):

    -6.0088  -6.0088  -3.9695  -3.9695  -3.7803  -3.7803  -3.3004  -3.3004
    -3.2515  -3.2515  -2.9459  -2.9459   0.4412   0.4412   2.5739   2.5739
     2.9257   2.9257   7.0173   7.0173   7.2015

          k = 0.0000 0.6298 0.0000 ( 10870 PWs)   bands (ev):

    -6.0081  -6.0081  -3.9695  -3.9695  -3.7799  -3.7799  -3.3003  -3.3003
    -3.2513  -3.2513  -2.9443  -2.9443   0.4362   0.4362   2.5719   2.5719
     2.9235   2.9235   7.0174   7.0174   7.1976

          k = 0.0000 0.6320 0.0000 ( 10870 PWs)   bands (ev):

    -6.0074  -6.0074  -3.9694  -3.9694  -3.7794  -3.7794  -3.3002  -3.3002
    -3.2512  -3.2512  -2.9428  -2.9428   0.4314   0.4314   2.5698   2.5698
     2.9214   2.9214   7.0176   7.0176   7.1937

          k = 0.0000 0.6342 0.0000 ( 10862 PWs)   bands (ev):

    -6.0068  -6.0068  -3.9693  -3.9693  -3.7790  -3.7790  -3.3002  -3.3002
    -3.2510  -3.2510  -2.9413  -2.9413   0.4268   0.4268   2.5679   2.5679
     2.9193   2.9193   7.0178   7.0178   7.1898

          k = 0.0000 0.6364 0.0000 ( 10862 PWs)   bands (ev):

    -6.0062  -6.0062  -3.9692  -3.9692  -3.7786  -3.7786  -3.3001  -3.3001
    -3.2508  -3.2508  -2.9398  -2.9398   0.4222   0.4222   2.5659   2.5659
     2.9173   2.9173   7.0181   7.0181   7.1860

          k = 0.0000 0.6386 0.0000 ( 10862 PWs)   bands (ev):

    -6.0056  -6.0056  -3.9691  -3.9691  -3.7782  -3.7782  -3.3001  -3.3001
    -3.2506  -3.2506  -2.9384  -2.9384   0.4178   0.4178   2.5641   2.5641
     2.9154   2.9154   7.0185   7.0185   7.1822

          k = 0.0000 0.6408 0.0000 ( 10862 PWs)   bands (ev):

    -6.0050  -6.0050  -3.9691  -3.9691  -3.7778  -3.7778  -3.3000  -3.3000
    -3.2504  -3.2504  -2.9370  -2.9370   0.4135   0.4135   2.5623   2.5623
     2.9135   2.9135   7.0188   7.0188   7.1785

          k = 0.0000 0.6430 0.0000 ( 10862 PWs)   bands (ev):

    -6.0044  -6.0044  -3.9690  -3.9690  -3.7774  -3.7774  -3.3000  -3.3000
    -3.2502  -3.2502  -2.9356  -2.9356   0.4094   0.4094   2.5605   2.5605
     2.9117   2.9117   7.0193   7.0193   7.1749

          k = 0.0000 0.6452 0.0000 ( 10862 PWs)   bands (ev):

    -6.0039  -6.0039  -3.9689  -3.9689  -3.7770  -3.7770  -3.3000  -3.3000
    -3.2501  -3.2501  -2.9343  -2.9343   0.4054   0.4054   2.5589   2.5589
     2.9099   2.9099   7.0197   7.0197   7.1713

          k = 0.0000 0.6474 0.0000 ( 10866 PWs)   bands (ev):

    -6.0033  -6.0033  -3.9688  -3.9688  -3.7767  -3.7767  -3.2999  -3.2999
    -3.2499  -3.2499  -2.9331  -2.9331   0.4015   0.4015   2.5572   2.5572
     2.9082   2.9082   7.0202   7.0202   7.1678

          k = 0.0000 0.6497 0.0000 ( 10874 PWs)   bands (ev):

    -6.0028  -6.0028  -3.9688  -3.9688  -3.7764  -3.7764  -3.2999  -3.2999
    -3.2498  -3.2498  -2.9318  -2.9318   0.3978   0.3978   2.5557   2.5557
     2.9066   2.9066   7.0208   7.0208   7.1644

          k = 0.0000 0.6519 0.0000 ( 10874 PWs)   bands (ev):

    -6.0023  -6.0023  -3.9687  -3.9687  -3.7760  -3.7760  -3.2998  -3.2998
    -3.2496  -3.2496  -2.9306  -2.9306   0.3942   0.3942   2.5542   2.5542
     2.9050   2.9050   7.0214   7.0214   7.1610

          k = 0.0000 0.6541 0.0000 ( 10874 PWs)   bands (ev):

    -6.0019  -6.0019  -3.9686  -3.9686  -3.7757  -3.7757  -3.2998  -3.2998
    -3.2495  -3.2495  -2.9295  -2.9295   0.3907   0.3907   2.5527   2.5527
     2.9035   2.9035   7.0220   7.0220   7.1577

          k = 0.0000 0.6563 0.0000 ( 10874 PWs)   bands (ev):

    -6.0014  -6.0014  -3.9686  -3.9686  -3.7754  -3.7754  -3.2998  -3.2998
    -3.2493  -3.2493  -2.9284  -2.9284   0.3874   0.3874   2.5513   2.5513
     2.9021   2.9021   7.0227   7.0227   7.1544

          k = 0.0000 0.6585 0.0000 ( 10874 PWs)   bands (ev):

    -6.0010  -6.0010  -3.9685  -3.9685  -3.7751  -3.7751  -3.2997  -3.2997
    -3.2492  -3.2492  -2.9273  -2.9273   0.3842   0.3842   2.5500   2.5500
     2.9007   2.9007   7.0234   7.0234   7.1513

          k = 0.0000 0.6607 0.0000 ( 10874 PWs)   bands (ev):

    -6.0006  -6.0006  -3.9685  -3.9685  -3.7748  -3.7748  -3.2997  -3.2997
    -3.2491  -3.2491  -2.9263  -2.9263   0.3811   0.3811   2.5487   2.5487
     2.8993   2.8993   7.0241   7.0241   7.1482

          k = 0.0000 0.6629 0.0000 ( 10874 PWs)   bands (ev):

    -6.0002  -6.0002  -3.9684  -3.9684  -3.7746  -3.7746  -3.2997  -3.2997
    -3.2490  -3.2490  -2.9254  -2.9254   0.3782   0.3782   2.5475   2.5475
     2.8981   2.8981   7.0248   7.0248   7.1452

          k = 0.0000 0.6651 0.0000 ( 10874 PWs)   bands (ev):

    -5.9998  -5.9998  -3.9684  -3.9684  -3.7743  -3.7743  -3.2996  -3.2996
    -3.2489  -3.2489  -2.9244  -2.9244   0.3754   0.3754   2.5463   2.5463
     2.8969   2.8969   7.0256   7.0256   7.1422

          k = 0.0000 0.6673 0.0000 ( 10874 PWs)   bands (ev):

    -5.9994  -5.9994  -3.9683  -3.9683  -3.7741  -3.7741  -3.2996  -3.2996
    -3.2488  -3.2488  -2.9235  -2.9235   0.3728   0.3728   2.5453   2.5453
     2.8957   2.8957   7.0264   7.0264   7.1394

          k = 0.0000 0.6695 0.0000 ( 10874 PWs)   bands (ev):

    -5.9991  -5.9991  -3.9683  -3.9683  -3.7738  -3.7738  -3.2996  -3.2996
    -3.2487  -3.2487  -2.9227  -2.9227   0.3703   0.3703   2.5442   2.5442
     2.8946   2.8946   7.0272   7.0272   7.1367

          k = 0.0000 0.6718 0.0000 ( 10874 PWs)   bands (ev):

    -5.9988  -5.9988  -3.9682  -3.9682  -3.7736  -3.7736  -3.2996  -3.2996
    -3.2486  -3.2486  -2.9219  -2.9219   0.3679   0.3679   2.5432   2.5432
     2.8936   2.8936   7.0280   7.0280   7.1340

          k = 0.0000 0.6740 0.0000 ( 10874 PWs)   bands (ev):

    -5.9985  -5.9985  -3.9682  -3.9682  -3.7734  -3.7734  -3.2995  -3.2995
    -3.2485  -3.2485  -2.9212  -2.9212   0.3657   0.3657   2.5423   2.5423
     2.8927   2.8927   7.0289   7.0289   7.1315

          k = 0.0000 0.6762 0.0000 ( 10874 PWs)   bands (ev):

    -5.9982  -5.9982  -3.9682  -3.9682  -3.7732  -3.7732  -3.2995  -3.2995
    -3.2484  -3.2484  -2.9205  -2.9205   0.3636   0.3636   2.5415   2.5415
     2.8918   2.8918   7.0297   7.0297   7.1290

          k = 0.0000 0.6784 0.0000 ( 10874 PWs)   bands (ev):

    -5.9979  -5.9979  -3.9681  -3.9681  -3.7731  -3.7731  -3.2995  -3.2995
    -3.2483  -3.2483  -2.9198  -2.9198   0.3617   0.3617   2.5407   2.5407
     2.8909   2.8909   7.0305   7.0305   7.1267

          k = 0.0000 0.6806 0.0000 ( 10866 PWs)   bands (ev):

    -5.9977  -5.9977  -3.9681  -3.9681  -3.7729  -3.7729  -3.2995  -3.2995
    -3.2482  -3.2482  -2.9192  -2.9192   0.3599   0.3599   2.5399   2.5399
     2.8902   2.8902   7.0313   7.0313   7.1245

          k = 0.0000 0.6828 0.0000 ( 10866 PWs)   bands (ev):

    -5.9975  -5.9975  -3.9681  -3.9681  -3.7728  -3.7728  -3.2995  -3.2995
    -3.2482  -3.2482  -2.9187  -2.9187   0.3583   0.3583   2.5392   2.5392
     2.8894   2.8894   7.0321   7.0321   7.1224

          k = 0.0000 0.6850 0.0000 ( 10866 PWs)   bands (ev):

    -5.9973  -5.9973  -3.9680  -3.9680  -3.7726  -3.7726  -3.2994  -3.2994
    -3.2481  -3.2481  -2.9182  -2.9182   0.3568   0.3568   2.5386   2.5386
     2.8888   2.8888   7.0329   7.0329   7.1205

          k = 0.0000 0.6872 0.0000 ( 10866 PWs)   bands (ev):

    -5.9971  -5.9971  -3.9680  -3.9680  -3.7725  -3.7725  -3.2994  -3.2994
    -3.2480  -3.2480  -2.9177  -2.9177   0.3554   0.3554   2.5380   2.5380
     2.8882   2.8882   7.0336   7.0336   7.1187

          k = 0.0000 0.6894 0.0000 ( 10866 PWs)   bands (ev):

    -5.9969  -5.9969  -3.9680  -3.9680  -3.7724  -3.7724  -3.2994  -3.2994
    -3.2480  -3.2480  -2.9173  -2.9173   0.3542   0.3542   2.5375   2.5375
     2.8877   2.8877   7.0343   7.0343   7.1171

          k = 0.0000 0.6916 0.0000 ( 10866 PWs)   bands (ev):

    -5.9968  -5.9968  -3.9680  -3.9680  -3.7723  -3.7723  -3.2994  -3.2994
    -3.2479  -3.2479  -2.9169  -2.9169   0.3531   0.3531   2.5371   2.5371
     2.8872   2.8872   7.0350   7.0350   7.1156

          k = 0.0000 0.6938 0.0000 ( 10866 PWs)   bands (ev):

    -5.9966  -5.9966  -3.9680  -3.9680  -3.7722  -3.7722  -3.2994  -3.2994
    -3.2479  -3.2479  -2.9166  -2.9166   0.3522   0.3522   2.5367   2.5367
     2.8868   2.8868   7.0355   7.0355   7.1143

          k = 0.0000 0.6961 0.0000 ( 10858 PWs)   bands (ev):

    -5.9965  -5.9965  -3.9680  -3.9680  -3.7721  -3.7721  -3.2994  -3.2994
    -3.2479  -3.2479  -2.9163  -2.9163   0.3514   0.3514   2.5364   2.5364
     2.8865   2.8865   7.0360   7.0360   7.1132

          k = 0.0000 0.6983 0.0000 ( 10858 PWs)   bands (ev):

    -5.9964  -5.9964  -3.9679  -3.9679  -3.7721  -3.7721  -3.2994  -3.2994
    -3.2479  -3.2479  -2.9161  -2.9161   0.3507   0.3507   2.5361   2.5361
     2.8862   2.8862   7.0365   7.0365   7.1123

          k = 0.0000 0.7005 0.0000 ( 10850 PWs)   bands (ev):

    -5.9964  -5.9964  -3.9679  -3.9679  -3.7720  -3.7720  -3.2994  -3.2994
    -3.2478  -3.2478  -2.9159  -2.9159   0.3502   0.3502   2.5359   2.5359
     2.8860   2.8860   7.0368   7.0368   7.1115

          k = 0.0000 0.7027 0.0000 ( 10846 PWs)   bands (ev):

    -5.9963  -5.9963  -3.9679  -3.9679  -3.7720  -3.7720  -3.2994  -3.2994
    -3.2478  -3.2478  -2.9158  -2.9158   0.3499   0.3499   2.5358   2.5358
     2.8858   2.8858   7.0370   7.0370   7.1110

          k = 0.0000 0.7049 0.0000 ( 10846 PWs)   bands (ev):

    -5.9963  -5.9963  -3.9679  -3.9679  -3.7720  -3.7720  -3.2994  -3.2994
    -3.2478  -3.2478  -2.9157  -2.9157   0.3496   0.3496   2.5357   2.5357
     2.8857   2.8857   7.0372   7.0372   7.1107

          k = 0.0000 0.7071 0.0000 ( 10846 PWs)   bands (ev):

    -5.9963  -5.9963  -3.9679  -3.9679  -3.7720  -3.7720  -3.2994  -3.2994
    -3.2478  -3.2478  -2.9157  -2.9157   0.3496   0.3496   2.5356   2.5356
     2.8857   2.8857   7.0372   7.0372   7.1106

          k = 0.0022 0.7071 0.0022 ( 10846 PWs)   bands (ev):

    -5.9965  -5.9961  -3.9682  -3.9677  -3.7736  -3.7703  -3.2998  -3.2990
    -3.2484  -3.2472  -2.9166  -2.9148   0.3482   0.3510   2.5331   2.5381
     2.8851   2.8862   7.0355   7.0394   7.1110

          k = 0.0044 0.7071 0.0044 ( 10854 PWs)   bands (ev):

    -5.9966  -5.9959  -3.9684  -3.9674  -3.7753  -3.7687  -3.3002  -3.2986
    -3.2490  -3.2466  -2.9175  -2.9139   0.3469   0.3524   2.5304   2.5403
     2.8842   2.8865   7.0342   7.0418   7.1115

          k = 0.0066 0.7071 0.0066 ( 10858 PWs)   bands (ev):

    -5.9968  -5.9958  -3.9687  -3.9671  -3.7770  -3.7670  -3.3005  -3.2982
    -3.2497  -3.2460  -2.9183  -2.9130   0.3456   0.3539   2.5276   2.5425
     2.8833   2.8867   7.0333   7.0447   7.1116

          k = 0.0088 0.7071 0.0088 ( 10858 PWs)   bands (ev):

    -5.9970  -5.9956  -3.9689  -3.9669  -3.7786  -3.7654  -3.3009  -3.2977
    -3.2503  -3.2454  -2.9191  -2.9120   0.3444   0.3554   2.5246   2.5445
     2.8821   2.8867   7.0328   7.0478   7.1136

          k = 0.0110 0.7071 0.0110 ( 10862 PWs)   bands (ev):

    -5.9971  -5.9954  -3.9691  -3.9666  -3.7803  -3.7637  -3.3013  -3.2973
    -3.2510  -3.2449  -2.9199  -2.9111   0.3432   0.3570   2.5214   2.5464
     2.8808   2.8866   7.0327   7.0511   7.1172

          k = 0.0133 0.7071 0.0133 ( 10862 PWs)   bands (ev):

    -5.9973  -5.9953  -3.9694  -3.9663  -3.7820  -3.7621  -3.3017  -3.2969
    -3.2516  -3.2443  -2.9207  -2.9101   0.3420   0.3586   2.5181   2.5482
     2.8794   2.8864   7.0329   7.0546   7.1174

          k = 0.0155 0.7071 0.0155 ( 10862 PWs)   bands (ev):

    -5.9975  -5.9951  -3.9696  -3.9661  -3.7836  -3.7605  -3.3020  -3.2965
    -3.2523  -3.2438  -2.9215  -2.9091   0.3409   0.3602   2.5147   2.5498
     2.8777   2.8860   7.0334   7.0582   7.1204

          k = 0.0177 0.7071 0.0177 ( 10866 PWs)   bands (ev):

    -5.9976  -5.9949  -3.9698  -3.9658  -3.7853  -3.7589  -3.3024  -3.2960
    -3.2530  -3.2432  -2.9222  -2.9081   0.3398   0.3619   2.5111   2.5513
     2.8760   2.8856   7.0343   7.0617   7.1241

          k = 0.0199 0.7071 0.0199 ( 10866 PWs)   bands (ev):

    -5.9978  -5.9948  -3.9700  -3.9655  -3.7870  -3.7573  -3.3027  -3.2956
    -3.2536  -3.2427  -2.9230  -2.9070   0.3388   0.3636   2.5073   2.5527
     2.8740   2.8850   7.0354   7.0651   7.1329

          k = 0.0221 0.7071 0.0221 ( 10866 PWs)   bands (ev):

    -5.9980  -5.9946  -3.9703  -3.9652  -3.7887  -3.7557  -3.3031  -3.2952
    -3.2543  -3.2422  -2.9237  -2.9060   0.3377   0.3654   2.5033   2.5540
     2.8720   2.8843   7.0367   7.0683   7.1364

          k = 0.0243 0.7071 0.0243 ( 10886 PWs)   bands (ev):

    -5.9982  -5.9945  -3.9705  -3.9649  -3.7903  -3.7541  -3.3034  -3.2947
    -3.2550  -3.2417  -2.9244  -2.9049   0.3368   0.3672   2.4991   2.5551
     2.8698   2.8836   7.0382   7.0713   7.1422

          k = 0.0265 0.7071 0.0265 ( 10890 PWs)   bands (ev):

    -5.9983  -5.9943  -3.9707  -3.9646  -3.7920  -3.7525  -3.3038  -3.2943
    -3.2557  -3.2412  -2.9251  -2.9038   0.3358   0.3691   2.4948   2.5560
     2.8675   2.8828   7.0399   7.0740   7.1511

          k = 0.0287 0.7071 0.0287 ( 10890 PWs)   bands (ev):

    -5.9985  -5.9941  -3.9709  -3.9643  -3.7937  -3.7509  -3.3041  -3.2938
    -3.2564  -3.2407  -2.9257  -2.9027   0.3350   0.3710   2.4902   2.5568
     2.8651   2.8820   7.0417   7.0766   7.1590

          k = 0.0309 0.7071 0.0309 ( 10886 PWs)   bands (ev):

    -5.9987  -5.9940  -3.9711  -3.9640  -3.7954  -3.7493  -3.3044  -3.2934
    -3.2571  -3.2402  -2.9264  -2.9016   0.3341   0.3729   2.4855   2.5575
     2.8625   2.8811   7.0436   7.0791   7.1677

          k = 0.0331 0.7071 0.0331 ( 10882 PWs)   bands (ev):

    -5.9989  -5.9938  -3.9713  -3.9637  -3.7971  -3.7478  -3.3047  -3.2929
    -3.2578  -3.2397  -2.9270  -2.9005   0.3333   0.3749   2.4805   2.5579
     2.8600   2.8802   7.0456   7.0813   7.1771

          k = 0.0354 0.7071 0.0354 ( 10882 PWs)   bands (ev):

    -5.9990  -5.9937  -3.9715  -3.9634  -3.7987  -3.7462  -3.3051  -3.2924
    -3.2585  -3.2393  -2.9276  -2.8994   0.3325   0.3769   2.4753   2.5582
     2.8573   2.8793   7.0477   7.0835   7.1858

          k = 0.0376 0.7071 0.0376 ( 10878 PWs)   bands (ev):

    -5.9992  -5.9935  -3.9717  -3.9631  -3.8004  -3.7447  -3.3054  -3.2920
    -3.2593  -3.2388  -2.9282  -2.8982   0.3318   0.3789   2.4699   2.5584
     2.8546   2.8784   7.0498   7.0857   7.1954

          k = 0.0398 0.7071 0.0398 ( 10878 PWs)   bands (ev):

    -5.9994  -5.9934  -3.9719  -3.9627  -3.8021  -3.7431  -3.3057  -3.2915
    -3.2600  -3.2384  -2.9288  -2.8971   0.3310   0.3810   2.4643   2.5583
     2.8519   2.8775   7.0519   7.0877   7.2096

          k = 0.0420 0.7071 0.0420 ( 10878 PWs)   bands (ev):

    -5.9996  -5.9932  -3.9721  -3.9624  -3.8038  -3.7416  -3.3060  -3.2911
    -3.2607  -3.2379  -2.9293  -2.8959   0.3304   0.3832   2.4584   2.5580
     2.8492   2.8766   7.0540   7.0898   7.2173

          k = 0.0442 0.7071 0.0442 ( 10878 PWs)   bands (ev):

    -5.9997  -5.9931  -3.9723  -3.9621  -3.8054  -3.7401  -3.3063  -3.2906
    -3.2614  -3.2375  -2.9298  -2.8947   0.3297   0.3853   2.4523   2.5575
     2.8465   2.8758   7.0562   7.0919   7.2296

          k = 0.0464 0.7071 0.0464 ( 10864 PWs)   bands (ev):

    -5.9999  -5.9929  -3.9724  -3.9618  -3.8071  -3.7386  -3.3066  -3.2901
    -3.2622  -3.2371  -2.9304  -2.8935   0.3291   0.3876   2.4460   2.5567
     2.8438   2.8750   7.0584   7.0939   7.2419

          k = 0.0486 0.7071 0.0486 ( 10864 PWs)   bands (ev):

    -6.0001  -5.9928  -3.9726  -3.9614  -3.8088  -3.7371  -3.3069  -3.2897
    -3.2629  -3.2367  -2.9309  -2.8923   0.3285   0.3898   2.4395   2.5557
     2.8412   2.8743   7.0607   7.0960   7.2595

          k = 0.0508 0.7071 0.0508 ( 10868 PWs)   bands (ev):

    -6.0003  -5.9927  -3.9728  -3.9611  -3.8104  -3.7356  -3.3071  -3.2892
    -3.2636  -3.2363  -2.9314  -2.8911   0.3280   0.3921   2.4327   2.5545
     2.8386   2.8737   7.0629   7.0981   7.2698

          k = 0.0530 0.7071 0.0530 ( 10868 PWs)   bands (ev):

    -6.0004  -5.9925  -3.9730  -3.9608  -3.8121  -3.7341  -3.3074  -3.2888
    -3.2643  -3.2360  -2.9318  -2.8899   0.3275   0.3944   2.4257   2.5530
     2.8362   2.8732   7.0652   7.1003   7.2851

          k = 0.0552 0.7071 0.0552 ( 10868 PWs)   bands (ev):

    -6.0006  -5.9924  -3.9731  -3.9604  -3.8137  -3.7327  -3.3077  -3.2883
    -3.2650  -3.2356  -2.9323  -2.8887   0.3270   0.3968   2.4184   2.5512
     2.8339   2.8727   7.0674   7.1025   7.3000

          k = 0.0575 0.7071 0.0575 ( 10872 PWs)   bands (ev):

    -6.0008  -5.9923  -3.9733  -3.9601  -3.8154  -3.7312  -3.3080  -3.2879
    -3.2657  -3.2352  -2.9327  -2.8875   0.3266   0.3992   2.4109   2.5491
     2.8317   2.8723   7.0698   7.1048   7.3165

          k = 0.0597 0.7071 0.0597 ( 10872 PWs)   bands (ev):

    -6.0010  -5.9921  -3.9735  -3.9597  -3.8170  -3.7298  -3.3082  -3.2875
    -3.2664  -3.2349  -2.9332  -2.8862   0.3262   0.4016   2.4032   2.5468
     2.8297   2.8721   7.0721   7.1071   7.3330

          k = 0.0619 0.7071 0.0619 ( 10872 PWs)   bands (ev):

    -6.0012  -5.9920  -3.9736  -3.9594  -3.8187  -3.7284  -3.3085  -3.2871
    -3.2671  -3.2345  -2.9336  -2.8850   0.3258   0.4041   2.3953   2.5441
     2.8279   2.8720   7.0745   7.1095   7.3505

          k = 0.0641 0.7071 0.0641 ( 10874 PWs)   bands (ev):

    -6.0014  -5.9919  -3.9738  -3.9590  -3.8203  -3.7270  -3.3087  -3.2867
    -3.2678  -3.2342  -2.9340  -2.8837   0.3254   0.4066   2.3871   2.5411
     2.8263   2.8719   7.0768   7.1119   7.3685

          k = 0.0663 0.7071 0.0663 ( 10878 PWs)   bands (ev):

    -6.0015  -5.9918  -3.9739  -3.9586  -3.8220  -3.7256  -3.3090  -3.2863
    -3.2684  -3.2339  -2.9344  -2.8825   0.3251   0.4092   2.3787   2.5378
     2.8249   2.8721   7.0793   7.1144   7.3870

          k = 0.0685 0.7071 0.0685 ( 10878 PWs)   bands (ev):

    -6.0017  -5.9916  -3.9741  -3.9583  -3.8236  -3.7242  -3.3092  -3.2860
    -3.2690  -3.2336  -2.9347  -2.8812   0.3248   0.4118   2.3702   2.5342
     2.8237   2.8723   7.0817   7.1170   7.4062

          k = 0.0707 0.7071 0.0707 ( 10882 PWs)   bands (ev):

    -6.0019  -5.9915  -3.9742  -3.9579  -3.8252  -3.7228  -3.3095  -3.2857
    -3.2696  -3.2333  -2.9351  -2.8800   0.3246   0.4144   2.3614   2.5302
     2.8228   2.8727   7.0842   7.1196   7.4262

          k = 0.0729 0.7071 0.0729 ( 10882 PWs)   bands (ev):

    -6.0021  -5.9914  -3.9744  -3.9575  -3.8268  -3.7215  -3.3097  -3.2854
    -3.2701  -3.2330  -2.9355  -2.8787   0.3244   0.4170   2.3524   2.5260
     2.8221   2.8732   7.0867   7.1223   7.4463

          k = 0.0751 0.7071 0.0751 ( 10888 PWs)   bands (ev):

    -6.0023  -5.9913  -3.9745  -3.9572  -3.8285  -3.7202  -3.3100  -3.2852
    -3.2706  -3.2327  -2.9358  -2.8774   0.3242   0.4197   2.3433   2.5214
     2.8216   2.8739   7.0893   7.1251   7.4672

          k = 0.0773 0.7071 0.0773 ( 10880 PWs)   bands (ev):

    -6.0025  -5.9912  -3.9747  -3.9568  -3.8301  -3.7188  -3.3102  -3.2850
    -3.2710  -3.2325  -2.9361  -2.8762   0.3240   0.4224   2.3339   2.5166
     2.8214   2.8747   7.0919   7.1279   7.4883

          k = 0.0795 0.7071 0.0795 ( 10884 PWs)   bands (ev):

    -6.0027  -5.9911  -3.9748  -3.9564  -3.8317  -3.7175  -3.3104  -3.2850
    -3.2714  -3.2322  -2.9365  -2.8749   0.3238   0.4252   2.3244   2.5114
     2.8215   2.8756   7.0946   7.1308   7.5100

          k = 0.0818 0.7071 0.0818 ( 10888 PWs)   bands (ev):

    -6.0029  -5.9911  -3.9749  -3.9561  -3.8333  -3.7162  -3.3107  -3.2849
    -3.2717  -3.2319  -2.9368  -2.8736   0.3237   0.4280   2.3148   2.5060
     2.8218   2.8767   7.0973   7.1337   7.5322

          k = 0.0840 0.7071 0.0840 ( 10888 PWs)   bands (ev):

    -6.0031  -5.9910  -3.9751  -3.9557  -3.8348  -3.7150  -3.3109  -3.2850
    -3.2719  -3.2317  -2.9371  -2.8724   0.3236   0.4308   2.3050   2.5003
     2.8224   2.8780   7.1000   7.1367   7.5553

          k = 0.0862 0.7071 0.0862 ( 10888 PWs)   bands (ev):

    -6.0033  -5.9909  -3.9752  -3.9553  -3.8364  -3.7137  -3.3111  -3.2851
    -3.2720  -3.2315  -2.9374  -2.8711   0.3236   0.4336   2.2950   2.4943
     2.8232   2.8794   7.1028   7.1398   7.5781

          k = 0.0884 0.7071 0.0884 ( 10888 PWs)   bands (ev):

    -6.0035  -5.9908  -3.9753  -3.9549  -3.8380  -3.7125  -3.3113  -3.2854
    -3.2721  -3.2312  -2.9376  -2.8699   0.3235   0.4365   2.2849   2.4881
     2.8243   2.8809   7.1056   7.1430   7.6016

          k = 0.0906 0.7071 0.0906 ( 10876 PWs)   bands (ev):

    -6.0037  -5.9908  -3.9755  -3.9545  -3.8396  -3.7113  -3.3115  -3.2857
    -3.2720  -3.2310  -2.9379  -2.8686   0.3235   0.4394   2.2748   2.4817
     2.8256   2.8826   7.1085   7.1462   7.6256

          k = 0.0928 0.7071 0.0928 ( 10876 PWs)   bands (ev):

    -6.0039  -5.9907  -3.9756  -3.9541  -3.8411  -3.7101  -3.3117  -3.2861
    -3.2719  -3.2308  -2.9382  -2.8674   0.3235   0.4423   2.2645   2.4751
     2.8272   2.8844   7.1114   7.1495   7.6500

          k = 0.0950 0.7071 0.0950 ( 10876 PWs)   bands (ev):

    -6.0041  -5.9907  -3.9757  -3.9538  -3.8427  -3.7089  -3.3119  -3.2865
    -3.2717  -3.2306  -2.9385  -2.8662   0.3235   0.4452   2.2541   2.4682
     2.8290   2.8864   7.1143   7.1528   7.6747

          k = 0.0972 0.7071 0.0972 ( 10876 PWs)   bands (ev):

    -6.0044  -5.9906  -3.9758  -3.9534  -3.8442  -3.7077  -3.3121  -3.2870
    -3.2715  -3.2304  -2.9387  -2.8649   0.3236   0.4482   2.2436   2.4613
     2.8310   2.8885   7.1173   7.1562   7.7033

          k = 0.0994 0.7071 0.0994 ( 10880 PWs)   bands (ev):

    -6.0046  -5.9906  -3.9760  -3.9530  -3.8458  -3.7066  -3.3123  -3.2876
    -3.2712  -3.2302  -2.9390  -2.8637   0.3237   0.4512   2.2331   2.4541
     2.8332   2.8908   7.1204   7.1597   7.7253

          k = 0.1016 0.7071 0.1016 ( 10880 PWs)   bands (ev):

    -6.0048  -5.9905  -3.9761  -3.9526  -3.8473  -3.7054  -3.3125  -3.2882
    -3.2708  -3.2301  -2.9392  -2.8625   0.3238   0.4542   2.2225   2.4468
     2.8356   2.8932   7.1235   7.1632   7.7511

          k = 0.1039 0.7071 0.1039 ( 10876 PWs)   bands (ev):

    -6.0050  -5.9905  -3.9762  -3.9522  -3.8488  -3.7043  -3.3127  -3.2889
    -3.2705  -3.2299  -2.9395  -2.8613   0.3239   0.4573   2.2119   2.4394
     2.8382   2.8957   7.1266   7.1668   7.7772

          k = 0.1061 0.7071 0.1061 ( 10864 PWs)   bands (ev):

    -6.0053  -5.9905  -3.9763  -3.9518  -3.8503  -3.7032  -3.3129  -3.2895
    -3.2701  -3.2297  -2.9397  -2.8601   0.3241   0.4603   2.2012   2.4319
     2.8410   2.8984   7.1298   7.1704   7.8037

          k = 0.1083 0.7071 0.1083 ( 10864 PWs)   bands (ev):

    -6.0055  -5.9905  -3.9764  -3.9514  -3.8518  -3.7022  -3.3131  -3.2903
    -3.2696  -3.2296  -2.9400  -2.8590   0.3243   0.4634   2.1905   2.4243
     2.8440   2.9012   7.1330   7.1742   7.8304

          k = 0.1105 0.7071 0.1105 ( 10864 PWs)   bands (ev):

    -6.0057  -5.9905  -3.9765  -3.9510  -3.8533  -3.7011  -3.3133  -3.2910
    -3.2692  -3.2294  -2.9402  -2.8578   0.3245   0.4665   2.1798   2.4167
     2.8472   2.9041   7.1363   7.1779   7.8573

          k = 0.1127 0.7071 0.1127 ( 10870 PWs)   bands (ev):

    -6.0060  -5.9905  -3.9767  -3.9506  -3.8548  -3.7001  -3.3135  -3.2917
    -3.2687  -3.2293  -2.9405  -2.8567   0.3247   0.4696   2.1691   2.4090
     2.8505   2.9072   7.1396   7.1817   7.8845

          k = 0.1149 0.7071 0.1149 ( 10874 PWs)   bands (ev):

    -6.0062  -5.9905  -3.9768  -3.9503  -3.8562  -3.6990  -3.3137  -3.2925
    -3.2682  -3.2292  -2.9407  -2.8556   0.3249   0.4728   2.1584   2.4012
     2.8541   2.9104   7.1429   7.1856   7.9120

          k = 0.1171 0.7071 0.1171 ( 10874 PWs)   bands (ev):

    -6.0065  -5.9905  -3.9769  -3.9499  -3.8577  -3.6981  -3.3139  -3.2933
    -3.2677  -3.2290  -2.9410  -2.8545   0.3252   0.4759   2.1478   2.3934
     2.8577   2.9137   7.1463   7.1896   7.9397

          k = 0.1193 0.7071 0.1193 ( 10874 PWs)   bands (ev):

    -6.0067  -5.9906  -3.9770  -3.9495  -3.8591  -3.6971  -3.3140  -3.2941
    -3.2672  -3.2289  -2.9413  -2.8534   0.3255   0.4791   2.1371   2.3856
     2.8615   2.9172   7.1497   7.1936   7.9675

          k = 0.1215 0.7071 0.1215 ( 10882 PWs)   bands (ev):

    -6.0070  -5.9906  -3.9771  -3.9491  -3.8606  -3.6961  -3.3142  -3.2949
    -3.2667  -3.2288  -2.9415  -2.8523   0.3258   0.4823   2.1265   2.3778
     2.8655   2.9208   7.1532   7.1976   7.9956

          k = 0.1237 0.7071 0.1237 ( 10878 PWs)   bands (ev):

    -6.0073  -5.9906  -3.9772  -3.9487  -3.8620  -3.6952  -3.3144  -3.2957
    -3.2661  -3.2287  -2.9418  -2.8513   0.3261   0.4855   2.1160   2.3700
     2.8696   2.9245   7.1567   7.2017   8.0238

          k = 0.1260 0.7071 0.1260 ( 10876 PWs)   bands (ev):

    -6.0076  -5.9907  -3.9773  -3.9484  -3.8634  -3.6943  -3.3146  -3.2965
    -3.2656  -3.2286  -2.9420  -2.8502   0.3265   0.4887   2.1055   2.3623
     2.8739   2.9283   7.1602   7.2058   8.0522

          k = 0.1282 0.7071 0.1282 ( 10876 PWs)   bands (ev):

    -6.0078  -5.9908  -3.9774  -3.9480  -3.8648  -3.6934  -3.3147  -3.2973
    -3.2651  -3.2285  -2.9423  -2.8492   0.3269   0.4919   2.0951   2.3546
     2.8783   2.9323   7.1638   7.2100   8.0807

          k = 0.1304 0.7071 0.1304 ( 10876 PWs)   bands (ev):

    -6.0081  -5.9909  -3.9775  -3.9476  -3.8662  -3.6925  -3.3149  -3.2981
    -3.2645  -3.2284  -2.9426  -2.8483   0.3273   0.4951   2.0848   2.3469
     2.8828   2.9363   7.1674   7.2143   8.1093

          k = 0.1326 0.7071 0.1326 ( 10880 PWs)   bands (ev):

    -6.0084  -5.9909  -3.9776  -3.9473  -3.8675  -3.6917  -3.3151  -3.2989
    -3.2640  -3.2284  -2.9429  -2.8473   0.3277   0.4983   2.0746   2.3393
     2.8874   2.9405   7.1710   7.2186   8.1381

          k = 0.1348 0.7071 0.1348 ( 10880 PWs)   bands (ev):

    -6.0087  -5.9910  -3.9777  -3.9469  -3.8689  -3.6909  -3.3152  -3.2998
    -3.2634  -3.2283  -2.9432  -2.8464   0.3282   0.5016   2.0645   2.3318
     2.8922   2.9448   7.1747   7.2229   8.1669

          k = 0.1370 0.7071 0.1370 ( 10892 PWs)   bands (ev):

    -6.0090  -5.9911  -3.9778  -3.9465  -3.8702  -3.6901  -3.3154  -3.3006
    -3.2629  -3.2282  -2.9435  -2.8455   0.3287   0.5048   2.0545   2.3243
     2.8970   2.9492   7.1784   7.2273   8.1957

          k = 0.1392 0.7071 0.1392 ( 10896 PWs)   bands (ev):

    -6.0093  -5.9913  -3.9779  -3.9462  -3.8716  -3.6893  -3.3156  -3.3014
    -3.2623  -3.2282  -2.9438  -2.8447   0.3292   0.5081   2.0446   2.3170
     2.9020   2.9537   7.1821   7.2317   8.2246

          k = 0.1414 0.7071 0.1414 ( 10908 PWs)   bands (ev):

    -6.0097  -5.9914  -3.9780  -3.9458  -3.8729  -3.6885  -3.3157  -3.3023
    -3.2618  -3.2281  -2.9442  -2.8438   0.3297   0.5113   2.0349   2.3097
     2.9071   2.9583   7.1858   7.2362   8.2536

          k = 0.1436 0.7071 0.1436 ( 10906 PWs)   bands (ev):

    -6.0100  -5.9915  -3.9781  -3.9455  -3.8742  -3.6878  -3.3159  -3.3031
    -3.2612  -3.2281  -2.9445  -2.8430   0.3302   0.5145   2.0253   2.3026
     2.9123   2.9630   7.1896   7.2407   8.2825

          k = 0.1458 0.7071 0.1458 ( 10890 PWs)   bands (ev):

    -6.0103  -5.9917  -3.9782  -3.9452  -3.8755  -3.6871  -3.3160  -3.3039
    -3.2607  -3.2280  -2.9449  -2.8422   0.3308   0.5178   2.0158   2.2956
     2.9177   2.9678   7.1934   7.2453   8.3114

          k = 0.1481 0.7071 0.1481 ( 10890 PWs)   bands (ev):

    -6.0107  -5.9919  -3.9782  -3.9449  -3.8767  -3.6864  -3.3162  -3.3048
    -3.2601  -3.2280  -2.9453  -2.8415   0.3314   0.5210   2.0065   2.2887
     2.9231   2.9727   7.1973   7.2499   8.3403

          k = 0.1503 0.7071 0.1503 ( 10878 PWs)   bands (ev):

    -6.0110  -5.9921  -3.9783  -3.9445  -3.8780  -3.6857  -3.3164  -3.3056
    -3.2596  -3.2280  -2.9457  -2.8408   0.3321   0.5243   1.9974   2.2819
     2.9286   2.9777   7.2011   7.2545   8.3691

          k = 0.1525 0.7071 0.1525 ( 10878 PWs)   bands (ev):

    -6.0114  -5.9922  -3.9784  -3.9442  -3.8792  -3.6851  -3.3165  -3.3064
    -3.2590  -3.2279  -2.9461  -2.8401   0.3327   0.5275   1.9885   2.2753
     2.9342   2.9829   7.2050   7.2591   8.3978

          k = 0.1547 0.7071 0.1547 ( 10878 PWs)   bands (ev):

    -6.0117  -5.9925  -3.9785  -3.9439  -3.8804  -3.6845  -3.3167  -3.3072
    -3.2585  -3.2279  -2.9465  -2.8395   0.3334   0.5307   1.9797   2.2688
     2.9399   2.9881   7.2088   7.2638   8.4264

          k = 0.1569 0.7071 0.1569 ( 10868 PWs)   bands (ev):

    -6.0121  -5.9927  -3.9786  -3.9437  -3.8816  -3.6839  -3.3168  -3.3081
    -3.2580  -3.2279  -2.9469  -2.8389   0.3342   0.5340   1.9712   2.2625
     2.9457   2.9934   7.2127   7.2686   8.4549

          k = 0.1591 0.7071 0.1591 ( 10872 PWs)   bands (ev):

    -6.0125  -5.9929  -3.9787  -3.9434  -3.8828  -3.6833  -3.3170  -3.3089
    -3.2575  -3.2279  -2.9474  -2.8384   0.3349   0.5372   1.9628   2.2564
     2.9516   2.9988   7.2166   7.2733   8.4833

          k = 0.1613 0.7071 0.1613 ( 10872 PWs)   bands (ev):

    -6.0129  -5.9932  -3.9788  -3.9431  -3.8839  -3.6828  -3.3171  -3.3097
    -3.2569  -3.2279  -2.9479  -2.8379   0.3357   0.5404   1.9547   2.2504
     2.9576   3.0043   7.2206   7.2781   8.5115

          k = 0.1635 0.7071 0.1635 ( 10872 PWs)   bands (ev):

    -6.0133  -5.9934  -3.9789  -3.9429  -3.8851  -3.6823  -3.3173  -3.3105
    -3.2564  -3.2279  -2.9484  -2.8374   0.3366   0.5436   1.9468   2.2446
     2.9636   3.0099   7.2245   7.2829   8.5395

          k = 0.1657 0.7071 0.1657 ( 10872 PWs)   bands (ev):

    -6.0137  -5.9937  -3.9790  -3.9427  -3.8862  -3.6818  -3.3174  -3.3113
    -3.2559  -3.2279  -2.9489  -2.8370   0.3374   0.5468   1.9391   2.2390
     2.9698   3.0155   7.2284   7.2877   8.5672

          k = 0.1679 0.7071 0.1679 ( 10880 PWs)   bands (ev):

    -6.0141  -5.9940  -3.9790  -3.9424  -3.8873  -3.6813  -3.3176  -3.3121
    -3.2554  -3.2279  -2.9495  -2.8366   0.3383   0.5500   1.9316   2.2336
     2.9760   3.0213   7.2324   7.2926   8.5948

          k = 0.1701 0.7071 0.1701 ( 10872 PWs)   bands (ev):

    -6.0146  -5.9943  -3.9791  -3.9423  -3.8883  -3.6809  -3.3177  -3.3129
    -3.2549  -3.2279  -2.9501  -2.8363   0.3393   0.5532   1.9243   2.2284
     2.9823   3.0271   7.2363   7.2974   8.6221

          k = 0.1724 0.7071 0.1724 ( 10870 PWs)   bands (ev):

    -6.0150  -5.9946  -3.9792  -3.9421  -3.8894  -3.6804  -3.3179  -3.3137
    -3.2544  -3.2279  -2.9507  -2.8360   0.3403   0.5564   1.9173   2.2233
     2.9887   3.0331   7.2402   7.3023   8.6491

          k = 0.1746 0.7071 0.1746 ( 10870 PWs)   bands (ev):

    -6.0155  -5.9949  -3.9793  -3.9419  -3.8904  -3.6801  -3.3180  -3.3145
    -3.2539  -3.2279  -2.9513  -2.8357   0.3413   0.5595   1.9106   2.2185
     2.9952   3.0391   7.2442   7.3072   8.6758

          k = 0.1768 0.7071 0.1768 ( 10870 PWs)   bands (ev):

    -6.0159  -5.9953  -3.9794  -3.9418  -3.8914  -3.6797  -3.3182  -3.3153
    -3.2534  -3.2280  -2.9520  -2.8355   0.3424   0.5627   1.9041   2.2139
     3.0017   3.0452   7.2481   7.3121   8.7021

          k = 0.1856 0.7027 0.1724 ( 10875 PWs)   bands (ev):

    -6.0164  -5.9957  -3.9794  -3.9417  -3.8924  -3.6793  -3.3184  -3.3160
    -3.2530  -3.2280  -2.9526  -2.8354   0.3436   0.5659   1.8984   2.2101
     3.0064   3.0501   7.2549   7.3208   8.7284

          k = 0.1945 0.6983 0.1679 ( 10880 PWs)   bands (ev):

    -6.0169  -5.9960  -3.9794  -3.9416  -3.8935  -3.6789  -3.3189  -3.3165
    -3.2525  -3.2281  -2.9533  -2.8352   0.3451   0.5694   1.8942   2.2080
     3.0073   3.0525   7.2675   7.3369   8.7546

          k = 0.2033 0.6938 0.1635 ( 10885 PWs)   bands (ev):

    -6.0174  -5.9964  -3.9793  -3.9417  -3.8946  -3.6784  -3.3196  -3.3167
    -3.2520  -3.2282  -2.9540  -2.8351   0.3468   0.5730   1.8915   2.2073
     3.0045   3.0525   7.2857   7.3602   8.7808

          k = 0.2121 0.6894 0.1591 ( 10891 PWs)   bands (ev):

    -6.0180  -5.9968  -3.9791  -3.9419  -3.8958  -3.6779  -3.3204  -3.3168
    -3.2516  -3.2284  -2.9547  -2.8351   0.3487   0.5767   1.8902   2.2082
     2.9983   3.0500   7.3094   7.3903   8.8067

          k = 0.2210 0.6850 0.1547 ( 10891 PWs)   bands (ev):

    -6.0185  -5.9971  -3.9788  -3.9421  -3.8969  -3.6774  -3.3213  -3.3167
    -3.2511  -3.2286  -2.9553  -2.8350   0.3508   0.5804   1.8904   2.2106
     2.9890   3.0452   7.3385   7.4270   8.8323

          k = 0.2298 0.6806 0.1503 ( 10886 PWs)   bands (ev):

    -6.0190  -5.9975  -3.9785  -3.9424  -3.8981  -3.6769  -3.3222  -3.3167
    -3.2507  -3.2289  -2.9559  -2.8350   0.3529   0.5841   1.8919   2.2144
     2.9769   3.0382   7.3725   7.4698   8.8572

          k = 0.2386 0.6762 0.1458 ( 10892 PWs)   bands (ev):

    -6.0195  -5.9979  -3.9781  -3.9429  -3.8992  -3.6763  -3.3231  -3.3166
    -3.2502  -3.2292  -2.9564  -2.8349   0.3552   0.5877   1.8948   2.2197
     2.9623   3.0292   7.4112   7.5182   8.8814

          k = 0.2475 0.6718 0.1414 ( 10886 PWs)   bands (ev):

    -6.0200  -5.9982  -3.9776  -3.9434  -3.9002  -3.6758  -3.3240  -3.3165
    -3.2498  -3.2295  -2.9570  -2.8349   0.3574   0.5911   1.8989   2.2262
     2.9458   3.0184   7.4540   7.5717   8.9046

          k = 0.2563 0.6673 0.1370 ( 10885 PWs)   bands (ev):

    -6.0205  -5.9985  -3.9771  -3.9440  -3.9012  -3.6752  -3.3248  -3.3164
    -3.2493  -3.2299  -2.9575  -2.8350   0.3596   0.5943   1.9040   2.2340
     2.9277   3.0063   7.5002   7.6297   8.9267

          k = 0.2652 0.6629 0.1326 ( 10881 PWs)   bands (ev):

    -6.0210  -5.9988  -3.9765  -3.9447  -3.9021  -3.6747  -3.3256  -3.3162
    -3.2489  -3.2303  -2.9579  -2.8350   0.3617   0.5973   1.9099   2.2427
     2.9084   2.9930   7.5492   7.6916   8.9474

          k = 0.2740 0.6585 0.1282 ( 10882 PWs)   bands (ev):

    -6.0214  -5.9991  -3.9758  -3.9455  -3.9030  -3.6742  -3.3263  -3.3161
    -3.2485  -3.2307  -2.9583  -2.8350   0.3638   0.6001   1.9166   2.2523
     2.8884   2.9791   7.6001   7.7566   8.9665

          k = 0.2828 0.6541 0.1237 ( 10887 PWs)   bands (ev):

    -6.0218  -5.9994  -3.9752  -3.9463  -3.9037  -3.6737  -3.3270  -3.3160
    -3.2481  -3.2311  -2.9586  -2.8351   0.3657   0.6026   1.9236   2.2625
     2.8682   2.9650   7.6518   7.8237   8.9839

          k = 0.2917 0.6497 0.1193 ( 10891 PWs)   bands (ev):

    -6.0222  -5.9996  -3.9745  -3.9472  -3.9044  -3.6733  -3.3276  -3.3159
    -3.2477  -3.2315  -2.9590  -2.8351   0.3675   0.6048   1.9309   2.2731
     2.8483   2.9510   7.7031   7.8918   8.9993

          k = 0.3005 0.6452 0.1149 ( 10890 PWs)   bands (ev):

    -6.0225  -5.9998  -3.9737  -3.9481  -3.9049  -3.6729  -3.3281  -3.3158
    -3.2473  -3.2319  -2.9592  -2.8351   0.3691   0.6067   1.9380   2.2836
     2.8293   2.9377   7.7528   7.9595   9.0127

          k = 0.3094 0.6408 0.1105 ( 10881 PWs)   bands (ev):

    -6.0228  -6.0000  -3.9731  -3.9489  -3.9054  -3.6726  -3.3286  -3.3157
    -3.2470  -3.2322  -2.9594  -2.8352   0.3705   0.6083   1.9447   2.2937
     2.8116   2.9255   7.7993   8.0249   9.0238

          k = 0.3182 0.6364 0.1061 ( 10883 PWs)   bands (ev):

    -6.0230  -6.0002  -3.9724  -3.9497  -3.9058  -3.6723  -3.3290  -3.3156
    -3.2467  -3.2326  -2.9596  -2.8352   0.3717   0.6097   1.9507   2.3029
     2.7960   2.9149   7.8408   8.0858   9.0327

          k = 0.3270 0.6320 0.1016 ( 10882 PWs)   bands (ev):

    -6.0232  -6.0003  -3.9719  -3.9504  -3.9061  -3.6721  -3.3293  -3.3156
    -3.2464  -3.2328  -2.9598  -2.8353   0.3726   0.6107   1.9557   2.3109
     2.7830   2.9061   7.8757   8.1390   9.0396

          k = 0.3359 0.6276 0.0972 ( 10892 PWs)   bands (ev):

    -6.0233  -6.0004  -3.9715  -3.9509  -3.9063  -3.6719  -3.3295  -3.3155
    -3.2462  -3.2330  -2.9599  -2.8353   0.3732   0.6115   1.9595   2.3170
     2.7732   2.8996   7.9021   8.1812   9.0445

          k = 0.3447 0.6231 0.0928 ( 10892 PWs)   bands (ev):

    -6.0234  -6.0004  -3.9712  -3.9512  -3.9064  -3.6718  -3.3296  -3.3155
    -3.2461  -3.2332  -2.9599  -2.8353   0.3736   0.6119   1.9618   2.3208
     2.7672   2.8955   7.9187   8.2085   9.0476

          k = 0.3536 0.6187 0.0884 ( 10896 PWs)   bands (ev):

    -6.0234  -6.0004  -3.9711  -3.9513  -3.9064  -3.6718  -3.3297  -3.3155
    -3.2461  -3.2332  -2.9599  -2.8353   0.3738   0.6121   1.9626   2.3221
     2.7651   2.8942   7.9243   8.2180   9.0487

          k = 0.3624 0.6143 0.0840 ( 10892 PWs)   bands (ev):

    -6.0234  -6.0004  -3.9712  -3.9512  -3.9064  -3.6718  -3.3296  -3.3155
    -3.2461  -3.2332  -2.9599  -2.8353   0.3736   0.6119   1.9618   2.3208
     2.7672   2.8955   7.9187   8.2085   9.0476

          k = 0.3712 0.6099 0.0795 ( 10892 PWs)   bands (ev):

    -6.0233  -6.0004  -3.9715  -3.9509  -3.9063  -3.6719  -3.3295  -3.3155
    -3.2462  -3.2330  -2.9599  -2.8353   0.3732   0.6115   1.9595   2.3170
     2.7732   2.8996   7.9021   8.1812   9.0445

          k = 0.3801 0.6055 0.0751 ( 10882 PWs)   bands (ev):

    -6.0232  -6.0003  -3.9719  -3.9504  -3.9061  -3.6721  -3.3293  -3.3156
    -3.2464  -3.2328  -2.9598  -2.8353   0.3726   0.6107   1.9557   2.3109
     2.7830   2.9061   7.8757   8.1390   9.0396

          k = 0.3889 0.6010 0.0707 ( 10883 PWs)   bands (ev):

    -6.0230  -6.0002  -3.9724  -3.9497  -3.9058  -3.6723  -3.3290  -3.3156
    -3.2467  -3.2326  -2.9596  -2.8352   0.3717   0.6097   1.9507   2.3029
     2.7960   2.9149   7.8408   8.0858   9.0327

          k = 0.3977 0.5966 0.0663 ( 10881 PWs)   bands (ev):

    -6.0228  -6.0000  -3.9731  -3.9489  -3.9054  -3.6726  -3.3286  -3.3157
    -3.2470  -3.2322  -2.9594  -2.8352   0.3705   0.6083   1.9447   2.2937
     2.8116   2.9255   7.7993   8.0249   9.0238

          k = 0.4066 0.5922 0.0619 ( 10890 PWs)   bands (ev):

    -6.0225  -5.9998  -3.9737  -3.9481  -3.9049  -3.6729  -3.3281  -3.3158
    -3.2473  -3.2319  -2.9592  -2.8351   0.3691   0.6067   1.9380   2.2836
     2.8293   2.9377   7.7528   7.9595   9.0127

          k = 0.4154 0.5878 0.0575 ( 10891 PWs)   bands (ev):

    -6.0222  -5.9996  -3.9745  -3.9472  -3.9044  -3.6733  -3.3276  -3.3159
    -3.2477  -3.2315  -2.9590  -2.8351   0.3675   0.6048   1.9309   2.2731
     2.8483   2.9510   7.7031   7.8918   8.9993

          k = 0.4243 0.5834 0.0530 ( 10887 PWs)   bands (ev):

    -6.0218  -5.9994  -3.9752  -3.9463  -3.9037  -3.6737  -3.3270  -3.3160
    -3.2481  -3.2311  -2.9586  -2.8351   0.3657   0.6026   1.9236   2.2625
     2.8682   2.9650   7.6518   7.8237   8.9839

          k = 0.4331 0.5789 0.0486 ( 10882 PWs)   bands (ev):

    -6.0214  -5.9991  -3.9758  -3.9455  -3.9030  -3.6742  -3.3263  -3.3161
    -3.2485  -3.2307  -2.9583  -2.8350   0.3638   0.6001   1.9166   2.2523
     2.8884   2.9791   7.6001   7.7566   8.9665

          k = 0.4419 0.5745 0.0442 ( 10881 PWs)   bands (ev):

    -6.0210  -5.9988  -3.9765  -3.9447  -3.9021  -3.6747  -3.3256  -3.3162
    -3.2489  -3.2303  -2.9579  -2.8350   0.3617   0.5973   1.9099   2.2427
     2.9084   2.9930   7.5492   7.6916   8.9474

          k = 0.4508 0.5701 0.0398 ( 10885 PWs)   bands (ev):

    -6.0205  -5.9985  -3.9771  -3.9440  -3.9012  -3.6752  -3.3248  -3.3164
    -3.2493  -3.2299  -2.9575  -2.8350   0.3596   0.5943   1.9040   2.2340
     2.9277   3.0063   7.5002   7.6297   8.9267

          k = 0.4596 0.5657 0.0354 ( 10886 PWs)   bands (ev):

    -6.0200  -5.9982  -3.9776  -3.9434  -3.9002  -3.6758  -3.3240  -3.3165
    -3.2498  -3.2295  -2.9570  -2.8349   0.3574   0.5911   1.8989   2.2262
     2.9458   3.0184   7.4540   7.5717   8.9046

          k = 0.4685 0.5613 0.0309 ( 10892 PWs)   bands (ev):

    -6.0195  -5.9979  -3.9781  -3.9429  -3.8992  -3.6763  -3.3231  -3.3166
    -3.2502  -3.2292  -2.9564  -2.8349   0.3552   0.5877   1.8948   2.2197
     2.9623   3.0292   7.4112   7.5182   8.8814

          k = 0.4773 0.5568 0.0265 ( 10886 PWs)   bands (ev):

    -6.0190  -5.9975  -3.9785  -3.9424  -3.8981  -3.6769  -3.3222  -3.3167
    -3.2507  -3.2289  -2.9559  -2.8350   0.3529   0.5841   1.8919   2.2144
     2.9769   3.0382   7.3725   7.4698   8.8572

          k = 0.4861 0.5524 0.0221 ( 10891 PWs)   bands (ev):

    -6.0185  -5.9971  -3.9788  -3.9421  -3.8969  -3.6774  -3.3213  -3.3167
    -3.2511  -3.2286  -2.9553  -2.8350   0.3508   0.5804   1.8904   2.2106
     2.9890   3.0452   7.3385   7.4270   8.8323

          k = 0.4950 0.5480 0.0177 ( 10891 PWs)   bands (ev):

    -6.0180  -5.9968  -3.9791  -3.9419  -3.8958  -3.6779  -3.3204  -3.3168
    -3.2516  -3.2284  -2.9547  -2.8351   0.3487   0.5767   1.8902   2.2082
     2.9983   3.0500   7.3094   7.3903   8.8067

          k = 0.5038 0.5436 0.0133 ( 10885 PWs)   bands (ev):

    -6.0174  -5.9964  -3.9793  -3.9417  -3.8946  -3.6784  -3.3196  -3.3167
    -3.2520  -3.2282  -2.9540  -2.8351   0.3468   0.5730   1.8915   2.2073
     3.0045   3.0525   7.2857   7.3602   8.7808

          k = 0.5127 0.5392 0.0088 ( 10880 PWs)   bands (ev):

    -6.0169  -5.9960  -3.9794  -3.9416  -3.8935  -3.6789  -3.3189  -3.3165
    -3.2525  -3.2281  -2.9533  -2.8352   0.3451   0.5694   1.8942   2.2080
     3.0073   3.0525   7.2675   7.3369   8.7546

          k = 0.5215 0.5347 0.0044 ( 10875 PWs)   bands (ev):

    -6.0164  -5.9957  -3.9794  -3.9417  -3.8924  -3.6793  -3.3184  -3.3160
    -3.2530  -3.2280  -2.9526  -2.8354   0.3436   0.5659   1.8984   2.2101
     3.0064   3.0501   7.2549   7.3208   8.7284

          k = 0.5303 0.5303 0.0000 ( 10870 PWs)   bands (ev):

    -6.0159  -5.9953  -3.9794  -3.9418  -3.8914  -3.6797  -3.3182  -3.3153
    -3.2534  -3.2280  -2.9520  -2.8355   0.3424   0.5627   1.9041   2.2139
     3.0017   3.0452   7.2481   7.3121   8.7021

          k = 0.5289 0.5289-0.0000 ( 10870 PWs)   bands (ev):

    -6.0162  -5.9955  -3.9794  -3.9417  -3.8920  -3.6795  -3.3183  -3.3159
    -3.2531  -3.2280  -2.9524  -2.8354   0.3431   0.5648   1.8999   2.2109
     3.0061   3.0493   7.2507   7.3154   8.7195

          k = 0.5274 0.5274 0.0000 ( 10870 PWs)   bands (ev):

    -6.0166  -5.9958  -3.9795  -3.9416  -3.8927  -3.6792  -3.3184  -3.3164
    -3.2528  -3.2280  -2.9529  -2.8353   0.3439   0.5669   1.8958   2.2081
     3.0106   3.0534   7.2534   7.3187   8.7367

          k = 0.5259 0.5259 0.0000 ( 10870 PWs)   bands (ev):

    -6.0169  -5.9960  -3.9796  -3.9415  -3.8933  -3.6790  -3.3185  -3.3169
    -3.2525  -3.2280  -2.9534  -2.8353   0.3446   0.5689   1.8919   2.2053
     3.0151   3.0576   7.2560   7.3220   8.7537

          k = 0.5244 0.5244-0.0000 ( 10866 PWs)   bands (ev):

    -6.0172  -5.9963  -3.9796  -3.9415  -3.8939  -3.6788  -3.3186  -3.3174
    -3.2522  -3.2281  -2.9539  -2.8353   0.3454   0.5710   1.8881   2.2026
     3.0196   3.0618   7.2586   7.3253   8.7706

          k = 0.5230 0.5230 0.0000 ( 10870 PWs)   bands (ev):

    -6.0176  -5.9966  -3.9797  -3.9415  -3.8945  -3.6787  -3.3187  -3.3180
    -3.2519  -3.2281  -2.9544  -2.8352   0.3463   0.5731   1.8844   2.2000
     3.0241   3.0661   7.2612   7.3286   8.7873

          k = 0.5215 0.5215 0.0000 ( 10878 PWs)   bands (ev):

    -6.0179  -5.9968  -3.9797  -3.9414  -3.8951  -3.6785  -3.3188  -3.3185
    -3.2516  -3.2281  -2.9549  -2.8353   0.3471   0.5752   1.8808   2.1975
     3.0287   3.0704   7.2638   7.3319   8.8038

          k = 0.5200 0.5200-0.0000 ( 10888 PWs)   bands (ev):

    -6.0183  -5.9971  -3.9798  -3.9414  -3.8956  -3.6783  -3.3190  -3.3189
    -3.2513  -3.2281  -2.9554  -2.8353   0.3480   0.5772   1.8773   2.1952
     3.0333   3.0747   7.2663   7.3352   8.8200

          k = 0.5185 0.5185 0.0000 ( 10888 PWs)   bands (ev):

    -6.0186  -5.9974  -3.9798  -3.9414  -3.8962  -3.6782  -3.3195  -3.3190
    -3.2510  -3.2282  -2.9560  -2.8353   0.3489   0.5793   1.8740   2.1929
     3.0379   3.0790   7.2689   7.3385   8.8361

          k = 0.5171 0.5171 0.0000 ( 10888 PWs)   bands (ev):

    -6.0190  -5.9977  -3.9799  -3.9414  -3.8967  -3.6780  -3.3200  -3.3191
    -3.2507  -3.2282  -2.9565  -2.8354   0.3498   0.5814   1.8708   2.1907
     3.0426   3.0834   7.2715   7.3417   8.8520

          k = 0.5156 0.5156-0.0000 ( 10888 PWs)   bands (ev):

    -6.0193  -5.9980  -3.9799  -3.9414  -3.8972  -3.6779  -3.3205  -3.3192
    -3.2504  -3.2282  -2.9571  -2.8355   0.3508   0.5834   1.8677   2.1886
     3.0472   3.0878   7.2740   7.3450   8.8676

          k = 0.5141 0.5141 0.0000 ( 10888 PWs)   bands (ev):

    -6.0197  -5.9984  -3.9800  -3.9414  -3.8977  -3.6778  -3.3210  -3.3193
    -3.2501  -3.2283  -2.9577  -2.8357   0.3517   0.5855   1.8647   2.1866
     3.0520   3.0923   7.2766   7.3483   8.8831

          k = 0.5127 0.5127 0.0000 ( 10888 PWs)   bands (ev):

    -6.0201  -5.9987  -3.9801  -3.9415  -3.8982  -3.6777  -3.3215  -3.3194
    -3.2499  -3.2283  -2.9583  -2.8358   0.3527   0.5875   1.8619   2.1848
     3.0567   3.0968   7.2791   7.3516   8.8983

          k = 0.5112 0.5112-0.0000 ( 10900 PWs)   bands (ev):

    -6.0205  -5.9990  -3.9801  -3.9415  -3.8987  -3.6776  -3.3221  -3.3195
    -3.2496  -3.2284  -2.9590  -2.8360   0.3538   0.5896   1.8592   2.1830
     3.0615   3.1013   7.2816   7.3549   8.9132

          k = 0.5097 0.5097 0.0000 ( 10900 PWs)   bands (ev):

    -6.0208  -5.9994  -3.9802  -3.9416  -3.8992  -3.6775  -3.3226  -3.3196
    -3.2493  -3.2284  -2.9596  -2.8362   0.3548   0.5916   1.8567   2.1813
     3.0663   3.1058   7.2841   7.3582   8.9280

          k = 0.5082 0.5082 0.0000 ( 10900 PWs)   bands (ev):

    -6.0212  -5.9997  -3.9802  -3.9417  -3.8996  -3.6775  -3.3231  -3.3197
    -3.2491  -3.2284  -2.9603  -2.8365   0.3559   0.5937   1.8542   2.1798
     3.0711   3.1104   7.2866   7.3614   8.9425

          k = 0.5068 0.5068-0.0000 ( 10900 PWs)   bands (ev):

    -6.0216  -6.0001  -3.9803  -3.9418  -3.9001  -3.6774  -3.3235  -3.3198
    -3.2488  -3.2285  -2.9609  -2.8367   0.3571   0.5957   1.8519   2.1783
     3.0760   3.1150   7.2891   7.3647   8.9567

          k = 0.5053 0.5053 0.0000 ( 10904 PWs)   bands (ev):

    -6.0220  -6.0004  -3.9803  -3.9419  -3.9005  -3.6774  -3.3240  -3.3199
    -3.2485  -3.2285  -2.9616  -2.8370   0.3582   0.5977   1.8498   2.1770
     3.0809   3.1196   7.2916   7.3679   8.9707

          k = 0.5038 0.5038 0.0000 ( 10904 PWs)   bands (ev):

    -6.0224  -6.0008  -3.9804  -3.9420  -3.9009  -3.6773  -3.3245  -3.3199
    -3.2483  -3.2286  -2.9623  -2.8373   0.3594   0.5998   1.8478   2.1757
     3.0858   3.1243   7.2940   7.3712   8.9844

          k = 0.5023 0.5023-0.0000 ( 10904 PWs)   bands (ev):

    -6.0229  -6.0012  -3.9805  -3.9422  -3.9013  -3.6773  -3.3250  -3.3200
    -3.2480  -3.2286  -2.9630  -2.8376   0.3606   0.6018   1.8459   2.1746
     3.0907   3.1290   7.2964   7.3744   8.9979

          k = 0.5009 0.5009 0.0000 ( 10900 PWs)   bands (ev):

    -6.0233  -6.0016  -3.9805  -3.9423  -3.9016  -3.6773  -3.3255  -3.3201
    -3.2478  -3.2287  -2.9638  -2.8380   0.3619   0.6039   1.8441   2.1736
     3.0957   3.1337   7.2988   7.3776   9.0111

          k = 0.4994 0.4994 0.0000 ( 10904 PWs)   bands (ev):

    -6.0237  -6.0020  -3.9806  -3.9425  -3.9020  -3.6773  -3.3260  -3.3202
    -3.2476  -3.2287  -2.9645  -2.8384   0.3632   0.6059   1.8425   2.1726
     3.1007   3.1384   7.3012   7.3809   9.0240

          k = 0.4979 0.4979-0.0000 ( 10904 PWs)   bands (ev):

    -6.0241  -6.0024  -3.9806  -3.9427  -3.9023  -3.6774  -3.3265  -3.3203
    -3.2473  -3.2288  -2.9653  -2.8388   0.3645   0.6080   1.8410   2.1718
     3.1057   3.1432   7.3036   7.3841   9.0366

          k = 0.4964 0.4964 0.0000 ( 10896 PWs)   bands (ev):

    -6.0246  -6.0028  -3.9807  -3.9428  -3.9026  -3.6774  -3.3270  -3.3204
    -3.2471  -3.2288  -2.9661  -2.8393   0.3658   0.6100   1.8397   2.1711
     3.1107   3.1480   7.3059   7.3872   9.0490

          k = 0.4950 0.4950 0.0000 ( 10900 PWs)   bands (ev):

    -6.0250  -6.0032  -3.9807  -3.9431  -3.9029  -3.6774  -3.3274  -3.3205
    -3.2469  -3.2289  -2.9669  -2.8397   0.3672   0.6121   1.8385   2.1705
     3.1158   3.1528   7.3082   7.3904   9.0611

          k = 0.4935 0.4935-0.0000 ( 10900 PWs)   bands (ev):

    -6.0255  -6.0036  -3.9808  -3.9433  -3.9032  -3.6775  -3.3279  -3.3206
    -3.2467  -3.2290  -2.9677  -2.8402   0.3687   0.6141   1.8374   2.1700
     3.1209   3.1577   7.3105   7.3936   9.0729

          k = 0.4920 0.4920 0.0000 ( 10900 PWs)   bands (ev):

    -6.0260  -6.0041  -3.9808  -3.9435  -3.9035  -3.6776  -3.3284  -3.3207
    -3.2464  -3.2290  -2.9686  -2.8408   0.3701   0.6162   1.8365   2.1697
     3.1260   3.1626   7.3128   7.3967   9.0845

          k = 0.4906 0.4906 0.0000 ( 10908 PWs)   bands (ev):

    -6.0264  -6.0045  -3.9809  -3.9438  -3.9038  -3.6776  -3.3288  -3.3208
    -3.2462  -3.2291  -2.9695  -2.8413   0.3716   0.6182   1.8357   2.1694
     3.1311   3.1675   7.3150   7.3998   9.0958

          k = 0.4891 0.4891-0.0000 ( 10906 PWs)   bands (ev):

    -6.0269  -6.0050  -3.9810  -3.9440  -3.9040  -3.6777  -3.3293  -3.3209
    -3.2460  -3.2291  -2.9703  -2.8419   0.3732   0.6203   1.8351   2.1692
     3.1363   3.1724   7.3172   7.4029   9.1067

          k = 0.4876 0.4876 0.0000 ( 10906 PWs)   bands (ev):

    -6.0274  -6.0055  -3.9810  -3.9443  -3.9042  -3.6779  -3.3298  -3.3210
    -3.2458  -3.2292  -2.9712  -2.8425   0.3748   0.6224   1.8346   2.1692
     3.1415   3.1774   7.3194   7.4060   9.1174

          k = 0.4861 0.4861 0.0000 ( 10906 PWs)   bands (ev):

    -6.0279  -6.0059  -3.9811  -3.9446  -3.9045  -3.6780  -3.3302  -3.3211
    -3.2456  -3.2293  -2.9722  -2.8432   0.3764   0.6245   1.8342   2.1692
     3.1467   3.1824   7.3216   7.4091   9.1279

          k = 0.4847 0.4847-0.0000 ( 10920 PWs)   bands (ev):

    -6.0284  -6.0064  -3.9811  -3.9449  -3.9047  -3.6781  -3.3307  -3.3212
    -3.2454  -3.2293  -2.9731  -2.8438   0.3781   0.6266   1.8339   2.1694
     3.1519   3.1874   7.3237   7.4121   9.1380

          k = 0.4832 0.4832 0.0000 ( 10920 PWs)   bands (ev):

    -6.0289  -6.0069  -3.9812  -3.9452  -3.9049  -3.6783  -3.3312  -3.3213
    -3.2452  -3.2294  -2.9740  -2.8445   0.3798   0.6287   1.8339   2.1697
     3.1571   3.1924   7.3258   7.4151   9.1479

          k = 0.4817 0.4817 0.0000 ( 10920 PWs)   bands (ev):

    -6.0294  -6.0074  -3.9813  -3.9455  -3.9050  -3.6784  -3.3316  -3.3214
    -3.2450  -3.2295  -2.9750  -2.8453   0.3816   0.6308   1.8339   2.1701
     3.1624   3.1975   7.3278   7.4181   9.1575

          k = 0.4802 0.4802-0.0000 ( 10920 PWs)   bands (ev):

    -6.0299  -6.0079  -3.9813  -3.9459  -3.9052  -3.6786  -3.3321  -3.3215
    -3.2449  -3.2295  -2.9760  -2.8460   0.3834   0.6329   1.8341   2.1706
     3.1677   3.2025   7.3298   7.4211   9.1668

          k = 0.4788 0.4788 0.0000 ( 10920 PWs)   bands (ev):

    -6.0304  -6.0085  -3.9814  -3.9462  -3.9054  -3.6788  -3.3325  -3.3216
    -3.2447  -3.2296  -2.9770  -2.8468   0.3853   0.6351   1.8344   2.1712
     3.1730   3.2076   7.3318   7.4241   9.1758

          k = 0.4773 0.4773 0.0000 ( 10920 PWs)   bands (ev):

    -6.0310  -6.0090  -3.9814  -3.9466  -3.9055  -3.6790  -3.3330  -3.3217
    -3.2445  -3.2297  -2.9780  -2.8476   0.3872   0.6373   1.8348   2.1719
     3.1784   3.2128   7.3338   7.4270   9.1846

          k = 0.4758 0.4758-0.0000 ( 10918 PWs)   bands (ev):

    -6.0315  -6.0096  -3.9815  -3.9470  -3.9056  -3.6792  -3.3334  -3.3218
    -3.2444  -3.2298  -2.9791  -2.8485   0.3891   0.6394   1.8354   2.1727
     3.1837   3.2179   7.3357   7.4299   9.1931

          k = 0.4744 0.4744 0.0000 ( 10910 PWs)   bands (ev):

    -6.0321  -6.0101  -3.9815  -3.9473  -3.9058  -3.6794  -3.3338  -3.3219
    -3.2442  -3.2298  -2.9802  -2.8494   0.3911   0.6416   1.8362   2.1736
     3.1891   3.2231   7.3376   7.4327   9.2013

          k = 0.4729 0.4729 0.0000 ( 10910 PWs)   bands (ev):

    -6.0326  -6.0107  -3.9816  -3.9477  -3.9059  -3.6797  -3.3343  -3.3220
    -3.2440  -3.2299  -2.9812  -2.8503   0.3932   0.6438   1.8370   2.1746
     3.1945   3.2283   7.3394   7.4355   9.2093

          k = 0.4714 0.4714-0.0000 ( 10910 PWs)   bands (ev):

    -6.0332  -6.0112  -3.9817  -3.9481  -3.9060  -3.6799  -3.3347  -3.3221
    -3.2439  -3.2300  -2.9824  -2.8512   0.3953   0.6461   1.8380   2.1758
     3.1999   3.2335   7.3412   7.4383   9.2170

          k = 0.4699 0.4699 0.0000 ( 10910 PWs)   bands (ev):

    -6.0337  -6.0118  -3.9817  -3.9485  -3.9061  -3.6802  -3.3351  -3.3222
    -3.2438  -3.2301  -2.9835  -2.8522   0.3974   0.6483   1.8392   2.1770
     3.2053   3.2388   7.3430   7.4411   9.2245

          k = 0.4685 0.4685 0.0000 ( 10910 PWs)   bands (ev):

    -6.0343  -6.0124  -3.9818  -3.9490  -3.9062  -3.6804  -3.3356  -3.3223
    -3.2436  -3.2301  -2.9846  -2.8531   0.3996   0.6506   1.8404   2.1784
     3.2108   3.2440   7.3447   7.4438   9.2317

          k = 0.4670 0.4670-0.0000 ( 10910 PWs)   bands (ev):

    -6.0349  -6.0130  -3.9818  -3.9494  -3.9062  -3.6807  -3.3360  -3.3224
    -3.2435  -3.2302  -2.9858  -2.8542   0.4019   0.6529   1.8419   2.1798
     3.2162   3.2493   7.3463   7.4465   9.2386

          k = 0.4655 0.4655 0.0000 ( 10910 PWs)   bands (ev):

    -6.0355  -6.0136  -3.9819  -3.9498  -3.9063  -3.6810  -3.3364  -3.3225
    -3.2433  -3.2303  -2.9870  -2.8552   0.4042   0.6552   1.8434   2.1814
     3.2217   3.2546   7.3480   7.4492   9.2454

          k = 0.4640 0.4640 0.0000 ( 10914 PWs)   bands (ev):

    -6.0361  -6.0143  -3.9820  -3.9503  -3.9064  -3.6814  -3.3368  -3.3226
    -3.2432  -3.2304  -2.9882  -2.8563   0.4066   0.6575   1.8451   2.1831
     3.2272   3.2599   7.3495   7.4518   9.2519

          k = 0.4626 0.4626-0.0000 ( 10914 PWs)   bands (ev):

    -6.0367  -6.0149  -3.9820  -3.9507  -3.9064  -3.6817  -3.3373  -3.3227
    -3.2431  -3.2305  -2.9894  -2.8574   0.4090   0.6599   1.8469   2.1849
     3.2328   3.2653   7.3511   7.4544   9.2581

          k = 0.4611 0.4611 0.0000 ( 10914 PWs)   bands (ev):

    -6.0373  -6.0155  -3.9821  -3.9512  -3.9065  -3.6820  -3.3377  -3.3228
    -3.2430  -3.2306  -2.9906  -2.8585   0.4115   0.6623   1.8488   2.1868
     3.2383   3.2706   7.3526   7.4569   9.2642

          k = 0.4596 0.4596 0.0000 ( 10906 PWs)   bands (ev):

    -6.0380  -6.0162  -3.9822  -3.9516  -3.9065  -3.6824  -3.3381  -3.3229
    -3.2429  -3.2306  -2.9919  -2.8597   0.4140   0.6647   1.8509   2.1887
     3.2438   3.2760   7.3540   7.4594   9.2700

          k = 0.4581 0.4581-0.0000 ( 10912 PWs)   bands (ev):

    -6.0386  -6.0168  -3.9822  -3.9521  -3.9066  -3.6828  -3.3385  -3.3230
    -3.2428  -3.2307  -2.9932  -2.8609   0.4166   0.6672   1.8531   2.1908
     3.2494   3.2814   7.3554   7.4619   9.2756

          k = 0.4567 0.4567 0.0000 ( 10912 PWs)   bands (ev):

    -6.0392  -6.0175  -3.9823  -3.9525  -3.9066  -3.6832  -3.3389  -3.3232
    -3.2427  -3.2308  -2.9944  -2.8621   0.4193   0.6697   1.8554   2.1930
     3.2550   3.2868   7.3567   7.4643   9.2811

          k = 0.4552 0.4552 0.0000 ( 10908 PWs)   bands (ev):

    -6.0399  -6.0182  -3.9823  -3.9530  -3.9066  -3.6836  -3.3393  -3.3233
    -3.2426  -3.2309  -2.9958  -2.8634   0.4220   0.6722   1.8578   2.1954
     3.2606   3.2922   7.3580   7.4667   9.2863

          k = 0.4537 0.4537-0.0000 ( 10908 PWs)   bands (ev):

    -6.0406  -6.0189  -3.9824  -3.9535  -3.9067  -3.6840  -3.3397  -3.3234
    -3.2425  -3.2310  -2.9971  -2.8647   0.4248   0.6747   1.8604   2.1978
     3.2662   3.2977   7.3592   7.4690   9.2913

          k = 0.4523 0.4523 0.0000 ( 10904 PWs)   bands (ev):

    -6.0412  -6.0196  -3.9825  -3.9540  -3.9067  -3.6844  -3.3401  -3.3235
    -3.2424  -3.2311  -2.9984  -2.8660   0.4276   0.6773   1.8631   2.2003
     3.2719   3.3032   7.3604   7.4712   9.2961

          k = 0.4508 0.4508 0.0000 ( 10908 PWs)   bands (ev):

    -6.0419  -6.0203  -3.9825  -3.9545  -3.9067  -3.6848  -3.3405  -3.3236
    -3.2423  -3.2312  -2.9998  -2.8673   0.4305   0.6799   1.8660   2.2029
     3.2775   3.3086   7.3615   7.4735   9.3008

          k = 0.4493 0.4493-0.0000 ( 10908 PWs)   bands (ev):

    -6.0426  -6.0210  -3.9826  -3.9550  -3.9067  -3.6853  -3.3409  -3.3237
    -3.2423  -3.2313  -3.0012  -2.8687   0.4335   0.6826   1.8689   2.2056
     3.2832   3.3142   7.3625   7.4756   9.3053

          k = 0.4478 0.4478 0.0000 ( 10908 PWs)   bands (ev):

    -6.0433  -6.0218  -3.9827  -3.9555  -3.9067  -3.6857  -3.3413  -3.3238
    -3.2422  -3.2314  -3.0026  -2.8701   0.4365   0.6853   1.8720   2.2084
     3.2888   3.3197   7.3635   7.4778   9.3096

          k = 0.4464 0.4464 0.0000 ( 10904 PWs)   bands (ev):

    -6.0440  -6.0225  -3.9827  -3.9560  -3.9067  -3.6862  -3.3417  -3.3239
    -3.2421  -3.2315  -3.0040  -2.8715   0.4396   0.6880   1.8752   2.2113
     3.2945   3.3252   7.3645   7.4798   9.3138

          k = 0.4449 0.4449-0.0000 ( 10904 PWs)   bands (ev):

    -6.0447  -6.0233  -3.9828  -3.9565  -3.9068  -3.6867  -3.3421  -3.3240
    -3.2421  -3.2316  -3.0055  -2.8730   0.4428   0.6908   1.8785   2.2144
     3.3002   3.3308   7.3654   7.4818   9.3178

          k = 0.4434 0.4434 0.0000 ( 10902 PWs)   bands (ev):

    -6.0454  -6.0240  -3.9829  -3.9570  -3.9068  -3.6872  -3.3425  -3.3241
    -3.2420  -3.2317  -3.0069  -2.8745   0.4460   0.6936   1.8820   2.2175
     3.3060   3.3363   7.3662   7.4838   9.3217

          k = 0.4419 0.4419 0.0000 ( 10902 PWs)   bands (ev):

    -6.0461  -6.0248  -3.9829  -3.9575  -3.9068  -3.6878  -3.3429  -3.3242
    -3.2420  -3.2318  -3.0084  -2.8760   0.4493   0.6965   1.8855   2.2207
     3.3117   3.3419   7.3669   7.4857   9.3254

          k = 0.4405 0.4405-0.0000 ( 10902 PWs)   bands (ev):

    -6.0469  -6.0256  -3.9830  -3.9580  -3.9068  -3.6883  -3.3432  -3.3243
    -3.2419  -3.2319  -3.0099  -2.8775   0.4527   0.6994   1.8892   2.2240
     3.3174   3.3475   7.3676   7.4875   9.3290

          k = 0.4390 0.4390 0.0000 ( 10906 PWs)   bands (ev):

    -6.0476  -6.0264  -3.9831  -3.9585  -3.9068  -3.6888  -3.3436  -3.3244
    -3.2419  -3.2320  -3.0114  -2.8791   0.4561   0.7024   1.8930   2.2274
     3.3232   3.3531   7.3683   7.4893   9.3325

          k = 0.4375 0.4375 0.0000 ( 10910 PWs)   bands (ev):

    -6.0484  -6.0272  -3.9831  -3.9590  -3.9068  -3.6894  -3.3440  -3.3245
    -3.2419  -3.2321  -3.0129  -2.8807   0.4596   0.7054   1.8969   2.2309
     3.3290   3.3587   7.3688   7.4910   9.3358

          k = 0.4360 0.4360-0.0000 ( 10910 PWs)   bands (ev):

    -6.0492  -6.0280  -3.9832  -3.9595  -3.9068  -3.6900  -3.3444  -3.3247
    -3.2418  -3.2322  -3.0145  -2.8823   0.4632   0.7085   1.9009   2.2345
     3.3347   3.3644   7.3693   7.4927   9.3391

          k = 0.4346 0.4346 0.0000 ( 10910 PWs)   bands (ev):

    -6.0499  -6.0289  -3.9833  -3.9600  -3.9068  -3.6906  -3.3447  -3.3248
    -3.2418  -3.2323  -3.0160  -2.8840   0.4668   0.7116   1.9051   2.2383
     3.3405   3.3700   7.3697   7.4943   9.3422

          k = 0.4331 0.4331 0.0000 ( 10910 PWs)   bands (ev):

    -6.0507  -6.0297  -3.9833  -3.9605  -3.9068  -3.6912  -3.3451  -3.3249
    -3.2418  -3.2324  -3.0176  -2.8857   0.4706   0.7147   1.9093   2.2421
     3.3463   3.3757   7.3701   7.4958   9.3453

          k = 0.4316 0.4316-0.0000 ( 10906 PWs)   bands (ev):

    -6.0515  -6.0306  -3.9834  -3.9610  -3.9068  -3.6918  -3.3455  -3.3250
    -3.2418  -3.2326  -3.0192  -2.8874   0.4744   0.7179   1.9137   2.2460
     3.3521   3.3813   7.3704   7.4973   9.3482

          k = 0.4302 0.4302 0.0000 ( 10906 PWs)   bands (ev):

    -6.0523  -6.0314  -3.9835  -3.9616  -3.9069  -3.6924  -3.3458  -3.3251
    -3.2418  -3.2327  -3.0208  -2.8891   0.4782   0.7212   1.9182   2.2499
     3.3579   3.3870   7.3706   7.4987   9.3511

          k = 0.4287 0.4287 0.0000 ( 10906 PWs)   bands (ev):

    -6.0531  -6.0323  -3.9836  -3.9621  -3.9069  -3.6931  -3.3462  -3.3252
    -3.2418  -3.2328  -3.0224  -2.8909   0.4821   0.7245   1.9228   2.2540
     3.3638   3.3927   7.3708   7.5000   9.3538

          k = 0.4272 0.4272-0.0000 ( 10898 PWs)   bands (ev):

    -6.0539  -6.0332  -3.9836  -3.9626  -3.9069  -3.6938  -3.3465  -3.3253
    -3.2418  -3.2329  -3.0241  -2.8927   0.4862   0.7279   1.9275   2.2582
     3.3696   3.3984   7.3708   7.5013   9.3565

          k = 0.4257 0.4257 0.0000 ( 10900 PWs)   bands (ev):

    -6.0548  -6.0341  -3.9837  -3.9631  -3.9069  -3.6944  -3.3469  -3.3254
    -3.2418  -3.2330  -3.0257  -2.8945   0.4902   0.7313   1.9323   2.2625
     3.3755   3.4042   7.3709   7.5024   9.3592

          k = 0.4243 0.4243 0.0000 ( 10900 PWs)   bands (ev):

    -6.0556  -6.0350  -3.9838  -3.9636  -3.9069  -3.6951  -3.3473  -3.3256
    -3.2418  -3.2331  -3.0274  -2.8963   0.4944   0.7348   1.9372   2.2669
     3.3813   3.4099   7.3708   7.5036   9.3617

          k = 0.4228 0.4228-0.0000 ( 10900 PWs)   bands (ev):

    -6.0565  -6.0359  -3.9838  -3.9641  -3.9069  -3.6958  -3.3476  -3.3257
    -3.2418  -3.2333  -3.0291  -2.8982   0.4986   0.7384   1.9422   2.2713
     3.3872   3.4156   7.3706   7.5046   9.3642

          k = 0.4213 0.4213 0.0000 ( 10898 PWs)   bands (ev):

    -6.0573  -6.0369  -3.9839  -3.9647  -3.9069  -3.6966  -3.3480  -3.3258
    -3.2418  -3.2334  -3.0308  -2.9001   0.5029   0.7420   1.9473   2.2759
     3.3931   3.4214   7.3704   7.5056   9.3667

          k = 0.4198 0.4198 0.0000 ( 10898 PWs)   bands (ev):

    -6.0582  -6.0378  -3.9840  -3.9652  -3.9070  -3.6973  -3.3483  -3.3259
    -3.2418  -3.2335  -3.0325  -2.9020   0.5073   0.7457   1.9525   2.2805
     3.3989   3.4272   7.3701   7.5065   9.3691

          k = 0.4184 0.4184-0.0000 ( 10898 PWs)   bands (ev):

    -6.0591  -6.0387  -3.9841  -3.9657  -3.9070  -3.6980  -3.3487  -3.3260
    -3.2419  -3.2336  -3.0342  -2.9039   0.5118   0.7494   1.9578   2.2852
     3.4048   3.4329   7.3698   7.5073   9.3714

          k = 0.4169 0.4169 0.0000 ( 10898 PWs)   bands (ev):

    -6.0600  -6.0397  -3.9841  -3.9662  -3.9070  -3.6988  -3.3490  -3.3262
    -3.2419  -3.2337  -3.0360  -2.9059   0.5163   0.7532   1.9633   2.2900
     3.4107   3.4387   7.3693   7.5080   9.3737

          k = 0.4154 0.4154 0.0000 ( 10906 PWs)   bands (ev):

    -6.0608  -6.0407  -3.9842  -3.9667  -3.9071  -3.6996  -3.3493  -3.3263
    -3.2420  -3.2339  -3.0377  -2.9079   0.5210   0.7571   1.9688   2.2949
     3.4166   3.4445   7.3688   7.5087   9.3760

          k = 0.4140 0.4140-0.0000 ( 10906 PWs)   bands (ev):

    -6.0618  -6.0417  -3.9843  -3.9672  -3.9071  -3.7004  -3.3497  -3.3264
    -3.2420  -3.2340  -3.0395  -2.9099   0.5257   0.7610   1.9744   2.2999
     3.4225   3.4503   7.3682   7.5092   9.3783

          k = 0.4125 0.4125 0.0000 ( 10898 PWs)   bands (ev):

    -6.0627  -6.0427  -3.9844  -3.9678  -3.9071  -3.7012  -3.3500  -3.3265
    -3.2421  -3.2341  -3.0413  -2.9119   0.5305   0.7650   1.9801   2.3050
     3.4285   3.4561   7.3675   7.5097   9.3805

          k = 0.4110 0.4110 0.0000 ( 10898 PWs)   bands (ev):

    -6.0636  -6.0437  -3.9844  -3.9683  -3.9072  -3.7020  -3.3503  -3.3266
    -3.2421  -3.2342  -3.0431  -2.9140   0.5353   0.7691   1.9859   2.3102
     3.4344   3.4619   7.3668   7.5101   9.3827

          k = 0.4095 0.4095-0.0000 ( 10898 PWs)   bands (ev):

    -6.0645  -6.0447  -3.9845  -3.9688  -3.9072  -3.7028  -3.3507  -3.3268
    -3.2422  -3.2344  -3.0449  -2.9161   0.5403   0.7732   1.9918   2.3154
     3.4403   3.4678   7.3660   7.5105   9.3849

          k = 0.4081 0.4081 0.0000 ( 10898 PWs)   bands (ev):

    -6.0655  -6.0457  -3.9846  -3.9693  -3.9073  -3.7037  -3.3510  -3.3269
    -3.2422  -3.2345  -3.0467  -2.9182   0.5453   0.7775   1.9978   2.3208
     3.4462   3.4736   7.3650   7.5107   9.3871

          k = 0.4066 0.4066 0.0000 ( 10898 PWs)   bands (ev):

    -6.0664  -6.0468  -3.9847  -3.9698  -3.9073  -3.7045  -3.3513  -3.3270
    -3.2423  -3.2346  -3.0485  -2.9203   0.5504   0.7817   2.0039   2.3262
     3.4522   3.4794   7.3641   7.5109   9.3892

          k = 0.4051 0.4051-0.0000 ( 10898 PWs)   bands (ev):

    -6.0674  -6.0478  -3.9847  -3.9703  -3.9074  -3.7054  -3.3517  -3.3271
    -3.2424  -3.2348  -3.0503  -2.9225   0.5556   0.7861   2.0101   2.3317
     3.4581   3.4853   7.3630   7.5109   9.3914

          k = 0.4036 0.4036 0.0000 ( 10898 PWs)   bands (ev):

    -6.0684  -6.0489  -3.9848  -3.9708  -3.9074  -3.7063  -3.3520  -3.3273
    -3.2425  -3.2349  -3.0522  -2.9246   0.5608   0.7905   2.0164   2.3373
     3.4641   3.4911   7.3618   7.5109   9.3935

          k = 0.4022 0.4022 0.0000 ( 10898 PWs)   bands (ev):

    -6.0694  -6.0500  -3.9849  -3.9713  -3.9075  -3.7072  -3.3523  -3.3274
    -3.2425  -3.2351  -3.0540  -2.9268   0.5662   0.7950   2.0227   2.3429
     3.4700   3.4970   7.3606   7.5108   9.3957

          k = 0.4007 0.4007-0.0000 ( 10906 PWs)   bands (ev):

    -6.0704  -6.0511  -3.9850  -3.9718  -3.9076  -3.7081  -3.3526  -3.3275
    -3.2426  -3.2352  -3.0559  -2.9290   0.5716   0.7996   2.0292   2.3487
     3.4760   3.5028   7.3593   7.5106   9.3978

          k = 0.3992 0.3992 0.0000 ( 10906 PWs)   bands (ev):

    -6.0714  -6.0522  -3.9851  -3.9723  -3.9076  -3.7091  -3.3530  -3.3277
    -3.2427  -3.2353  -3.0578  -2.9312   0.5771   0.8042   2.0357   2.3545
     3.4819   3.5087   7.3579   7.5104   9.4000

          k = 0.3977 0.3977 0.0000 ( 10905 PWs)   bands (ev):

    -6.0724  -6.0533  -3.9852  -3.9728  -3.9077  -3.7100  -3.3533  -3.3278
    -3.2428  -3.2355  -3.0597  -2.9335   0.5827   0.8089   2.0424   2.3604
     3.4879   3.5146   7.3564   7.5100   9.4022

          k = 0.3963 0.3963-0.0000 ( 10905 PWs)   bands (ev):

    -6.0734  -6.0544  -3.9852  -3.9733  -3.9078  -3.7110  -3.3536  -3.3279
    -3.2429  -3.2356  -3.0616  -2.9358   0.5884   0.8137   2.0491   2.3664
     3.4939   3.5204   7.3548   7.5095   9.4044

          k = 0.3948 0.3948 0.0000 ( 10905 PWs)   bands (ev):

    -6.0744  -6.0555  -3.9853  -3.9738  -3.9079  -3.7120  -3.3539  -3.3281
    -3.2430  -3.2358  -3.0635  -2.9380   0.5942   0.8186   2.0559   2.3725
     3.4998   3.5263   7.3532   7.5090   9.4066

          k = 0.3933 0.3933 0.0000 ( 10905 PWs)   bands (ev):

    -6.0755  -6.0567  -3.9854  -3.9743  -3.9080  -3.7129  -3.3542  -3.3282
    -3.2431  -3.2359  -3.0654  -2.9404   0.6000   0.8235   2.0628   2.3786
     3.5058   3.5322   7.3514   7.5083   9.4088

          k = 0.3919 0.3919-0.0000 ( 10909 PWs)   bands (ev):

    -6.0765  -6.0578  -3.9855  -3.9748  -3.9081  -3.7140  -3.3545  -3.3283
    -3.2433  -3.2360  -3.0673  -2.9427   0.6060   0.8286   2.0697   2.3848
     3.5118   3.5381   7.3496   7.5076   9.4110

          k = 0.3904 0.3904 0.0000 ( 10909 PWs)   bands (ev):

    -6.0776  -6.0590  -3.9856  -3.9753  -3.9082  -3.7150  -3.3548  -3.3285
    -3.2434  -3.2362  -3.0692  -2.9450   0.6120   0.8337   2.0768   2.3911
     3.5177   3.5440   7.3477   7.5068   9.4133

          k = 0.3889 0.3889 0.0000 ( 10909 PWs)   bands (ev):

    -6.0787  -6.0602  -3.9857  -3.9758  -3.9083  -3.7160  -3.3552  -3.3286
    -3.2435  -3.2363  -3.0712  -2.9474   0.6181   0.8388   2.0839   2.3975
     3.5237   3.5499   7.3457   7.5058   9.4156

          k = 0.3874 0.3874-0.0000 ( 10909 PWs)   bands (ev):

    -6.0798  -6.0614  -3.9857  -3.9763  -3.9084  -3.7171  -3.3555  -3.3288
    -3.2436  -3.2365  -3.0731  -2.9497   0.6243   0.8441   2.0911   2.4040
     3.5297   3.5558   7.3437   7.5048   9.4179

          k = 0.3860 0.3860 0.0000 ( 10909 PWs)   bands (ev):

    -6.0809  -6.0626  -3.9858  -3.9768  -3.9085  -3.7181  -3.3558  -3.3289
    -3.2438  -3.2366  -3.0750  -2.9521   0.6305   0.8495   2.0984   2.4105
     3.5357   3.5617   7.3415   7.5037   9.4202

          k = 0.3845 0.3845 0.0000 ( 10901 PWs)   bands (ev):

    -6.0820  -6.0638  -3.9859  -3.9773  -3.9086  -3.7192  -3.3561  -3.3290
    -3.2439  -3.2368  -3.0770  -2.9545   0.6369   0.8549   2.1057   2.4171
     3.5416   3.5676   7.3393   7.5025   9.4226

          k = 0.3830 0.3830-0.0000 ( 10901 PWs)   bands (ev):

    -6.0831  -6.0650  -3.9860  -3.9778  -3.9088  -3.7203  -3.3564  -3.3292
    -3.2440  -3.2369  -3.0789  -2.9570   0.6434   0.8604   2.1132   2.4237
     3.5476   3.5735   7.3370   7.5012   9.4250

          k = 0.3815 0.3815 0.0000 ( 10901 PWs)   bands (ev):

    -6.0842  -6.0662  -3.9861  -3.9783  -3.9089  -3.7214  -3.3567  -3.3293
    -3.2442  -3.2371  -3.0809  -2.9594   0.6499   0.8660   2.1207   2.4305
     3.5536   3.5794   7.3346   7.4998   9.4274

          k = 0.3801 0.3801 0.0000 ( 10897 PWs)   bands (ev):

    -6.0853  -6.0675  -3.9862  -3.9788  -3.9090  -3.7225  -3.3570  -3.3295
    -3.2443  -3.2373  -3.0829  -2.9618   0.6565   0.8716   2.1283   2.4373
     3.5595   3.5853   7.3321   7.4983   9.4298

          k = 0.3786 0.3786-0.0000 ( 10897 PWs)   bands (ev):

    -6.0865  -6.0687  -3.9863  -3.9792  -3.9092  -3.7236  -3.3573  -3.3296
    -3.2445  -3.2374  -3.0848  -2.9643   0.6632   0.8774   2.1359   2.4442
     3.5655   3.5912   7.3296   7.4967   9.4323

          k = 0.3771 0.3771 0.0000 ( 10889 PWs)   bands (ev):

    -6.0876  -6.0700  -3.9864  -3.9797  -3.9093  -3.7248  -3.3576  -3.3298
    -3.2446  -3.2376  -3.0868  -2.9668   0.6700   0.8832   2.1436   2.4511
     3.5715   3.5971   7.3269   7.4950   9.4348

          k = 0.3757 0.3757 0.0000 ( 10893 PWs)   bands (ev):

    -6.0888  -6.0713  -3.9864  -3.9802  -3.9095  -3.7259  -3.3579  -3.3299
    -3.2448  -3.2377  -3.0888  -2.9693   0.6769   0.8891   2.1514   2.4582
     3.5775   3.6030   7.3242   7.4932   9.4374

          k = 0.3742 0.3742-0.0000 ( 10893 PWs)   bands (ev):

    -6.0900  -6.0726  -3.9865  -3.9807  -3.9096  -3.7271  -3.3582  -3.3301
    -3.2450  -3.2379  -3.0907  -2.9718   0.6838   0.8951   2.1593   2.4652
     3.5834   3.6089   7.3214   7.4913   9.4400

          k = 0.3727 0.3727 0.0000 ( 10893 PWs)   bands (ev):

    -6.0912  -6.0739  -3.9866  -3.9811  -3.9098  -3.7283  -3.3585  -3.3303
    -3.2451  -3.2381  -3.0927  -2.9743   0.6909   0.9012   2.1673   2.4724
     3.5894   3.6148   7.3185   7.4893   9.4426

          k = 0.3712 0.3712 0.0000 ( 10893 PWs)   bands (ev):

    -6.0924  -6.0752  -3.9867  -3.9816  -3.9100  -3.7295  -3.3588  -3.3304
    -3.2453  -3.2382  -3.0947  -2.9768   0.6980   0.9074   2.1753   2.4796
     3.5954   3.6207   7.3155   7.4872   9.4452

          k = 0.3698 0.3698-0.0000 ( 10893 PWs)   bands (ev):

    -6.0936  -6.0765  -3.9868  -3.9821  -3.9101  -3.7307  -3.3591  -3.3306
    -3.2455  -3.2384  -3.0967  -2.9794   0.7053   0.9136   2.1833   2.4869
     3.6013   3.6266   7.3125   7.4850   9.4479

          k = 0.3683 0.3683 0.0000 ( 10893 PWs)   bands (ev):

    -6.0948  -6.0778  -3.9869  -3.9825  -3.9103  -3.7319  -3.3594  -3.3307
    -3.2456  -3.2386  -3.0986  -2.9819   0.7126   0.9200   2.1915   2.4943
     3.6073   3.6325   7.3094   7.4828   9.4506

          k = 0.3668 0.3668 0.0000 ( 10893 PWs)   bands (ev):

    -6.0960  -6.0792  -3.9870  -3.9830  -3.9105  -3.7332  -3.3596  -3.3309
    -3.2458  -3.2387  -3.1006  -2.9845   0.7200   0.9264   2.1997   2.5017
     3.6132   3.6384   7.3061   7.4804   9.4534

          k = 0.3653 0.3653-0.0000 ( 10893 PWs)   bands (ev):

    -6.0972  -6.0805  -3.9871  -3.9835  -3.9107  -3.7344  -3.3599  -3.3311
    -3.2460  -3.2389  -3.1026  -2.9870   0.7274   0.9329   2.2080   2.5092
     3.6192   3.6443   7.3029   7.4779   9.4561

          k = 0.3639 0.3639 0.0000 ( 10885 PWs)   bands (ev):

    -6.0985  -6.0819  -3.9872  -3.9839  -3.9109  -3.7357  -3.3602  -3.3312
    -3.2462  -3.2391  -3.1046  -2.9896   0.7350   0.9395   2.2163   2.5167
     3.6251   3.6502   7.2995   7.4753   9.4590

          k = 0.3624 0.3624 0.0000 ( 10885 PWs)   bands (ev):

    -6.0997  -6.0833  -3.9873  -3.9844  -3.9111  -3.7370  -3.3605  -3.3314
    -3.2464  -3.2392  -3.1066  -2.9922   0.7427   0.9462   2.2247   2.5243
     3.6311   3.6561   7.2960   7.4726   9.4618

          k = 0.3609 0.3609-0.0000 ( 10885 PWs)   bands (ev):

    -6.1010  -6.0846  -3.9874  -3.9848  -3.9113  -3.7383  -3.3608  -3.3316
    -3.2466  -3.2394  -3.1085  -2.9948   0.7504   0.9529   2.2332   2.5320
     3.6370   3.6620   7.2925   7.4699   9.4646

          k = 0.3594 0.3594 0.0000 ( 10885 PWs)   bands (ev):

    -6.1023  -6.0860  -3.9875  -3.9853  -3.9115  -3.7396  -3.3611  -3.3318
    -3.2468  -3.2396  -3.1105  -2.9974   0.7583   0.9598   2.2417   2.5398
     3.6429   3.6679   7.2889   7.4670   9.4675

          k = 0.3580 0.3580 0.0000 ( 10885 PWs)   bands (ev):

    -6.1036  -6.0874  -3.9876  -3.9857  -3.9118  -3.7409  -3.3614  -3.3319
    -3.2470  -3.2398  -3.1125  -3.0000   0.7662   0.9667   2.2503   2.5475
     3.6488   3.6738   7.2852   7.4640   9.4704

          k = 0.3565 0.3565-0.0000 ( 10887 PWs)   bands (ev):

    -6.1049  -6.0889  -3.9877  -3.9862  -3.9120  -3.7422  -3.3617  -3.3321
    -3.2472  -3.2399  -3.1145  -3.0026   0.7742   0.9737   2.2589   2.5554
     3.6548   3.6796   7.2815   7.4610   9.4733

          k = 0.3550 0.3550 0.0000 ( 10897 PWs)   bands (ev):

    -6.1062  -6.0903  -3.9878  -3.9866  -3.9122  -3.7436  -3.3620  -3.3323
    -3.2474  -3.2401  -3.1164  -3.0052   0.7823   0.9808   2.2676   2.5633
     3.6607   3.6855   7.2777   7.4578   9.4763

          k = 0.3536 0.3536 0.0000 ( 10897 PWs)   bands (ev):

    -6.1075  -6.0917  -3.9879  -3.9871  -3.9125  -3.7449  -3.3623  -3.3325
    -3.2476  -3.2403  -3.1184  -3.0078   0.7904   0.9880   2.2764   2.5713
     3.6666   3.6914   7.2738   7.4546   9.4792

          k = 0.3521 0.3521-0.0000 ( 10897 PWs)   bands (ev):

    -6.1088  -6.0932  -3.9880  -3.9875  -3.9127  -3.7463  -3.3626  -3.3327
    -3.2478  -3.2405  -3.1204  -3.0105   0.7987   0.9953   2.2852   2.5793
     3.6725   3.6972   7.2698   7.4512   9.4822

          k = 0.3506 0.3506 0.0000 ( 10897 PWs)   bands (ev):

    -6.1101  -6.0946  -3.9881  -3.9880  -3.9130  -3.7477  -3.3628  -3.3329
    -3.2481  -3.2407  -3.1223  -3.0131   0.8071   1.0027   2.2941   2.5874
     3.6784   3.7031   7.2657   7.4478   9.4852

          k = 0.3491 0.3491 0.0000 ( 10897 PWs)   bands (ev):

    -6.1115  -6.0961  -3.9884  -3.9882  -3.9132  -3.7491  -3.3631  -3.3330
    -3.2483  -3.2408  -3.1243  -3.0157   0.8155   1.0101   2.3030   2.5955
     3.6843   3.7090   7.2616   7.4442   9.4881

          k = 0.3477 0.3477-0.0000 ( 10897 PWs)   bands (ev):

    -6.1128  -6.0976  -3.9888  -3.9883  -3.9135  -3.7505  -3.3634  -3.3332
    -3.2485  -3.2410  -3.1262  -3.0184   0.8240   1.0177   2.3120   2.6037
     3.6901   3.7148   7.2574   7.4406   9.4911

          k = 0.3462 0.3462 0.0000 ( 10893 PWs)   bands (ev):

    -6.1142  -6.0991  -3.9893  -3.9884  -3.9137  -3.7519  -3.3637  -3.3334
    -3.2487  -3.2412  -3.1282  -3.0210   0.8326   1.0253   2.3210   2.6120
     3.6960   3.7206   7.2531   7.4369   9.4940

          k = 0.3447 0.3447 0.0000 ( 10893 PWs)   bands (ev):

    -6.1156  -6.1006  -3.9897  -3.9885  -3.9140  -3.7533  -3.3640  -3.3336
    -3.2490  -3.2414  -3.1301  -3.0237   0.8413   1.0330   2.3301   2.6203
     3.7019   3.7265   7.2488   7.4331   9.4970

          k = 0.3432 0.3432-0.0000 ( 10893 PWs)   bands (ev):

    -6.1170  -6.1021  -3.9901  -3.9886  -3.9143  -3.7548  -3.3643  -3.3338
    -3.2492  -3.2416  -3.1321  -3.0263   0.8501   1.0408   2.3393   2.6287
     3.7077   3.7323   7.2444   7.4291   9.4999

          k = 0.3418 0.3418 0.0000 ( 10897 PWs)   bands (ev):

    -6.1184  -6.1036  -3.9905  -3.9887  -3.9146  -3.7562  -3.3646  -3.3341
    -3.2494  -3.2418  -3.1340  -3.0289   0.8590   1.0487   2.3485   2.6371
     3.7136   3.7381   7.2399   7.4251   9.5028

          k = 0.3403 0.3403 0.0000 ( 10897 PWs)   bands (ev):

    -6.1198  -6.1051  -3.9910  -3.9888  -3.9149  -3.7577  -3.3649  -3.3343
    -3.2497  -3.2420  -3.1359  -3.0316   0.8679   1.0567   2.3577   2.6455
     3.7194   3.7439   7.2354   7.4210   9.5056

          k = 0.3388 0.3388-0.0000 ( 10893 PWs)   bands (ev):

    -6.1212  -6.1067  -3.9914  -3.9889  -3.9152  -3.7591  -3.3652  -3.3345
    -3.2499  -3.2422  -3.1378  -3.0342   0.8770   1.0648   2.3670   2.6540
     3.7253   3.7498   7.2307   7.4168   9.5084

          k = 0.3373 0.3373 0.0000 ( 10893 PWs)   bands (ev):

    -6.1226  -6.1082  -3.9918  -3.9890  -3.9155  -3.7606  -3.3655  -3.3347
    -3.2502  -3.2423  -3.1397  -3.0369   0.8861   1.0729   2.3764   2.6626
     3.7311   3.7556   7.2260   7.4126   9.5111

          k = 0.3359 0.3359 0.0000 ( 10905 PWs)   bands (ev):

    -6.1240  -6.1098  -3.9922  -3.9892  -3.9158  -3.7621  -3.3658  -3.3349
    -3.2504  -3.2425  -3.1416  -3.0395   0.8953   1.0812   2.3857   2.6712
     3.7369   3.7614   7.2213   7.4082   9.5137

          k = 0.3344 0.3344-0.0000 ( 10905 PWs)   bands (ev):

    -6.1255  -6.1113  -3.9926  -3.9893  -3.9161  -3.7636  -3.3661  -3.3351
    -3.2506  -3.2427  -3.1435  -3.0422   0.9046   1.0895   2.3952   2.6799
     3.7427   3.7671   7.2165   7.4037   9.5163

          k = 0.3329 0.3329 0.0000 ( 10905 PWs)   bands (ev):

    -6.1269  -6.1129  -3.9931  -3.9894  -3.9165  -3.7651  -3.3664  -3.3354
    -3.2509  -3.2429  -3.1454  -3.0448   0.9140   1.0979   2.4047   2.6886
     3.7485   3.7729   7.2116   7.3992   9.5187

          k = 0.3315 0.3315 0.0000 ( 10905 PWs)   bands (ev):

    -6.1284  -6.1145  -3.9935  -3.9895  -3.9168  -3.7667  -3.3666  -3.3356
    -3.2512  -3.2431  -3.1473  -3.0475   0.9235   1.1064   2.4142   2.6973
     3.7543   3.7787   7.2066   7.3946   9.5211

          k = 0.3300 0.3300-0.0000 ( 10905 PWs)   bands (ev):

    -6.1298  -6.1161  -3.9939  -3.9896  -3.9171  -3.7682  -3.3669  -3.3358
    -3.2514  -3.2433  -3.1491  -3.0501   0.9330   1.1150   2.4238   2.7062
     3.7601   3.7844   7.2016   7.3898   9.5235

          k = 0.3285 0.3285 0.0000 ( 10913 PWs)   bands (ev):

    -6.1313  -6.1177  -3.9943  -3.9897  -3.9175  -3.7698  -3.3672  -3.3361
    -3.2517  -3.2435  -3.1510  -3.0527   0.9427   1.1237   2.4334   2.7150
     3.7658   3.7902   7.1966   7.3850   9.5261

          k = 0.3270 0.3270 0.0000 ( 10893 PWs)   bands (ev):

    -6.1328  -6.1193  -3.9947  -3.9898  -3.9178  -3.7713  -3.3675  -3.3363
    -3.2519  -3.2437  -3.1528  -3.0554   0.9524   1.1324   2.4431   2.7239
     3.7716   3.7959   7.1914   7.3801   9.5477

          k = 0.3256 0.3256-0.0000 ( 10893 PWs)   bands (ev):

    -6.1343  -6.1209  -3.9951  -3.9899  -3.9182  -3.7729  -3.3678  -3.3365
    -3.2522  -3.2439  -3.1547  -3.0580   0.9622   1.1413   2.4528   2.7328
     3.7773   3.8017   7.1862   7.3752   9.5290

          k = 0.3241 0.3241 0.0000 ( 10905 PWs)   bands (ev):

    -6.1358  -6.1226  -3.9955  -3.9901  -3.9185  -3.7745  -3.3681  -3.3368
    -3.2525  -3.2441  -3.1565  -3.0606   0.9721   1.1502   2.4625   2.7418
     3.7830   3.8074   7.1810   7.3701   9.5427

          k = 0.3226 0.3226 0.0000 ( 10895 PWs)   bands (ev):

    -6.1373  -6.1242  -3.9959  -3.9902  -3.9189  -3.7760  -3.3684  -3.3371
    -3.2527  -3.2443  -3.1583  -3.0632   0.9820   1.1592   2.4723   2.7508
     3.7888   3.8131   7.1756   7.3649   9.5381

          k = 0.3211 0.3211-0.0000 ( 10895 PWs)   bands (ev):

    -6.1388  -6.1259  -3.9963  -3.9903  -3.9193  -3.7776  -3.3688  -3.3373
    -3.2530  -3.2445  -3.1601  -3.0658   0.9921   1.1683   2.4821   2.7599
     3.7945   3.8188   7.1703   7.3597   9.5263

          k = 0.3197 0.3197 0.0000 ( 10895 PWs)   bands (ev):

    -6.1403  -6.1275  -3.9967  -3.9904  -3.9197  -3.7792  -3.3691  -3.3376
    -3.2533  -3.2448  -3.1619  -3.0685   1.0022   1.1775   2.4920   2.7690
     3.8002   3.8245   7.1648   7.3544   9.5145

          k = 0.3182 0.3182 0.0000 ( 10899 PWs)   bands (ev):

    -6.1419  -6.1292  -3.9970  -3.9905  -3.9201  -3.7808  -3.3694  -3.3378
    -3.2535  -3.2450  -3.1637  -3.0710   1.0124   1.1868   2.5019   2.7781
     3.8058   3.8302   7.1593   7.3490   9.5028

          k = 0.3167 0.3167-0.0000 ( 10899 PWs)   bands (ev):

    -6.1434  -6.1309  -3.9974  -3.9906  -3.9204  -3.7825  -3.3697  -3.3381
    -3.2538  -3.2452  -3.1655  -3.0736   1.0227   1.1961   2.5119   2.7873
     3.8115   3.8358   7.1538   7.3435   9.4912

          k = 0.3153 0.3153 0.0000 ( 10899 PWs)   bands (ev):

    -6.1450  -6.1325  -3.9978  -3.9908  -3.9208  -3.7841  -3.3700  -3.3384
    -3.2541  -3.2454  -3.1672  -3.0762   1.0331   1.2055   2.5218   2.7965
     3.8172   3.8415   7.1482   7.3380   9.4796

          k = 0.3138 0.3138 0.0000 ( 10899 PWs)   bands (ev):

    -6.1465  -6.1342  -3.9982  -3.9909  -3.9213  -3.7857  -3.3703  -3.3387
    -3.2544  -3.2456  -3.1690  -3.0788   1.0436   1.2151   2.5319   2.8058
     3.8228   3.8472   7.1425   7.3324   9.4681

          k = 0.3123 0.3123-0.0000 ( 10899 PWs)   bands (ev):

    -6.1481  -6.1359  -3.9986  -3.9910  -3.9217  -3.7874  -3.3706  -3.3389
    -3.2546  -3.2458  -3.1707  -3.0814   1.0541   1.2247   2.5419   2.8151
     3.8285   3.8528   7.1368   7.3267   9.4567

          k = 0.3108 0.3108 0.0000 ( 10899 PWs)   bands (ev):

    -6.1497  -6.1376  -3.9989  -3.9911  -3.9221  -3.7890  -3.3709  -3.3392
    -3.2549  -3.2460  -3.1724  -3.0839   1.0648   1.2344   2.5520   2.8244
     3.8341   3.8584   7.1310   7.3209   9.4453

          k = 0.3094 0.3094 0.0000 ( 10899 PWs)   bands (ev):

    -6.1513  -6.1394  -3.9993  -3.9912  -3.9225  -3.7907  -3.3712  -3.3395
    -3.2552  -3.2462  -3.1742  -3.0865   1.0755   1.2442   2.5621   2.8338
     3.8397   3.8640   7.1252   7.3150   9.4341

          k = 0.3079 0.3079-0.0000 ( 10899 PWs)   bands (ev):

    -6.1529  -6.1411  -3.9997  -3.9914  -3.9229  -3.7924  -3.3716  -3.3398
    -3.2555  -3.2465  -3.1758  -3.0890   1.0863   1.2540   2.5723   2.8432
     3.8453   3.8696   7.1193   7.3091   9.4229

          k = 0.3064 0.3064 0.0000 ( 10899 PWs)   bands (ev):

    -6.1545  -6.1428  -4.0001  -3.9915  -3.9234  -3.7940  -3.3719  -3.3401
    -3.2558  -3.2467  -3.1775  -3.0915   1.0971   1.2640   2.5825   2.8526
     3.8509   3.8752   7.1133   7.3031   9.4118

          k = 0.3049 0.3049 0.0000 ( 10899 PWs)   bands (ev):

    -6.1561  -6.1446  -4.0004  -3.9916  -3.9238  -3.7957  -3.3722  -3.3405
    -3.2560  -3.2469  -3.1792  -3.0940   1.1081   1.2740   2.5927   2.8621
     3.8564   3.8808   7.1074   7.2970   9.4007

          k = 0.3035 0.3035-0.0000 ( 10899 PWs)   bands (ev):

    -6.1577  -6.1463  -4.0008  -3.9917  -3.9242  -3.7974  -3.3725  -3.3408
    -3.2563  -3.2471  -3.1809  -3.0965   1.1191   1.2841   2.6029   2.8716
     3.8620   3.8863   7.1013   7.2908   9.3898

          k = 0.3020 0.3020 0.0000 ( 10899 PWs)   bands (ev):

    -6.1593  -6.1481  -4.0011  -3.9919  -3.9247  -3.7991  -3.3729  -3.3411
    -3.2566  -3.2473  -3.1825  -3.0990   1.1302   1.2943   2.6132   2.8811
     3.8675   3.8919   7.0952   7.2846   9.3789

          k = 0.3005 0.3005 0.0000 ( 10899 PWs)   bands (ev):

    -6.1609  -6.1498  -4.0015  -3.9920  -3.9252  -3.8008  -3.3732  -3.3414
    -3.2569  -3.2476  -3.1841  -3.1015   1.1414   1.3046   2.6235   2.8907
     3.8730   3.8974   7.0891   7.2783   9.3681

          k = 0.2990 0.2990-0.0000 ( 10891 PWs)   bands (ev):

    -6.1626  -6.1516  -4.0019  -3.9921  -3.9256  -3.8025  -3.3735  -3.3418
    -3.2572  -3.2478  -3.1858  -3.1040   1.1527   1.3149   2.6339   2.9003
     3.8786   3.9030   7.0829   7.2719   9.3575

          k = 0.2976 0.2976 0.0000 ( 10893 PWs)   bands (ev):

    -6.1642  -6.1534  -4.0022  -3.9922  -3.9261  -3.8042  -3.3739  -3.3421
    -3.2575  -3.2480  -3.1874  -3.1064   1.1640   1.3254   2.6442   2.9099
     3.8841   3.9085   7.0767   7.2654   9.3468

          k = 0.2961 0.2961 0.0000 ( 10885 PWs)   bands (ev):

    -6.1659  -6.1551  -4.0026  -3.9924  -3.9266  -3.8059  -3.3742  -3.3424
    -3.2578  -3.2482  -3.1889  -3.1089   1.1754   1.3359   2.6546   2.9195
     3.8895   3.9140   7.0704   7.2589   9.3363

          k = 0.2946 0.2946-0.0000 ( 10885 PWs)   bands (ev):

    -6.1675  -6.1569  -4.0029  -3.9925  -3.9270  -3.8076  -3.3745  -3.3428
    -3.2581  -3.2484  -3.1905  -3.1113   1.1869   1.3465   2.6650   2.9292
     3.8950   3.9194   7.0640   7.2523   9.3259

          k = 0.2932 0.2932 0.0000 ( 10885 PWs)   bands (ev):

    -6.1692  -6.1587  -4.0033  -3.9926  -3.9275  -3.8094  -3.3749  -3.3431
    -3.2584  -3.2487  -3.1921  -3.1137   1.1985   1.3572   2.6755   2.9389
     3.9005   3.9249   7.0577   7.2457   9.3155

          k = 0.2917 0.2917 0.0000 ( 10893 PWs)   bands (ev):

    -6.1709  -6.1605  -4.0036  -3.9928  -3.9280  -3.8111  -3.3752  -3.3435
    -3.2587  -3.2489  -3.1936  -3.1161   1.2102   1.3679   2.6859   2.9486
     3.9059   3.9304   7.0512   7.2390   9.3052

          k = 0.2902 0.2902-0.0000 ( 10893 PWs)   bands (ev):

    -6.1726  -6.1623  -4.0039  -3.9929  -3.9285  -3.8128  -3.3756  -3.3439
    -3.2590  -3.2491  -3.1951  -3.1185   1.2219   1.3788   2.6964   2.9584
     3.9113   3.9358   7.0448   7.2322   9.2950

          k = 0.2887 0.2887 0.0000 ( 10893 PWs)   bands (ev):

    -6.1743  -6.1641  -4.0043  -3.9930  -3.9290  -3.8146  -3.3759  -3.3443
    -3.2593  -3.2494  -3.1967  -3.1209   1.2337   1.3897   2.7070   2.9681
     3.9167   3.9412   7.0382   7.2253   9.2849

          k = 0.2873 0.2873 0.0000 ( 10893 PWs)   bands (ev):

    -6.1760  -6.1660  -4.0046  -3.9932  -3.9295  -3.8163  -3.3763  -3.3446
    -3.2595  -3.2496  -3.1981  -3.1232   1.2456   1.4007   2.7175   2.9779
     3.9221   3.9466   7.0317   7.2184   9.2749

          k = 0.2858 0.2858-0.0000 ( 10891 PWs)   bands (ev):

    -6.1777  -6.1678  -4.0050  -3.9933  -3.9300  -3.8181  -3.3766  -3.3450
    -3.2598  -3.2498  -3.1996  -3.1255   1.2576   1.4118   2.7280   2.9877
     3.9275   3.9520   7.0251   7.2114   9.2650

          k = 0.2843 0.2843 0.0000 ( 10891 PWs)   bands (ev):

    -6.1794  -6.1696  -4.0053  -3.9934  -3.9305  -3.8198  -3.3770  -3.3454
    -3.2601  -3.2501  -3.2011  -3.1278   1.2696   1.4229   2.7386   2.9976
     3.9329   3.9574   7.0184   7.2044   9.2552

          k = 0.2828 0.2828 0.0000 ( 10891 PWs)   bands (ev):

    -6.1811  -6.1715  -4.0056  -3.9936  -3.9310  -3.8216  -3.3774  -3.3458
    -3.2604  -3.2503  -3.2025  -3.1301   1.2817   1.4342   2.7492   3.0074
     3.9382   3.9628   7.0117   7.1972   9.2454

          k = 0.2814 0.2814-0.0000 ( 10891 PWs)   bands (ev):

    -6.1828  -6.1733  -4.0059  -3.9937  -3.9316  -3.8233  -3.3777  -3.3462
    -3.2607  -3.2505  -3.2040  -3.1324   1.2939   1.4455   2.7598   3.0173
     3.9435   3.9681   7.0050   7.1901   9.2357

          k = 0.2799 0.2799 0.0000 ( 10891 PWs)   bands (ev):

    -6.1845  -6.1752  -4.0063  -3.9938  -3.9321  -3.8251  -3.3781  -3.3467
    -3.2610  -3.2508  -3.2054  -3.1347   1.3062   1.4569   2.7705   3.0272
     3.9488   3.9735   6.9982   7.1828   9.2262

          k = 0.2784 0.2784 0.0000 ( 10889 PWs)   bands (ev):

    -6.1862  -6.1770  -4.0066  -3.9940  -3.9326  -3.8268  -3.3785  -3.3471
    -3.2613  -3.2510  -3.2068  -3.1369   1.3185   1.4683   2.7811   3.0371
     3.9541   3.9788   6.9914   7.1755   9.2167

          k = 0.2770 0.2770-0.0000 ( 10885 PWs)   bands (ev):

    -6.1880  -6.1789  -4.0069  -3.9941  -3.9332  -3.8286  -3.3789  -3.3475
    -3.2616  -3.2512  -3.2082  -3.1392   1.3309   1.4799   2.7918   3.0470
     3.9594   3.9841   6.9845   7.1682   9.2073

          k = 0.2755 0.2755 0.0000 ( 10889 PWs)   bands (ev):

    -6.1897  -6.1807  -4.0072  -3.9943  -3.9337  -3.8304  -3.3792  -3.3480
    -3.2619  -3.2515  -3.2096  -3.1414   1.3434   1.4915   2.8025   3.0570
     3.9647   3.9894   6.9776   7.1607   9.1980

          k = 0.2740 0.2740 0.0000 ( 10889 PWs)   bands (ev):

    -6.1915  -6.1826  -4.0075  -3.9944  -3.9343  -3.8321  -3.3796  -3.3484
    -3.2622  -3.2517  -3.2109  -3.1435   1.3559   1.5032   2.8132   3.0669
     3.9700   3.9946   6.9706   7.1532   9.1888

          k = 0.2725 0.2725-0.0000 ( 10889 PWs)   bands (ev):

    -6.1932  -6.1845  -4.0079  -3.9945  -3.9348  -3.8339  -3.3800  -3.3489
    -3.2625  -3.2519  -3.2122  -3.1457   1.3686   1.5150   2.8239   3.0769
     3.9752   3.9999   6.9637   7.1457   9.1797

          k = 0.2711 0.2711 0.0000 ( 10889 PWs)   bands (ev):

    -6.1950  -6.1864  -4.0082  -3.9947  -3.9354  -3.8357  -3.3804  -3.3493
    -3.2628  -3.2522  -3.2136  -3.1479   1.3813   1.5268   2.8346   3.0869
     3.9804   4.0051   6.9566   7.1381   9.1707

          k = 0.2696 0.2696 0.0000 ( 10889 PWs)   bands (ev):

    -6.1967  -6.1882  -4.0085  -3.9948  -3.9359  -3.8374  -3.3808  -3.3498
    -3.2631  -3.2524  -3.2149  -3.1500   1.3940   1.5388   2.8453   3.0968
     3.9856   4.0104   6.9495   7.1304   9.1617

          k = 0.2681 0.2681-0.0000 ( 10889 PWs)   bands (ev):

    -6.1985  -6.1901  -4.0088  -3.9950  -3.9365  -3.8392  -3.3812  -3.3503
    -3.2634  -3.2527  -3.2162  -3.1521   1.4069   1.5508   2.8561   3.1068
     3.9908   4.0156   6.9424   7.1227   9.1529

          k = 0.2666 0.2666 0.0000 ( 10887 PWs)   bands (ev):

    -6.2003  -6.1920  -4.0091  -3.9951  -3.9371  -3.8410  -3.3816  -3.3508
    -3.2637  -3.2529  -3.2174  -3.1542   1.4198   1.5628   2.8669   3.1168
     3.9960   4.0208   6.9353   7.1149   9.1441

          k = 0.2652 0.2652 0.0000 ( 10887 PWs)   bands (ev):

    -6.2021  -6.1939  -4.0094  -3.9952  -3.9376  -3.8427  -3.3820  -3.3513
    -3.2640  -3.2531  -3.2187  -3.1562   1.4328   1.5750   2.8776   3.1269
     4.0011   4.0259   6.9281   7.1071   9.1355

          k = 0.2637 0.2637-0.0000 ( 10887 PWs)   bands (ev):

    -6.2038  -6.1958  -4.0097  -3.9954  -3.9382  -3.8445  -3.3824  -3.3518
    -3.2643  -3.2534  -3.2199  -3.1583   1.4458   1.5872   2.8884   3.1369
     4.0063   4.0311   6.9209   7.0992   9.1269

          k = 0.2622 0.2622 0.0000 ( 10887 PWs)   bands (ev):

    -6.2056  -6.1977  -4.0100  -3.9955  -3.9388  -3.8463  -3.3828  -3.3523
    -3.2646  -3.2536  -3.2211  -3.1603   1.4590   1.5995   2.8992   3.1469
     4.0114   4.0363   6.9136   7.0912   9.1185

          k = 0.2607 0.2607 0.0000 ( 10887 PWs)   bands (ev):

    -6.2074  -6.1996  -4.0103  -3.9957  -3.9394  -3.8480  -3.3832  -3.3528
    -3.2649  -3.2539  -3.2224  -3.1623   1.4722   1.6118   2.9100   3.1570
     4.0165   4.0414   6.9063   7.0832   9.1101

          k = 0.2593 0.2593-0.0000 ( 10887 PWs)   bands (ev):

    -6.2092  -6.2015  -4.0105  -3.9958  -3.9400  -3.8498  -3.3837  -3.3534
    -3.2652  -3.2541  -3.2235  -3.1643   1.4854   1.6243   2.9208   3.1670
     4.0216   4.0465   6.8989   7.0752   9.1018

          k = 0.2578 0.2578 0.0000 ( 10879 PWs)   bands (ev):

    -6.2110  -6.2034  -4.0108  -3.9960  -3.9406  -3.8516  -3.3841  -3.3539
    -3.2655  -3.2543  -3.2247  -3.1662   1.4987   1.6368   2.9316   3.1770
     4.0267   4.0516   6.8915   7.0670   9.0937

          k = 0.2563 0.2563 0.0000 ( 10885 PWs)   bands (ev):

    -6.2128  -6.2053  -4.0111  -3.9961  -3.9412  -3.8533  -3.3845  -3.3545
    -3.2658  -3.2546  -3.2259  -3.1682   1.5121   1.6494   2.9424   3.1871
     4.0317   4.0567   6.8841   7.0589   9.0856

          k = 0.2549 0.2549-0.0000 ( 10897 PWs)   bands (ev):

    -6.2146  -6.2073  -4.0114  -3.9963  -3.9418  -3.8551  -3.3849  -3.3550
    -3.2661  -3.2548  -3.2270  -3.1701   1.5256   1.6620   2.9532   3.1971
     4.0368   4.0617   6.8766   7.0506   9.0776

          k = 0.2534 0.2534 0.0000 ( 10897 PWs)   bands (ev):

    -6.2164  -6.2092  -4.0117  -3.9964  -3.9424  -3.8569  -3.3854  -3.3556
    -3.2664  -3.2551  -3.2281  -3.1720   1.5391   1.6747   2.9640   3.2072
     4.0418   4.0668   6.8691   7.0424   9.0697

          k = 0.2519 0.2519 0.0000 ( 10897 PWs)   bands (ev):

    -6.2182  -6.2111  -4.0120  -3.9966  -3.9430  -3.8586  -3.3858  -3.3562
    -3.2667  -3.2553  -3.2292  -3.1738   1.5527   1.6875   2.9748   3.2172
     4.0468   4.0718   6.8616   7.0340   9.0619

          k = 0.2504 0.2504-0.0000 ( 10897 PWs)   bands (ev):

    -6.2200  -6.2130  -4.0122  -3.9967  -3.9436  -3.8604  -3.3862  -3.3568
    -3.2670  -3.2556  -3.2303  -3.1757   1.5664   1.7004   2.9857   3.2273
     4.0518   4.0768   6.8540   7.0256   9.0543

          k = 0.2490 0.2490 0.0000 ( 10897 PWs)   bands (ev):

    -6.2219  -6.2149  -4.0125  -3.9969  -3.9442  -3.8621  -3.3867  -3.3574
    -3.2673  -3.2558  -3.2314  -3.1775   1.5801   1.7133   2.9965   3.2373
     4.0568   4.0818   6.8464   7.0172   9.0467

          k = 0.2475 0.2475 0.0000 ( 10897 PWs)   bands (ev):

    -6.2237  -6.2169  -4.0128  -3.9970  -3.9448  -3.8639  -3.3871  -3.3580
    -3.2676  -3.2561  -3.2325  -3.1793   1.5939   1.7263   3.0073   3.2474
     4.0618   4.0868   6.8387   7.0087   9.0392

          k = 0.2460 0.2460-0.0000 ( 10909 PWs)   bands (ev):

    -6.2255  -6.2188  -4.0130  -3.9972  -3.9454  -3.8657  -3.3876  -3.3586
    -3.2678  -3.2563  -3.2335  -3.1810   1.6078   1.7394   3.0181   3.2574
     4.0667   4.0917   6.8310   7.0001   9.0318

          k = 0.2445 0.2445 0.0000 ( 10917 PWs)   bands (ev):

    -6.2273  -6.2207  -4.0133  -3.9973  -3.9461  -3.8674  -3.3880  -3.3592
    -3.2681  -3.2565  -3.2345  -3.1828   1.6217   1.7525   3.0289   3.2674
     4.0717   4.0967   6.8233   6.9915   9.0245

          k = 0.2431 0.2431 0.0000 ( 10917 PWs)   bands (ev):

    -6.2291  -6.2227  -4.0136  -3.9975  -3.9467  -3.8691  -3.3885  -3.3598
    -3.2684  -3.2568  -3.2355  -3.1845   1.6357   1.7657   3.0398   3.2774
     4.0766   4.1016   6.8155   6.9829   9.0173

          k = 0.2416 0.2416-0.0000 ( 10917 PWs)   bands (ev):

    -6.2310  -6.2246  -4.0138  -3.9976  -3.9473  -3.8709  -3.3890  -3.3605
    -3.2687  -3.2570  -3.2365  -3.1862   1.6498   1.7790   3.0506   3.2875
     4.0815   4.1065   6.8077   6.9741   9.0102

          k = 0.2401 0.2401 0.0000 ( 10925 PWs)   bands (ev):

    -6.2328  -6.2265  -4.0141  -3.9978  -3.9480  -3.8726  -3.3894  -3.3611
    -3.2690  -3.2573  -3.2375  -3.1879   1.6639   1.7923   3.0614   3.2975
     4.0864   4.1114   6.7999   6.9654   9.0032

          k = 0.2386 0.2386 0.0000 ( 10925 PWs)   bands (ev):

    -6.2346  -6.2285  -4.0143  -3.9979  -3.9486  -3.8744  -3.3899  -3.3618
    -3.2693  -3.2575  -3.2385  -3.1895   1.6780   1.8057   3.0722   3.3075
     4.0912   4.1163   6.7920   6.9566   8.9963

          k = 0.2372 0.2372-0.0000 ( 10937 PWs)   bands (ev):

    -6.2365  -6.2304  -4.0146  -3.9981  -3.9492  -3.8761  -3.3904  -3.3624
    -3.2696  -3.2578  -3.2394  -3.1911   1.6923   1.8192   3.0830   3.3174
     4.0961   4.1212   6.7841   6.9477   8.9895

          k = 0.2357 0.2357 0.0000 ( 10943 PWs)   bands (ev):

    -6.2383  -6.2324  -4.0148  -3.9983  -3.9499  -3.8778  -3.3908  -3.3631
    -3.2698  -3.2580  -3.2404  -3.1927   1.7066   1.8327   3.0937   3.3274
     4.1010   4.1260   6.7761   6.9388   8.9829

          k = 0.2342 0.2342 0.0000 ( 10935 PWs)   bands (ev):

    -6.2401  -6.2343  -4.0151  -3.9984  -3.9505  -3.8795  -3.3913  -3.3638
    -3.2701  -3.2583  -3.2413  -3.1943   1.7209   1.8463   3.1045   3.3374
     4.1058   4.1308   6.7681   6.9298   8.9763

          k = 0.2328 0.2328-0.0000 ( 10931 PWs)   bands (ev):

    -6.2420  -6.2362  -4.0153  -3.9986  -3.9512  -3.8812  -3.3918  -3.3645
    -3.2704  -3.2585  -3.2422  -3.1959   1.7354   1.8599   3.1153   3.3473
     4.1106   4.1357   6.7601   6.9208   8.9698

          k = 0.2313 0.2313 0.0000 ( 10931 PWs)   bands (ev):

    -6.2438  -6.2382  -4.0156  -3.9987  -3.9518  -3.8829  -3.3923  -3.3652
    -3.2707  -3.2588  -3.2431  -3.1974   1.7498   1.8736   3.1261   3.3572
     4.1154   4.1405   6.7520   6.9117   8.9634

          k = 0.2298 0.2298 0.0000 ( 10931 PWs)   bands (ev):

    -6.2457  -6.2401  -4.0158  -3.9989  -3.9525  -3.8847  -3.3928  -3.3659
    -3.2709  -3.2590  -3.2439  -3.1989   1.7644   1.8874   3.1368   3.3671
     4.1202   4.1452   6.7439   6.9026   8.9571

          k = 0.2283 0.2283-0.0000 ( 10923 PWs)   bands (ev):

    -6.2475  -6.2420  -4.0161  -3.9991  -3.9531  -3.8863  -3.3933  -3.3666
    -3.2712  -3.2592  -3.2448  -3.2004   1.7790   1.9012   3.1475   3.3770
     4.1250   4.1500   6.7357   6.8934   8.9510

          k = 0.2269 0.2269 0.0000 ( 10919 PWs)   bands (ev):

    -6.2493  -6.2440  -4.0163  -3.9992  -3.9538  -3.8880  -3.3938  -3.3673
    -3.2715  -3.2595  -3.2456  -3.2018   1.7936   1.9151   3.1583   3.3869
     4.1297   4.1547   6.7275   6.8842   8.9449

          k = 0.2254 0.2254 0.0000 ( 10919 PWs)   bands (ev):

    -6.2512  -6.2459  -4.0165  -3.9994  -3.9544  -3.8897  -3.3943  -3.3681
    -3.2718  -3.2597  -3.2464  -3.2033   1.8084   1.9291   3.1690   3.3968
     4.1345   4.1595   6.7193   6.8749   8.9389

          k = 0.2239 0.2239-0.0000 ( 10919 PWs)   bands (ev):

    -6.2530  -6.2478  -4.0168  -3.9995  -3.9551  -3.8914  -3.3948  -3.3688
    -3.2720  -3.2600  -3.2472  -3.2047   1.8231   1.9431   3.1797   3.4066
     4.1392   4.1642   6.7110   6.8655   8.9330

          k = 0.2224 0.2224 0.0000 ( 10919 PWs)   bands (ev):

    -6.2549  -6.2498  -4.0170  -3.9997  -3.9557  -3.8931  -3.3953  -3.3695
    -3.2723  -3.2602  -3.2480  -3.2061   1.8380   1.9572   3.1903   3.4164
     4.1440   4.1689   6.7027   6.8561   8.9273

          k = 0.2210 0.2210 0.0000 ( 10919 PWs)   bands (ev):

    -6.2567  -6.2517  -4.0172  -3.9999  -3.9564  -3.8947  -3.3958  -3.3703
    -3.2725  -3.2605  -3.2488  -3.2074   1.8529   1.9713   3.2010   3.4262
     4.1487   4.1736   6.6944   6.8467   8.9216

          k = 0.2195 0.2195-0.0000 ( 10931 PWs)   bands (ev):

    -6.2585  -6.2536  -4.0174  -4.0000  -3.9571  -3.8964  -3.3963  -3.3711
    -3.2728  -3.2607  -3.2496  -3.2088   1.8678   1.9855   3.2116   3.4359
     4.1534   4.1782   6.6860   6.8372   8.9161

          k = 0.2180 0.2180 0.0000 ( 10931 PWs)   bands (ev):

    -6.2604  -6.2556  -4.0176  -4.0002  -3.9577  -3.8981  -3.3968  -3.3718
    -3.2731  -3.2609  -3.2503  -3.2101   1.8828   1.9998   3.2223   3.4457
     4.1580   4.1829   6.6775   6.8277   8.9106

          k = 0.2166 0.2166 0.0000 ( 10931 PWs)   bands (ev):

    -6.2622  -6.2575  -4.0179  -4.0003  -3.9584  -3.8997  -3.3973  -3.3726
    -3.2733  -3.2612  -3.2511  -3.2114   1.8978   2.0141   3.2329   3.4554
     4.1627   4.1875   6.6691   6.8181   8.9053

          k = 0.2151 0.2151-0.0000 ( 10931 PWs)   bands (ev):

    -6.2640  -6.2594  -4.0181  -4.0005  -3.9591  -3.9013  -3.3978  -3.3734
    -3.2736  -3.2614  -3.2518  -3.2127   1.9130   2.0284   3.2435   3.4651
     4.1674   4.1921   6.6605   6.8084   8.9000

          k = 0.2136 0.2136 0.0000 ( 10931 PWs)   bands (ev):

    -6.2659  -6.2614  -4.0183  -4.0007  -3.9597  -3.9030  -3.3983  -3.3742
    -3.2738  -3.2617  -3.2525  -3.2139   1.9281   2.0429   3.2540   3.4747
     4.1720   4.1967   6.6520   6.7987   8.8949

          k = 0.2121 0.2121 0.0000 ( 10931 PWs)   bands (ev):

    -6.2677  -6.2633  -4.0185  -4.0008  -3.9604  -3.9046  -3.3989  -3.3750
    -3.2741  -3.2619  -3.2532  -3.2151   1.9433   2.0573   3.2646   3.4843
     4.1767   4.2013   6.6434   6.7890   8.8899

          k = 0.2107 0.2107-0.0000 ( 10931 PWs)   bands (ev):

    -6.2696  -6.2652  -4.0187  -4.0010  -3.9611  -3.9062  -3.3994  -3.3758
    -3.2743  -3.2621  -3.2539  -3.2163   1.9586   2.0719   3.2751   3.4939
     4.1813   4.2059   6.6347   6.7792   8.8849

          k = 0.2092 0.2092 0.0000 ( 10931 PWs)   bands (ev):

    -6.2714  -6.2671  -4.0189  -4.0012  -3.9617  -3.9078  -3.3999  -3.3766
    -3.2746  -3.2624  -3.2546  -3.2175   1.9739   2.0865   3.2856   3.5035
     4.1859   4.2105   6.6261   6.7693   8.8801

          k = 0.2077 0.2077 0.0000 ( 10943 PWs)   bands (ev):

    -6.2732  -6.2690  -4.0191  -4.0013  -3.9624  -3.9094  -3.4004  -3.3774
    -3.2748  -3.2626  -3.2552  -3.2187   1.9893   2.1011   3.2961   3.5130
     4.1905   4.2150   6.6173   6.7594   8.8754

          k = 0.2062 0.2062-0.0000 ( 10943 PWs)   bands (ev):

    -6.2750  -6.2709  -4.0193  -4.0015  -3.9631  -3.9110  -3.4010  -3.3782
    -3.2751  -3.2629  -3.2559  -3.2198   2.0047   2.1158   3.3065   3.5225
     4.1951   4.2195   6.6086   6.7495   8.8708

          k = 0.2048 0.2048 0.0000 ( 10949 PWs)   bands (ev):

    -6.2769  -6.2728  -4.0195  -4.0017  -3.9638  -3.9126  -3.4015  -3.3790
    -3.2753  -3.2631  -3.2565  -3.2209   2.0202   2.1305   3.3170   3.5319
     4.1997   4.2240   6.5997   6.7394   8.8663

          k = 0.2033 0.2033 0.0000 ( 10943 PWs)   bands (ev):

    -6.2787  -6.2747  -4.0197  -4.0018  -3.9644  -3.9142  -3.4020  -3.3799
    -3.2755  -3.2633  -3.2571  -3.2220   2.0357   2.1453   3.3274   3.5414
     4.2043   4.2285   6.5909   6.7294   8.8619

          k = 0.2018 0.2018-0.0000 ( 10943 PWs)   bands (ev):

    -6.2805  -6.2766  -4.0199  -4.0020  -3.9651  -3.9157  -3.4026  -3.3807
    -3.2758  -3.2636  -3.2577  -3.2231   2.0512   2.1602   3.3377   3.5507
     4.2089   4.2330   6.5820   6.7193   8.8576

          k = 0.2003 0.2003 0.0000 ( 10943 PWs)   bands (ev):

    -6.2823  -6.2785  -4.0201  -4.0022  -3.9658  -3.9173  -3.4031  -3.3815
    -3.2760  -3.2638  -3.2583  -3.2242   2.0669   2.1750   3.3481   3.5601
     4.2134   4.2375   6.5730   6.7091   8.8534

          k = 0.1989 0.1989 0.0000 ( 10943 PWs)   bands (ev):

    -6.2841  -6.2804  -4.0203  -4.0023  -3.9664  -3.9189  -3.4037  -3.3824
    -3.2762  -3.2640  -3.2589  -3.2252   2.0825   2.1900   3.3584   3.5694
     4.2180   4.2419   6.5640   6.6989   8.8493

          k = 0.1974 0.1974-0.0000 ( 10931 PWs)   bands (ev):

    -6.2859  -6.2823  -4.0205  -4.0025  -3.9671  -3.9204  -3.4042  -3.3832
    -3.2765  -3.2642  -3.2595  -3.2262   2.0982   2.2050   3.3687   3.5786
     4.2225   4.2464   6.5550   6.6886   8.8453

          k = 0.1959 0.1959 0.0000 ( 10929 PWs)   bands (ev):

    -6.2877  -6.2842  -4.0206  -4.0027  -3.9678  -3.9219  -3.4048  -3.3841
    -3.2767  -3.2645  -3.2600  -3.2272   2.1140   2.2200   3.3789   3.5878
     4.2270   4.2508   6.5459   6.6783   8.8415

          k = 0.1945 0.1945 0.0000 ( 10929 PWs)   bands (ev):

    -6.2896  -6.2861  -4.0208  -4.0029  -3.9685  -3.9234  -3.4053  -3.3849
    -3.2769  -3.2647  -3.2606  -3.2282   2.1298   2.2351   3.3891   3.5970
     4.2316   4.2552   6.5368   6.6679   8.8377

          k = 0.1930 0.1930-0.0000 ( 10929 PWs)   bands (ev):

    -6.2914  -6.2880  -4.0210  -4.0030  -3.9691  -3.9250  -3.4058  -3.3858
    -3.2771  -3.2649  -3.2611  -3.2292   2.1456   2.2502   3.3993   3.6061
     4.2361   4.2596   6.5276   6.6574   8.8340

          k = 0.1915 0.1915 0.0000 ( 10921 PWs)   bands (ev):

    -6.2931  -6.2898  -4.0212  -4.0032  -3.9698  -3.9265  -3.4064  -3.3866
    -3.2773  -3.2651  -3.2617  -3.2301   2.1615   2.2654   3.4095   3.6152
     4.2406   4.2640   6.5184   6.6470   8.8305

          k = 0.1900 0.1900 0.0000 ( 10921 PWs)   bands (ev):

    -6.2949  -6.2917  -4.0213  -4.0034  -3.9705  -3.9280  -3.4069  -3.3875
    -3.2775  -3.2654  -3.2622  -3.2310   2.1774   2.2806   3.4196   3.6242
     4.2451   4.2683   6.5091   6.6364   8.8270

          k = 0.1886 0.1886-0.0000 ( 10917 PWs)   bands (ev):

    -6.2967  -6.2936  -4.0215  -4.0035  -3.9712  -3.9294  -3.4075  -3.3884
    -3.2778  -3.2656  -3.2627  -3.2319   2.1934   2.2959   3.4297   3.6332
     4.2496   4.2727   6.4998   6.6258   8.8237

          k = 0.1871 0.1871 0.0000 ( 10917 PWs)   bands (ev):

    -6.2985  -6.2954  -4.0217  -4.0037  -3.9718  -3.9309  -3.4080  -3.3892
    -3.2780  -3.2658  -3.2632  -3.2328   2.2094   2.3112   3.4398   3.6421
     4.2541   4.2770   6.4904   6.6152   8.8204

          k = 0.1856 0.1856 0.0000 ( 10917 PWs)   bands (ev):

    -6.3003  -6.2973  -4.0218  -4.0039  -3.9725  -3.9324  -3.4086  -3.3901
    -3.2782  -3.2660  -3.2637  -3.2337   2.2255   2.3265   3.4498   3.6510
     4.2585   4.2814   6.4810   6.6044   8.8173

          k = 0.1841 0.1841-0.0000 ( 10909 PWs)   bands (ev):

    -6.3021  -6.2991  -4.0220  -4.0041  -3.9732  -3.9338  -3.4091  -3.3910
    -3.2784  -3.2662  -3.2641  -3.2345   2.2416   2.3419   3.4597   3.6599
     4.2630   4.2857   6.4715   6.5937   8.8142

          k = 0.1827 0.1827 0.0000 ( 10901 PWs)   bands (ev):

    -6.3038  -6.3009  -4.0222  -4.0042  -3.9738  -3.9353  -3.4097  -3.3918
    -3.2786  -3.2665  -3.2646  -3.2354   2.2577   2.3573   3.4697   3.6686
     4.2675   4.2900   6.4620   6.5829   8.8113

          k = 0.1812 0.1812 0.0000 ( 10901 PWs)   bands (ev):

    -6.3056  -6.3028  -4.0223  -4.0044  -3.9745  -3.9367  -3.4102  -3.3927
    -3.2788  -3.2667  -3.2650  -3.2362   2.2739   2.3728   3.4796   3.6774
     4.2719   4.2942   6.4524   6.5720   8.8085

          k = 0.1797 0.1797-0.0000 ( 10901 PWs)   bands (ev):

    -6.3073  -6.3046  -4.0225  -4.0046  -3.9752  -3.9381  -3.4108  -3.3936
    -3.2789  -3.2669  -3.2655  -3.2370   2.2901   2.3883   3.4895   3.6861
     4.2764   4.2985   6.4428   6.5611   8.8058

          k = 0.1782 0.1782 0.0000 ( 10901 PWs)   bands (ev):

    -6.3091  -6.3064  -4.0226  -4.0047  -3.9758  -3.9395  -3.4114  -3.3944
    -3.2791  -3.2671  -3.2659  -3.2378   2.3063   2.4038   3.4993   3.6947
     4.2808   4.3028   6.4331   6.5501   8.8031

          k = 0.1768 0.1768 0.0000 ( 10901 PWs)   bands (ev):

    -6.3108  -6.3082  -4.0228  -4.0049  -3.9765  -3.9409  -3.4119  -3.3953
    -3.2793  -3.2673  -3.2664  -3.2386   2.3226   2.4194   3.5091   3.7032
     4.2853   4.3070   6.4234   6.5390   8.8006

          k = 0.1753 0.1753-0.0000 ( 10901 PWs)   bands (ev):

    -6.3126  -6.3100  -4.0229  -4.0051  -3.9772  -3.9423  -3.4125  -3.3962
    -3.2795  -3.2675  -3.2668  -3.2393   2.3389   2.4350   3.5188   3.7118
     4.2897   4.3113   6.4136   6.5279   8.7982

          k = 0.1738 0.1738 0.0000 ( 10901 PWs)   bands (ev):

    -6.3143  -6.3118  -4.0231  -4.0053  -3.9778  -3.9437  -3.4130  -3.3970
    -3.2797  -3.2677  -3.2672  -3.2401   2.3553   2.4507   3.5285   3.7202
     4.2941   4.3155   6.4038   6.5168   8.7959

          k = 0.1724 0.1724 0.0000 ( 10901 PWs)   bands (ev):

    -6.3160  -6.3136  -4.0232  -4.0054  -3.9785  -3.9451  -3.4136  -3.3979
    -3.2799  -3.2679  -3.2676  -3.2408   2.3717   2.4664   3.5382   3.7286
     4.2986   4.3197   6.3939   6.5055   8.7937

          k = 0.1709 0.1709-0.0000 ( 10901 PWs)   bands (ev):

    -6.3178  -6.3154  -4.0233  -4.0056  -3.9791  -3.9464  -3.4141  -3.3988
    -3.2800  -3.2681  -3.2680  -3.2415   2.3881   2.4821   3.5478   3.7370
     4.3030   4.3239   6.3840   6.4943   8.7915

          k = 0.1694 0.1694 0.0000 ( 10897 PWs)   bands (ev):

    -6.3195  -6.3172  -4.0235  -4.0058  -3.9798  -3.9478  -3.4147  -3.3996
    -3.2802  -3.2683  -3.2683  -3.2423   2.4046   2.4978   3.5574   3.7452
     4.3074   4.3281   6.3740   6.4829   8.7895

          k = 0.1679 0.1679 0.0000 ( 10903 PWs)   bands (ev):

    -6.3212  -6.3189  -4.0236  -4.0060  -3.9805  -3.9491  -3.4152  -3.4005
    -3.2804  -3.2687  -3.2685  -3.2429   2.4210   2.5136   3.5669   3.7535
     4.3118   4.3322   6.3639   6.4715   8.7876

          k = 0.1665 0.1665-0.0000 ( 10915 PWs)   bands (ev):

    -6.3229  -6.3207  -4.0238  -4.0061  -3.9811  -3.9504  -3.4158  -3.4014
    -3.2805  -3.2691  -3.2687  -3.2436   2.4375   2.5294   3.5764   3.7616
     4.3162   4.3364   6.3538   6.4601   8.7858

          k = 0.1650 0.1650 0.0000 ( 10911 PWs)   bands (ev):

    -6.3246  -6.3224  -4.0239  -4.0063  -3.9818  -3.9517  -3.4163  -3.4022
    -3.2807  -3.2694  -3.2689  -3.2443   2.4541   2.5452   3.5859   3.7697
     4.3206   4.3405   6.3437   6.4486   8.7841

          k = 0.1635 0.1635 0.0000 ( 10911 PWs)   bands (ev):

    -6.3263  -6.3242  -4.0240  -4.0065  -3.9824  -3.9530  -3.4169  -3.4031
    -3.2808  -3.2698  -3.2691  -3.2450   2.4706   2.5611   3.5953   3.7778
     4.3250   4.3446   6.3334   6.4370   8.7825

          k = 0.1620 0.1620-0.0000 ( 10911 PWs)   bands (ev):

    -6.3279  -6.3259  -4.0241  -4.0067  -3.9831  -3.9543  -3.4174  -3.4039
    -3.2810  -3.2701  -3.2693  -3.2456   2.4872   2.5769   3.6047   3.7858
     4.3294   4.3488   6.3232   6.4254   8.7809

          k = 0.1606 0.1606 0.0000 ( 10911 PWs)   bands (ev):

    -6.3296  -6.3276  -4.0243  -4.0069  -3.9837  -3.9556  -3.4180  -3.4048
    -3.2811  -3.2705  -3.2695  -3.2462   2.5038   2.5929   3.6140   3.7937
     4.3338   4.3529   6.3128   6.4137   8.7795

          k = 0.1591 0.1591 0.0000 ( 10915 PWs)   bands (ev):

    -6.3313  -6.3293  -4.0244  -4.0070  -3.9843  -3.9569  -3.4185  -3.4056
    -3.2813  -3.2708  -3.2697  -3.2469   2.5205   2.6088   3.6233   3.8015
     4.3382   4.3570   6.3024   6.4020   8.7782

          k = 0.1576 0.1576-0.0000 ( 10921 PWs)   bands (ev):

    -6.3329  -6.3310  -4.0245  -4.0072  -3.9850  -3.9581  -3.4191  -3.4065
    -3.2814  -3.2711  -3.2698  -3.2475   2.5371   2.6247   3.6325   3.8093
     4.3426   4.3610   6.2920   6.3902   8.7769

          k = 0.1562 0.1562 0.0000 ( 10921 PWs)   bands (ev):

    -6.3346  -6.3327  -4.0246  -4.0074  -3.9856  -3.9594  -3.4196  -3.4073
    -3.2816  -3.2714  -3.2700  -3.2481   2.5538   2.6407   3.6417   3.8171
     4.3469   4.3651   6.2815   6.3783   8.7758

          k = 0.1547 0.1547 0.0000 ( 10917 PWs)   bands (ev):

    -6.3362  -6.3344  -4.0247  -4.0076  -3.9863  -3.9606  -3.4202  -3.4082
    -3.2817  -3.2717  -3.2702  -3.2487   2.5705   2.6567   3.6508   3.8247
     4.3513   4.3692   6.2709   6.3664   8.7747

          k = 0.1532 0.1532-0.0000 ( 10917 PWs)   bands (ev):

    -6.3378  -6.3361  -4.0248  -4.0077  -3.9869  -3.9618  -3.4207  -3.4090
    -3.2818  -3.2720  -3.2704  -3.2492   2.5873   2.6727   3.6599   3.8323
     4.3557   4.3732   6.2602   6.3544   8.7738

          k = 0.1517 0.1517 0.0000 ( 10923 PWs)   bands (ev):

    -6.3395  -6.3378  -4.0249  -4.0079  -3.9875  -3.9630  -3.4212  -3.4098
    -3.2820  -3.2723  -3.2706  -3.2498   2.6040   2.6887   3.6690   3.8399
     4.3600   4.3772   6.2495   6.3424   8.7729

          k = 0.1503 0.1503 0.0000 ( 10927 PWs)   bands (ev):

    -6.3411  -6.3394  -4.0250  -4.0081  -3.9881  -3.9642  -3.4218  -3.4106
    -3.2821  -3.2726  -3.2707  -3.2504   2.6208   2.7047   3.6780   3.8474
     4.3644   4.3813   6.2388   6.3303   8.7721

          k = 0.1488 0.1488-0.0000 ( 10927 PWs)   bands (ev):

    -6.3427  -6.3411  -4.0251  -4.0083  -3.9888  -3.9654  -3.4223  -3.4115
    -3.2822  -3.2729  -3.2709  -3.2509   2.6375   2.7208   3.6870   3.8548
     4.3687   4.3853   6.2280   6.3181   8.7714

          k = 0.1473 0.1473 0.0000 ( 10927 PWs)   bands (ev):

    -6.3443  -6.3427  -4.0252  -4.0084  -3.9894  -3.9666  -3.4228  -3.4123
    -3.2823  -3.2731  -3.2711  -3.2514   2.6543   2.7368   3.6959   3.8622
     4.3731   4.3892   6.2171   6.3059   8.7708

          k = 0.1458 0.1458 0.0000 ( 10927 PWs)   bands (ev):

    -6.3458  -6.3443  -4.0253  -4.0086  -3.9900  -3.9677  -3.4234  -3.4131
    -3.2824  -3.2734  -3.2712  -3.2520   2.6711   2.7529   3.7048   3.8695
     4.3774   4.3932   6.2061   6.2936   8.7703

          k = 0.1444 0.1444-0.0000 ( 10923 PWs)   bands (ev):

    -6.3474  -6.3460  -4.0254  -4.0088  -3.9906  -3.9689  -3.4239  -3.4139
    -3.2826  -3.2736  -3.2714  -3.2525   2.6879   2.7690   3.7136   3.8767
     4.3817   4.3972   6.1951   6.2812   8.7699

          k = 0.1429 0.1429 0.0000 ( 10923 PWs)   bands (ev):

    -6.3490  -6.3476  -4.0255  -4.0090  -3.9912  -3.9700  -3.4244  -3.4147
    -3.2827  -3.2739  -3.2716  -3.2530   2.7047   2.7851   3.7224   3.8839
     4.3860   4.4011   6.1841   6.2688   8.7695

          k = 0.1414 0.1414 0.0000 ( 10923 PWs)   bands (ev):

    -6.3505  -6.3492  -4.0256  -4.0092  -3.9918  -3.9711  -3.4250  -3.4155
    -3.2828  -3.2741  -3.2717  -3.2535   2.7216   2.8011   3.7312   3.8910
     4.3903   4.4051   6.1729   6.2563   8.7692

          k = 0.1399 0.1399-0.0000 ( 10927 PWs)   bands (ev):

    -6.3521  -6.3507  -4.0257  -4.0093  -3.9924  -3.9723  -3.4255  -3.4163
    -3.2829  -3.2744  -3.2719  -3.2540   2.7384   2.8172   3.7399   3.8981
     4.3946   4.4090   6.1617   6.2438   8.7690

          k = 0.1385 0.1385 0.0000 ( 10927 PWs)   bands (ev):

    -6.3536  -6.3523  -4.0258  -4.0095  -3.9930  -3.9734  -3.4260  -3.4170
    -3.2830  -3.2746  -3.2720  -3.2545   2.7552   2.8333   3.7485   3.9051
     4.3989   4.4129   6.1504   6.2312   8.7689

          k = 0.1370 0.1370 0.0000 ( 10935 PWs)   bands (ev):

    -6.3551  -6.3539  -4.0259  -4.0097  -3.9936  -3.9744  -3.4265  -3.4178
    -3.2831  -3.2748  -3.2722  -3.2550   2.7720   2.8494   3.7572   3.9120
     4.4032   4.4168   6.1391   6.2185   8.7689

          k = 0.1355 0.1355-0.0000 ( 10935 PWs)   bands (ev):

    -6.3566  -6.3554  -4.0260  -4.0099  -3.9942  -3.9755  -3.4270  -3.4186
    -3.2832  -3.2751  -3.2724  -3.2555   2.7889   2.8655   3.7658   3.9189
     4.4075   4.4207   6.1277   6.2058   8.7689

          k = 0.1341 0.1341 0.0000 ( 10933 PWs)   bands (ev):

    -6.3581  -6.3570  -4.0260  -4.0100  -3.9948  -3.9766  -3.4276  -3.4193
    -3.2832  -3.2753  -3.2725  -3.2559   2.8057   2.8815   3.7743   3.9257
     4.4118   4.4246   6.1162   6.1930   8.7690

          k = 0.1326 0.1326 0.0000 ( 10933 PWs)   bands (ev):

    -6.3596  -6.3585  -4.0261  -4.0102  -3.9954  -3.9776  -3.4281  -3.4201
    -3.2833  -3.2755  -3.2727  -3.2564   2.8225   2.8976   3.7828   3.9325
     4.4160   4.4284   6.1047   6.1802   8.7692

          k = 0.1311 0.1311-0.0000 ( 10933 PWs)   bands (ev):

    -6.3611  -6.3600  -4.0262  -4.0104  -3.9960  -3.9787  -3.4286  -3.4208
    -3.2834  -3.2757  -3.2728  -3.2568   2.8394   2.9136   3.7913   3.9392
     4.4203   4.4323   6.0931   6.1673   8.7694

          k = 0.1296 0.1296 0.0000 ( 10941 PWs)   bands (ev):

    -6.3626  -6.3615  -4.0263  -4.0106  -3.9966  -3.9797  -3.4291  -3.4216
    -3.2835  -3.2759  -3.2730  -3.2573   2.8562   2.9297   3.7998   3.9459
     4.4245   4.4361   6.0815   6.1543   8.7698

          k = 0.1282 0.1282 0.0000 ( 10941 PWs)   bands (ev):

    -6.3640  -6.3630  -4.0263  -4.0107  -3.9971  -3.9807  -3.4296  -3.4223
    -3.2836  -3.2761  -3.2731  -3.2577   2.8730   2.9457   3.8082   3.9525
     4.4287   4.4399   6.0697   6.1413   8.7701

          k = 0.1267 0.1267-0.0000 ( 10941 PWs)   bands (ev):

    -6.3655  -6.3645  -4.0264  -4.0109  -3.9977  -3.9817  -3.4301  -3.4230
    -3.2837  -3.2763  -3.2732  -3.2582   2.8898   2.9617   3.8165   3.9591
     4.4329   4.4437   6.0579   6.1282   8.7706

          k = 0.1252 0.1252 0.0000 ( 10933 PWs)   bands (ev):

    -6.3669  -6.3659  -4.0264  -4.0111  -3.9983  -3.9827  -3.4306  -3.4238
    -3.2837  -3.2765  -3.2734  -3.2586   2.9066   2.9777   3.8249   3.9656
     4.4371   4.4475   6.0461   6.1150   8.7711

          k = 0.1237 0.1237 0.0000 ( 10933 PWs)   bands (ev):

    -6.3683  -6.3674  -4.0265  -4.0113  -3.9988  -3.9837  -3.4311  -3.4245
    -3.2838  -3.2766  -3.2735  -3.2590   2.9233   2.9936   3.8332   3.9720
     4.4413   4.4512   6.0341   6.1018   8.7716

          k = 0.1223 0.1223-0.0000 ( 10933 PWs)   bands (ev):

    -6.3697  -6.3688  -4.0266  -4.0115  -3.9994  -3.9846  -3.4316  -3.4252
    -3.2839  -3.2768  -3.2737  -3.2594   2.9401   3.0096   3.8415   3.9785
     4.4454   4.4550   6.0221   6.0885   8.7722

          k = 0.1208 0.1208 0.0000 ( 10937 PWs)   bands (ev):

    -6.3711  -6.3703  -4.0266  -4.0116  -3.9999  -3.9856  -3.4321  -3.4259
    -3.2839  -3.2770  -3.2738  -3.2598   2.9568   3.0254   3.8498   3.9849
     4.4496   4.4587   6.0100   6.0751   8.7729

          k = 0.1193 0.1193 0.0000 ( 10931 PWs)   bands (ev):

    -6.3725  -6.3717  -4.0267  -4.0118  -4.0005  -3.9865  -3.4325  -3.4266
    -3.2840  -3.2772  -3.2739  -3.2602   2.9735   3.0413   3.8580   3.9912
     4.4537   4.4624   5.9979   6.0617   8.7736

          k = 0.1179 0.1179-0.0000 ( 10931 PWs)   bands (ev):

    -6.3739  -6.3731  -4.0267  -4.0120  -4.0010  -3.9875  -3.4330  -3.4273
    -3.2840  -3.2773  -3.2741  -3.2606   2.9901   3.0571   3.8662   3.9975
     4.4578   4.4661   5.9857   6.0483   8.7744

          k = 0.1164 0.1164 0.0000 ( 10931 PWs)   bands (ev):

    -6.3752  -6.3745  -4.0268  -4.0122  -4.0016  -3.9884  -3.4335  -3.4279
    -3.2841  -3.2775  -3.2742  -3.2610   3.0068   3.0729   3.8744   4.0038
     4.4619   4.4698   5.9734   6.0347   8.7752

          k = 0.1149 0.1149 0.0000 ( 10939 PWs)   bands (ev):

    -6.3766  -6.3758  -4.0268  -4.0123  -4.0021  -3.9893  -3.4340  -3.4286
    -3.2841  -3.2776  -3.2743  -3.2614   3.0234   3.0886   3.8826   4.0100
     4.4660   4.4734   5.9611   6.0211   8.7760

          k = 0.1134 0.1134-0.0000 ( 10935 PWs)   bands (ev):

    -6.3779  -6.3772  -4.0269  -4.0125  -4.0026  -3.9902  -3.4344  -3.4293
    -3.2842  -3.2778  -3.2744  -3.2618   3.0399   3.1043   3.8908   4.0162
     4.4700   4.4770   5.9487   6.0075   8.7769

          k = 0.1120 0.1120 0.0000 ( 10939 PWs)   bands (ev):

    -6.3792  -6.3785  -4.0269  -4.0127  -4.0032  -3.9910  -3.4349  -3.4299
    -3.2842  -3.2779  -3.2746  -3.2621   3.0565   3.1200   3.8990   4.0224
     4.4740   4.4807   5.9362   5.9937   8.7778

          k = 0.1105 0.1105 0.0000 ( 10939 PWs)   bands (ev):

    -6.3805  -6.3799  -4.0270  -4.0129  -4.0037  -3.9919  -3.4354  -3.4306
    -3.2843  -3.2781  -3.2747  -3.2625   3.0729   3.1355   3.9071   4.0286
     4.4780   4.4843   5.9236   5.9800   8.7788

          k = 0.1090 0.1090-0.0000 ( 10937 PWs)   bands (ev):

    -6.3818  -6.3812  -4.0270  -4.0130  -4.0042  -3.9928  -3.4358  -3.4312
    -3.2843  -3.2782  -3.2748  -3.2629   3.0894   3.1511   3.9153   4.0347
     4.4820   4.4878   5.9110   5.9661   8.7797

          k = 0.1075 0.1075 0.0000 ( 10941 PWs)   bands (ev):

    -6.3831  -6.3825  -4.0270  -4.0132  -4.0047  -3.9936  -3.4363  -3.4318
    -3.2843  -3.2783  -3.2749  -3.2632   3.1057   3.1665   3.9234   4.0408
     4.4860   4.4914   5.8983   5.9522   8.7807

          k = 0.1061 0.1061 0.0000 ( 10941 PWs)   bands (ev):

    -6.3843  -6.3838  -4.0271  -4.0134  -4.0052  -3.9944  -3.4367  -3.4324
    -3.2844  -3.2785  -3.2751  -3.2636   3.1221   3.1819   3.9316   4.0469
     4.4899   4.4949   5.8856   5.9382   8.7818

          k = 0.1046 0.1046-0.0000 ( 10941 PWs)   bands (ev):

    -6.3856  -6.3850  -4.0271  -4.0135  -4.0057  -3.9953  -3.4372  -3.4331
    -3.2844  -3.2786  -3.2752  -3.2639   3.1383   3.1972   3.9397   4.0530
     4.4938   4.4984   5.8727   5.9242   8.7828

          k = 0.1031 0.1031 0.0000 ( 10937 PWs)   bands (ev):

    -6.3868  -6.3863  -4.0271  -4.0137  -4.0062  -3.9961  -3.4376  -3.4337
    -3.2844  -3.2787  -3.2753  -3.2643   3.1545   3.2125   3.9479   4.0591
     4.4976   4.5019   5.8599   5.9101   8.7839

          k = 0.1016 0.1016 0.0000 ( 10937 PWs)   bands (ev):

    -6.3880  -6.3875  -4.0271  -4.0139  -4.0067  -3.9968  -3.4380  -3.4343
    -3.2845  -3.2788  -3.2754  -3.2646   3.1707   3.2276   3.9560   4.0652
     4.5015   4.5054   5.8469   5.8960   8.7849

          k = 0.1002 0.1002-0.0000 ( 10935 PWs)   bands (ev):

    -6.3893  -6.3888  -4.0272  -4.0141  -4.0072  -3.9976  -3.4385  -3.4348
    -3.2845  -3.2789  -3.2755  -3.2650   3.1867   3.2427   3.9642   4.0713
     4.5053   4.5088   5.8339   5.8818   8.7860

          k = 0.0987 0.0987 0.0000 ( 10935 PWs)   bands (ev):

    -6.3904  -6.3900  -4.0272  -4.0142  -4.0076  -3.9984  -3.4389  -3.4354
    -3.2845  -3.2790  -3.2756  -3.2653   3.2027   3.2576   3.9725   4.0774
     4.5091   4.5122   5.8208   5.8675   8.7871

          k = 0.0972 0.0972 0.0000 ( 10935 PWs)   bands (ev):

    -6.3916  -6.3912  -4.0272  -4.0144  -4.0081  -3.9992  -3.4393  -3.4360
    -3.2845  -3.2791  -3.2757  -3.2656   3.2186   3.2725   3.9807   4.0835
     4.5128   4.5156   5.8076   5.8532   8.7881

          k = 0.0958 0.0958-0.0000 ( 10935 PWs)   bands (ev):

    -6.3928  -6.3924  -4.0272  -4.0146  -4.0086  -3.9999  -3.4397  -3.4366
    -3.2845  -3.2792  -3.2758  -3.2660   3.2344   3.2873   3.9890   4.0896
     4.5165   4.5189   5.7944   5.8388   8.7892

          k = 0.0943 0.0943 0.0000 ( 10935 PWs)   bands (ev):

    -6.3939  -6.3935  -4.0272  -4.0147  -4.0090  -4.0006  -3.4401  -3.4371
    -3.2846  -3.2793  -3.2759  -3.2663   3.2501   3.3019   3.9973   4.0957
     4.5202   4.5223   5.7811   5.8244   8.7902

          k = 0.0928 0.0928 0.0000 ( 10939 PWs)   bands (ev):

    -6.3951  -6.3947  -4.0272  -4.0149  -4.0095  -4.0013  -3.4406  -3.4376
    -3.2846  -3.2794  -3.2760  -3.2666   3.2657   3.3165   4.0056   4.1019
     4.5239   4.5256   5.7677   5.8099   8.7913

          k = 0.0913 0.0913-0.0000 ( 10939 PWs)   bands (ev):

    -6.3962  -6.3958  -4.0273  -4.0151  -4.0099  -4.0021  -3.4410  -3.4382
    -3.2846  -3.2795  -3.2762  -3.2669   3.2812   3.3309   4.0140   4.1081
     4.5275   4.5289   5.7543   5.7953   8.7923

          k = 0.0899 0.0899 0.0000 ( 10939 PWs)   bands (ev):

    -6.3973  -6.3969  -4.0273  -4.0153  -4.0104  -4.0028  -3.4414  -3.4387
    -3.2846  -3.2796  -3.2763  -3.2672   3.2966   3.3452   4.0224   4.1143
     4.5311   4.5321   5.7408   5.7807   8.7933

          k = 0.0884 0.0884 0.0000 ( 10939 PWs)   bands (ev):

    -6.3984  -6.3980  -4.0273  -4.0154  -4.0108  -4.0034  -3.4418  -3.4392
    -3.2846  -3.2797  -3.2764  -3.2675   3.3119   3.3594   4.0309   4.1206
     4.5346   4.5353   5.7273   5.7661   8.7943

          k = 0.0869 0.0869-0.0000 ( 10935 PWs)   bands (ev):

    -6.3994  -6.3991  -4.0273  -4.0156  -4.0113  -4.0041  -3.4421  -3.4397
    -3.2846  -3.2798  -3.2765  -3.2678   3.3271   3.3734   4.0395   4.1269
     4.5381   4.5385   5.7137   5.7514   8.7952

          k = 0.0854 0.0854 0.0000 ( 10935 PWs)   bands (ev):

    -6.4005  -6.4002  -4.0273  -4.0158  -4.0117  -4.0048  -3.4425  -3.4402
    -3.2846  -3.2798  -3.2766  -3.2681   3.3421   3.3872   4.0481   4.1332
     4.5415   4.5417   5.7000   5.7366   8.7961

          k = 0.0840 0.0840 0.0000 ( 10935 PWs)   bands (ev):

    -6.4015  -6.4012  -4.0273  -4.0159  -4.0121  -4.0054  -3.4429  -3.4407
    -3.2846  -3.2799  -3.2766  -3.2684   3.3570   3.4009   4.0568   4.1397
     4.5448   4.5449   5.6863   5.7218   8.7970

          k = 0.0825 0.0825-0.0000 ( 10935 PWs)   bands (ev):

    -6.4026  -6.4023  -4.0273  -4.0161  -4.0125  -4.0060  -3.4433  -3.4412
    -3.2846  -3.2800  -3.2767  -3.2687   3.3717   3.4145   4.0655   4.1461
     4.5479   4.5483   5.6725   5.7070   8.7978

          k = 0.0810 0.0810 0.0000 ( 10939 PWs)   bands (ev):

    -6.4036  -6.4033  -4.0273  -4.0163  -4.0129  -4.0067  -3.4436  -3.4417
    -3.2845  -3.2801  -3.2768  -3.2690   3.3863   3.4279   4.0744   4.1527
     4.5509   4.5516   5.6586   5.6921   8.7986

          k = 0.0795 0.0795 0.0000 ( 10939 PWs)   bands (ev):

    -6.4046  -6.4043  -4.0273  -4.0164  -4.0133  -4.0073  -3.4440  -3.4422
    -3.2845  -3.2801  -3.2769  -3.2693   3.4007   3.4411   4.0833   4.1593
     4.5539   4.5549   5.6447   5.6771   8.7996

          k = 0.0781 0.0781-0.0000 ( 10939 PWs)   bands (ev):

    -6.4055  -6.4053  -4.0272  -4.0166  -4.0137  -4.0079  -3.4444  -3.4426
    -3.2845  -3.2802  -3.2770  -3.2696   3.4150   3.4541   4.0923   4.1661
     4.5569   4.5581   5.6307   5.6621   8.8001

          k = 0.0766 0.0766 0.0000 ( 10939 PWs)   bands (ev):

    -6.4065  -6.4063  -4.0272  -4.0167  -4.0141  -4.0085  -3.4447  -3.4431
    -3.2845  -3.2802  -3.2771  -3.2698   3.4291   3.4670   4.1015   4.1729
     4.5599   4.5613   5.6167   5.6471   8.8007

          k = 0.0751 0.0751 0.0000 ( 10931 PWs)   bands (ev):

    -6.4074  -6.4072  -4.0272  -4.0169  -4.0145  -4.0090  -3.4451  -3.4435
    -3.2845  -3.2803  -3.2772  -3.2701   3.4430   3.4796   4.1107   4.1798
     4.5628   4.5645   5.6026   5.6320   8.8013

          k = 0.0737 0.0737-0.0000 ( 10927 PWs)   bands (ev):

    -6.4084  -6.4082  -4.0272  -4.0171  -4.0148  -4.0096  -3.4454  -3.4439
    -3.2845  -3.2804  -3.2773  -3.2704   3.4567   3.4921   4.1200   4.1868
     4.5657   4.5675   5.5885   5.6168   8.8022

          k = 0.0722 0.0722 0.0000 ( 10927 PWs)   bands (ev):

    -6.4093  -6.4091  -4.0272  -4.0172  -4.0152  -4.0102  -3.4457  -3.4443
    -3.2844  -3.2804  -3.2774  -3.2706   3.4703   3.5043   4.1295   4.1940
     4.5685   4.5706   5.5743   5.6017   8.8024

          k = 0.0707 0.0707 0.0000 ( 10931 PWs)   bands (ev):

    -6.4102  -6.4100  -4.0272  -4.0174  -4.0156  -4.0107  -3.4461  -3.4448
    -3.2844  -3.2804  -3.2775  -3.2709   3.4836   3.5163   4.1390   4.2012
     4.5713   4.5736   5.5600   5.5865   8.8028

          k = 0.0692 0.0692-0.0000 ( 10931 PWs)   bands (ev):

    -6.4110  -6.4109  -4.0271  -4.0176  -4.0159  -4.0112  -3.4464  -3.4452
    -3.2844  -3.2805  -3.2775  -3.2712   3.4967   3.5281   4.1487   4.2086
     4.5741   4.5765   5.5457   5.5712   8.8031

          k = 0.0678 0.0678 0.0000 ( 10931 PWs)   bands (ev):

    -6.4119  -6.4118  -4.0271  -4.0177  -4.0163  -4.0118  -3.4467  -3.4456
    -3.2843  -3.2805  -3.2776  -3.2714   3.5096   3.5397   4.1585   4.2161
     4.5768   4.5794   5.5314   5.5559   8.8033

          k = 0.0663 0.0663 0.0000 ( 10931 PWs)   bands (ev):

    -6.4127  -6.4126  -4.0271  -4.0179  -4.0166  -4.0123  -3.4470  -3.4459
    -3.2843  -3.2806  -3.2777  -3.2717   3.5222   3.5511   4.1685   4.2237
     4.5795   4.5822   5.5170   5.5406   8.8036

          k = 0.0648 0.0648-0.0000 ( 10931 PWs)   bands (ev):

    -6.4136  -6.4134  -4.0271  -4.0180  -4.0170  -4.0128  -3.4473  -3.4463
    -3.2843  -3.2806  -3.2778  -3.2719   3.5346   3.5622   4.1785   4.2315
     4.5821   4.5850   5.5026   5.5253   8.8037

          k = 0.0633 0.0633 0.0000 ( 10931 PWs)   bands (ev):

    -6.4144  -6.4143  -4.0270  -4.0182  -4.0173  -4.0132  -3.4476  -3.4467
    -3.2842  -3.2806  -3.2779  -3.2722   3.5468   3.5730   4.1888   4.2395
     4.5847   4.5877   5.4881   5.5099   8.8038

          k = 0.0619 0.0619 0.0000 ( 10935 PWs)   bands (ev):

    -6.4152  -6.4151  -4.0270  -4.0183  -4.0176  -4.0137  -3.4479  -3.4470
    -3.2842  -3.2807  -3.2779  -3.2724   3.5587   3.5837   4.1991   4.2476
     4.5872   4.5904   5.4736   5.4945   8.8039

          k = 0.0604 0.0604-0.0000 ( 10935 PWs)   bands (ev):

    -6.4159  -6.4158  -4.0270  -4.0185  -4.0179  -4.0142  -3.4482  -3.4474
    -3.2841  -3.2807  -3.2780  -3.2727   3.5704   3.5940   4.2096   4.2559
     4.5897   4.5930   5.4590   5.4790   8.8040

          k = 0.0589 0.0589 0.0000 ( 10935 PWs)   bands (ev):

    -6.4167  -6.4166  -4.0269  -4.0187  -4.0182  -4.0146  -3.4485  -3.4477
    -3.2841  -3.2807  -3.2781  -3.2729   3.5818   3.6042   4.2202   4.2643
     4.5922   4.5956   5.4444   5.4636   8.8037

          k = 0.0575 0.0575 0.0000 ( 10935 PWs)   bands (ev):

    -6.4174  -6.4174  -4.0269  -4.0188  -4.0185  -4.0151  -3.4488  -3.4481
    -3.2840  -3.2808  -3.2782  -3.2731   3.5929   3.6140   4.2310   4.2729
     4.5946   4.5981   5.4298   5.4481   8.8037

          k = 0.0560 0.0560-0.0000 ( 10939 PWs)   bands (ev):

    -6.4182  -6.4181  -4.0268  -4.0190  -4.0188  -4.0155  -3.4490  -3.4484
    -3.2840  -3.2808  -3.2783  -3.2734   3.6037   3.6236   4.2419   4.2817
     4.5970   4.6005   5.4152   5.4326   8.8033

          k = 0.0545 0.0545 0.0000 ( 10939 PWs)   bands (ev):

    -6.4189  -6.4188  -4.0268  -4.0191  -4.0191  -4.0159  -3.4493  -3.4487
    -3.2839  -3.2808  -3.2783  -3.2736   3.6143   3.6329   4.2530   4.2906
     4.5993   4.6029   5.4005   5.4171   8.8031

          k = 0.0530 0.0530 0.0000 ( 10943 PWs)   bands (ev):

    -6.4196  -6.4195  -4.0268  -4.0194  -4.0193  -4.0163  -3.4496  -3.4490
    -3.2839  -3.2808  -3.2784  -3.2738   3.6246   3.6420   4.2642   4.2998
     4.6015   4.6052   5.3858   5.4016   8.8029

          k = 0.0516 0.0516-0.0000 ( 10943 PWs)   bands (ev):

    -6.4202  -6.4202  -4.0267  -4.0196  -4.0194  -4.0167  -3.4498  -3.4493
    -3.2838  -3.2808  -3.2785  -3.2741   3.6345   3.6508   4.2756   4.3091
     4.6038   4.6075   5.3711   5.3861   8.8024

          k = 0.0501 0.0501 0.0000 ( 10943 PWs)   bands (ev):

    -6.4209  -6.4208  -4.0267  -4.0199  -4.0196  -4.0171  -3.4501  -3.4496
    -3.2838  -3.2809  -3.2785  -3.2743   3.6442   3.6593   4.2871   4.3186
     4.6059   4.6097   5.3563   5.3705   8.8020

          k = 0.0486 0.0486 0.0000 ( 10939 PWs)   bands (ev):

    -6.4215  -6.4214  -4.0266  -4.0201  -4.0197  -4.0174  -3.4503  -3.4499
    -3.2837  -3.2809  -3.2786  -3.2745   3.6536   3.6676   4.2987   4.3283
     4.6080   4.6118   5.3415   5.3550   8.8017

          k = 0.0471 0.0471-0.0000 ( 10939 PWs)   bands (ev):

    -6.4221  -6.4221  -4.0266  -4.0204  -4.0199  -4.0178  -3.4505  -3.4501
    -3.2836  -3.2809  -3.2787  -3.2747   3.6626   3.6756   4.3105   4.3382
     4.6101   4.6139   5.3268   5.3395   8.8011

          k = 0.0457 0.0457 0.0000 ( 10939 PWs)   bands (ev):

    -6.4227  -6.4227  -4.0265  -4.0206  -4.0200  -4.0182  -3.4508  -3.4504
    -3.2836  -3.2809  -3.2787  -3.2749   3.6714   3.6833   4.3224   4.3482
     4.6121   4.6159   5.3120   5.3240   8.8007

          k = 0.0442 0.0442 0.0000 ( 10939 PWs)   bands (ev):

    -6.4233  -6.4232  -4.0264  -4.0209  -4.0202  -4.0185  -3.4510  -3.4507
    -3.2835  -3.2809  -3.2788  -3.2752   3.6798   3.6907   4.3344   4.3585
     4.6141   4.6178   5.2972   5.3085   8.8006

          k = 0.0427 0.0427-0.0000 ( 10939 PWs)   bands (ev):

    -6.4238  -6.4238  -4.0264  -4.0211  -4.0203  -4.0188  -3.4512  -3.4509
    -3.2834  -3.2809  -3.2789  -3.2754   3.6879   3.6979   4.3465   4.3689
     4.6160   4.6197   5.2825   5.2930   8.7993

          k = 0.0412 0.0412 0.0000 ( 10935 PWs)   bands (ev):

    -6.4244  -6.4244  -4.0263  -4.0213  -4.0205  -4.0191  -3.4514  -3.4511
    -3.2834  -3.2809  -3.2789  -3.2756   3.6958   3.7048   4.3587   4.3794
     4.6179   4.6216   5.2677   5.2776   8.7989

          k = 0.0398 0.0398 0.0000 ( 10935 PWs)   bands (ev):

    -6.4249  -6.4249  -4.0263  -4.0215  -4.0206  -4.0194  -3.4516  -3.4514
    -3.2833  -3.2809  -3.2790  -3.2758   3.7033   3.7115   4.3711   4.3902
     4.6197   4.6233   5.2530   5.2622   8.7980

          k = 0.0383 0.0383-0.0000 ( 10935 PWs)   bands (ev):

    -6.4254  -6.4254  -4.0262  -4.0217  -4.0208  -4.0197  -3.4518  -3.4516
    -3.2832  -3.2809  -3.2791  -3.2760   3.7105   3.7179   4.3835   4.4011
     4.6214   4.6250   5.2382   5.2468   8.7983

          k = 0.0368 0.0368 0.0000 ( 10935 PWs)   bands (ev):

    -6.4259  -6.4259  -4.0261  -4.0219  -4.0209  -4.0200  -3.4520  -3.4518
    -3.2831  -3.2809  -3.2791  -3.2762   3.7173   3.7240   4.3960   4.4121
     4.6231   4.6266   5.2236   5.2315   8.7973

          k = 0.0354 0.0354 0.0000 ( 10939 PWs)   bands (ev):

    -6.4264  -6.4263  -4.0261  -4.0221  -4.0211  -4.0203  -3.4522  -3.4520
    -3.2830  -3.2809  -3.2792  -3.2764   3.7239   3.7298   4.4086   4.4233
     4.6247   4.6282   5.2089   5.2163   8.7987

          k = 0.0339 0.0339-0.0000 ( 10939 PWs)   bands (ev):

    -6.4268  -6.4268  -4.0260  -4.0222  -4.0212  -4.0205  -3.4523  -3.4522
    -3.2830  -3.2809  -3.2793  -3.2766   3.7302   3.7354   4.4212   4.4346
     4.6263   4.6297   5.1943   5.2011   8.7956

          k = 0.0324 0.0324 0.0000 ( 10939 PWs)   bands (ev):

    -6.4272  -6.4272  -4.0259  -4.0224  -4.0214  -4.0208  -3.4525  -3.4524
    -3.2829  -3.2809  -3.2793  -3.2768   3.7361   3.7407   4.4339   4.4460
     4.6278   4.6311   5.1798   5.1860   8.7953

          k = 0.0309 0.0309 0.0000 ( 10943 PWs)   bands (ev):

    -6.4277  -6.4276  -4.0259  -4.0226  -4.0215  -4.0210  -3.4527  -3.4526
    -3.2828  -3.2809  -3.2794  -3.2770   3.7418   3.7458   4.4466   4.4575
     4.6293   4.6325   5.1654   5.1710   8.7938

          k = 0.0295 0.0295-0.0000 ( 10943 PWs)   bands (ev):

    -6.4281  -6.4280  -4.0258  -4.0227  -4.0217  -4.0212  -3.4528  -3.4527
    -3.2827  -3.2809  -3.2794  -3.2771   3.7471   3.7506   4.4593   4.4691
     4.6307   4.6338   5.1510   5.1561   8.7931

          k = 0.0280 0.0280 0.0000 ( 10947 PWs)   bands (ev):

    -6.4284  -6.4284  -4.0257  -4.0229  -4.0218  -4.0214  -3.4530  -3.4529
    -3.2826  -3.2809  -3.2795  -3.2773   3.7522   3.7552   4.4720   4.4808
     4.6320   4.6350   5.1368   5.1414   8.7925

          k = 0.0265 0.0265 0.0000 ( 10947 PWs)   bands (ev):

    -6.4288  -6.4288  -4.0256  -4.0230  -4.0220  -4.0216  -3.4531  -3.4530
    -3.2825  -3.2808  -3.2795  -3.2775   3.7570   3.7595   4.4847   4.4924
     4.6333   4.6362   5.1227   5.1268   8.7919

          k = 0.0250 0.0250-0.0000 ( 10951 PWs)   bands (ev):

    -6.4291  -6.4291  -4.0255  -4.0231  -4.0221  -4.0218  -3.4532  -3.4532
    -3.2824  -3.2808  -3.2796  -3.2777   3.7614   3.7636   4.4973   4.5041
     4.6345   4.6373   5.1087   5.1124   8.7913

          k = 0.0236 0.0236 0.0000 ( 10959 PWs)   bands (ev):

    -6.4294  -6.4294  -4.0255  -4.0232  -4.0223  -4.0219  -3.4534  -3.4533
    -3.2823  -3.2808  -3.2797  -3.2779   3.7656   3.7674   4.5098   4.5158
     4.6357   4.6383   5.0950   5.0981   8.7903

          k = 0.0221 0.0221 0.0000 ( 10959 PWs)   bands (ev):

    -6.4297  -6.4297  -4.0254  -4.0234  -4.0225  -4.0221  -3.4535  -3.4534
    -3.2822  -3.2808  -3.2797  -3.2780   3.7695   3.7710   4.5222   4.5274
     4.6368   4.6393   5.0814   5.0842   8.7902

          k = 0.0206 0.0206-0.0000 ( 10963 PWs)   bands (ev):

    -6.4300  -6.4300  -4.0253  -4.0235  -4.0226  -4.0222  -3.4536  -3.4536
    -3.2821  -3.2808  -3.2798  -3.2782   3.7732   3.7744   4.5344   4.5389
     4.6378   4.6402   5.0681   5.0705   8.7890

          k = 0.0192 0.0192 0.0000 ( 10967 PWs)   bands (ev):

    -6.4303  -6.4303  -4.0252  -4.0235  -4.0228  -4.0223  -3.4537  -3.4537
    -3.2820  -3.2808  -3.2798  -3.2784   3.7765   3.7775   4.5465   4.5502
     4.6388   4.6410   5.0550   5.0571   8.7884

          k = 0.0177 0.0177 0.0000 ( 10969 PWs)   bands (ev):

    -6.4305  -6.4305  -4.0251  -4.0236  -4.0229  -4.0225  -3.4538  -3.4538
    -3.2819  -3.2807  -3.2799  -3.2785   3.7796   3.7804   4.5582   4.5614
     4.6397   4.6417   5.0423   5.0440   8.7878

          k = 0.0162 0.0162-0.0000 ( 10969 PWs)   bands (ev):

    -6.4307  -6.4307  -4.0250  -4.0237  -4.0230  -4.0226  -3.4539  -3.4539
    -3.2818  -3.2807  -3.2799  -3.2787   3.7824   3.7830   4.5697   4.5723
     4.6405   4.6424   5.0301   5.0314   8.7875

          k = 0.0147 0.0147 0.0000 ( 10969 PWs)   bands (ev):

    -6.4309  -6.4309  -4.0249  -4.0238  -4.0232  -4.0227  -3.4539  -3.4539
    -3.2816  -3.2807  -3.2800  -3.2789   3.7850   3.7854   4.5808   4.5829
     4.6413   4.6431   5.0182   5.0193   8.7869

          k = 0.0133 0.0133 0.0000 ( 10969 PWs)   bands (ev):

    -6.4311  -6.4311  -4.0248  -4.0238  -4.0233  -4.0229  -3.4540  -3.4540
    -3.2815  -3.2807  -3.2800  -3.2790   3.7873   3.7876   4.5913   4.5930
     4.6420   4.6436   5.0069   5.0078   8.7864

          k = 0.0118 0.0118-0.0000 ( 10969 PWs)   bands (ev):

    -6.4313  -6.4313  -4.0247  -4.0239  -4.0234  -4.0230  -3.4541  -3.4541
    -3.2814  -3.2806  -3.2800  -3.2792   3.7894   3.7896   4.6014   4.6027
     4.6427   4.6441   4.9963   4.9969   8.7860

          k = 0.0103 0.0103 0.0000 ( 10969 PWs)   bands (ev):

    -6.4314  -6.4314  -4.0247  -4.0239  -4.0235  -4.0231  -3.4541  -3.4541
    -3.2813  -3.2806  -3.2801  -3.2794   3.7912   3.7913   4.6107   4.6117
     4.6433   4.6445   4.9864   4.9869   8.7856

          k = 0.0088 0.0088 0.0000 ( 10969 PWs)   bands (ev):

    -6.4315  -6.4315  -4.0246  -4.0239  -4.0236  -4.0232  -3.4542  -3.4542
    -3.2812  -3.2806  -3.2801  -3.2795   3.7927   3.7928   4.6192   4.6199
     4.6438   4.6449   4.9774   4.9777   8.7852

          k = 0.0074 0.0074-0.0000 ( 10969 PWs)   bands (ev):

    -6.4317  -6.4317  -4.0245  -4.0240  -4.0237  -4.0234  -3.4542  -3.4542
    -3.2810  -3.2805  -3.2802  -3.2797   3.7940   3.7941   4.6268   4.6273
     4.6442   4.6451   4.9694   4.9696   8.7850

          k = 0.0059 0.0059 0.0000 ( 10969 PWs)   bands (ev):

    -6.4317  -6.4317  -4.0244  -4.0240  -4.0237  -4.0235  -3.4543  -3.4543
    -3.2809  -3.2805  -3.2802  -3.2798   3.7951   3.7951   4.6332   4.6336
     4.6446   4.6454   4.9626   4.9627   8.7847

          k = 0.0044 0.0044 0.0000 ( 10969 PWs)   bands (ev):

    -6.4318  -6.4318  -4.0242  -4.0240  -4.0238  -4.0236  -3.4543  -3.4543
    -3.2808  -3.2805  -3.2803  -3.2800   3.7959   3.7959   4.6385   4.6387
     4.6450   4.6455   4.9571   4.9571   8.7846

          k = 0.0029 0.0029-0.0000 ( 10969 PWs)   bands (ev):

    -6.4319  -6.4319  -4.0241  -4.0240  -4.0238  -4.0237  -3.4543  -3.4543
    -3.2806  -3.2804  -3.2803  -3.2801   3.7965   3.7965   4.6423   4.6425
     4.6452   4.6456   4.9530   4.9530   8.7844

          k = 0.0015 0.0015 0.0000 ( 10969 PWs)   bands (ev):

    -6.4319  -6.4319  -4.0240  -4.0240  -4.0239  -4.0238  -3.4543  -3.4543
    -3.2805  -3.2804  -3.2803  -3.2802   3.7968   3.7968   4.6447   4.6448
     4.6454   4.6456   4.9505   4.9505   8.7843

          k = 0.0000 0.0000 0.0000 ( 10969 PWs)   bands (ev):

    -6.4319  -6.4319  -4.0239  -4.0239  -4.0239  -4.0239  -3.4543  -3.4543
    -3.2804  -3.2804  -3.2804  -3.2804   3.7969   3.7969   4.6455   4.6455
     4.6455   4.6455   4.9497   4.9497   8.7843

          k = 0.0013 0.0013 0.0013 ( 10969 PWs)   bands (ev):

    -6.4319  -6.4319  -4.0240  -4.0239  -4.0239  -4.0238  -3.4543  -3.4543
    -3.2805  -3.2804  -3.2804  -3.2802   3.7968   3.7968   4.6447   4.6447
     4.6454   4.6456   4.9506   4.9506   8.7843

          k = 0.0025 0.0025 0.0025 ( 10969 PWs)   bands (ev):

    -6.4319  -6.4319  -4.0242  -4.0239  -4.0239  -4.0237  -3.4543  -3.4543
    -3.2807  -3.2804  -3.2804  -3.2801   3.7964   3.7964   4.6421   4.6421
     4.6452   4.6456   4.9534   4.9534   8.7844

          k = 0.0038 0.0038 0.0038 ( 10969 PWs)   bands (ev):

    -6.4318  -6.4318  -4.0243  -4.0239  -4.0239  -4.0236  -3.4543  -3.4543
    -3.2808  -3.2804  -3.2804  -3.2799   3.7958   3.7958   4.6378   4.6378
     4.6450   4.6456   4.9578   4.9578   8.7846

          k = 0.0051 0.0051 0.0051 ( 10969 PWs)   bands (ev):

    -6.4317  -6.4317  -4.0244  -4.0238  -4.0238  -4.0234  -3.4543  -3.4543
    -3.2810  -3.2804  -3.2804  -3.2798   3.7949   3.7949   4.6321   4.6321
     4.6447   4.6455   4.9639   4.9639   8.7848

          k = 0.0063 0.0063 0.0063 ( 10969 PWs)   bands (ev):

    -6.4316  -6.4316  -4.0245  -4.0238  -4.0238  -4.0233  -3.4542  -3.4542
    -3.2811  -3.2804  -3.2804  -3.2796   3.7937   3.7937   4.6251   4.6251
     4.6443   4.6453   4.9714   4.9714   8.7850

          k = 0.0076 0.0076 0.0076 ( 10969 PWs)   bands (ev):

    -6.4315  -6.4315  -4.0246  -4.0237  -4.0237  -4.0232  -3.4542  -3.4542
    -3.2812  -3.2804  -3.2804  -3.2794   3.7923   3.7923   4.6169   4.6169
     4.6439   4.6451   4.9801   4.9801   8.7854

          k = 0.0088 0.0088 0.0088 ( 10969 PWs)   bands (ev):

    -6.4314  -6.4314  -4.0247  -4.0237  -4.0237  -4.0231  -3.4541  -3.4541
    -3.2814  -3.2803  -3.2803  -3.2793   3.7906   3.7906   4.6077   4.6077
     4.6434   4.6449   4.9900   4.9900   8.7857

          k = 0.0101 0.0101 0.0101 ( 10969 PWs)   bands (ev):

    -6.4312  -6.4312  -4.0248  -4.0236  -4.0236  -4.0229  -3.4541  -3.4541
    -3.2815  -3.2803  -3.2803  -3.2791   3.7887   3.7887   4.5977   4.5977
     4.6429   4.6446   5.0007   5.0007   8.7862

          k = 0.0114 0.0114 0.0114 ( 10969 PWs)   bands (ev):

    -6.4310  -6.4310  -4.0249  -4.0235  -4.0235  -4.0228  -3.4540  -3.4540
    -3.2816  -3.2803  -3.2803  -3.2789   3.7865   3.7865   4.5871   4.5871
     4.6423   4.6442   5.0122   5.0122   8.7867

          k = 0.0126 0.0126 0.0126 ( 10969 PWs)   bands (ev):

    -6.4308  -6.4308  -4.0251  -4.0234  -4.0234  -4.0227  -3.4539  -3.4539
    -3.2817  -3.2803  -3.2803  -3.2787   3.7840   3.7840   4.5758   4.5758
     4.6417   4.6438   5.0244   5.0244   8.7872

          k = 0.0139 0.0139 0.0139 ( 10969 PWs)   bands (ev):

    -6.4306  -6.4306  -4.0252  -4.0233  -4.0233  -4.0226  -3.4538  -3.4538
    -3.2819  -3.2803  -3.2803  -3.2786   3.7812   3.7812   4.5642   4.5642
     4.6410   4.6433   5.0372   5.0372   8.7878

          k = 0.0152 0.0152 0.0152 ( 10969 PWs)   bands (ev):

    -6.4304  -6.4304  -4.0253  -4.0231  -4.0231  -4.0224  -3.4537  -3.4537
    -3.2820  -3.2803  -3.2803  -3.2784   3.7782   3.7782   4.5522   4.5522
     4.6403   4.6427   5.0504   5.0504   8.7885

          k = 0.0164 0.0164 0.0164 ( 10960 PWs)   bands (ev):

    -6.4301  -6.4301  -4.0254  -4.0230  -4.0230  -4.0223  -3.4536  -3.4536
    -3.2821  -3.2803  -3.2803  -3.2782   3.7749   3.7749   4.5399   4.5399
     4.6395   4.6421   5.0641   5.0641   8.7892

          k = 0.0177 0.0177 0.0177 ( 10960 PWs)   bands (ev):

    -6.4298  -6.4298  -4.0255  -4.0229  -4.0229  -4.0222  -3.4535  -3.4535
    -3.2822  -3.2803  -3.2803  -3.2780   3.7713   3.7713   4.5274   4.5274
     4.6386   4.6415   5.0780   5.0780   8.7900

          k = 0.0189 0.0189 0.0189 ( 10960 PWs)   bands (ev):

    -6.4295  -6.4295  -4.0256  -4.0227  -4.0227  -4.0220  -3.4534  -3.4534
    -3.2823  -3.2802  -3.2802  -3.2778   3.7674   3.7674   4.5148   4.5148
     4.6377   4.6408   5.0923   5.0923   8.7908

          k = 0.0202 0.0202 0.0202 ( 10954 PWs)   bands (ev):

    -6.4292  -6.4292  -4.0257  -4.0225  -4.0225  -4.0219  -3.4532  -3.4532
    -3.2824  -3.2802  -3.2802  -3.2776   3.7632   3.7632   4.5020   4.5020
     4.6367   4.6400   5.1067   5.1067   8.7917

          k = 0.0215 0.0215 0.0215 ( 10954 PWs)   bands (ev):

    -6.4288  -6.4288  -4.0258  -4.0224  -4.0224  -4.0218  -3.4531  -3.4531
    -3.2825  -3.2802  -3.2802  -3.2775   3.7587   3.7587   4.4892   4.4892
     4.6357   4.6392   5.1214   5.1214   8.7926

          k = 0.0227 0.0227 0.0227 ( 10954 PWs)   bands (ev):

    -6.4285  -6.4285  -4.0259  -4.0222  -4.0222  -4.0216  -3.4529  -3.4529
    -3.2826  -3.2802  -3.2802  -3.2773   3.7539   3.7539   4.4764   4.4764
     4.6347   4.6383   5.1362   5.1362   8.7936

          k = 0.0240 0.0240 0.0240 ( 10951 PWs)   bands (ev):

    -6.4281  -6.4281  -4.0260  -4.0220  -4.0220  -4.0215  -3.4528  -3.4528
    -3.2827  -3.2802  -3.2802  -3.2771   3.7488   3.7488   4.4636   4.4636
     4.6335   4.6374   5.1512   5.1512   8.7946

          k = 0.0253 0.0253 0.0253 ( 10945 PWs)   bands (ev):

    -6.4277  -6.4277  -4.0261  -4.0218  -4.0218  -4.0213  -3.4526  -3.4526
    -3.2828  -3.2801  -3.2801  -3.2769   3.7433   3.7433   4.4508   4.4508
     4.6324   4.6364   5.1663   5.1663   8.7957

          k = 0.0265 0.0265 0.0265 ( 10945 PWs)   bands (ev):

    -6.4272  -6.4272  -4.0261  -4.0215  -4.0215  -4.0212  -3.4524  -3.4524
    -3.2829  -3.2801  -3.2801  -3.2767   3.7376   3.7376   4.4381   4.4381
     4.6311   4.6354   5.1815   5.1815   8.7969

          k = 0.0278 0.0278 0.0278 ( 10945 PWs)   bands (ev):

    -6.4268  -6.4268  -4.0262  -4.0213  -4.0213  -4.0211  -3.4523  -3.4523
    -3.2830  -3.2801  -3.2801  -3.2765   3.7315   3.7315   4.4255   4.4255
     4.6298   4.6343   5.1968   5.1968   8.7981

          k = 0.0290 0.0290 0.0290 ( 10945 PWs)   bands (ev):

    -6.4263  -6.4263  -4.0263  -4.0211  -4.0211  -4.0209  -3.4521  -3.4521
    -3.2831  -3.2801  -3.2801  -3.2763   3.7251   3.7251   4.4130   4.4130
     4.6285   4.6332   5.2121   5.2121   8.7993

          k = 0.0303 0.0303 0.0303 ( 10933 PWs)   bands (ev):

    -6.4258  -6.4258  -4.0264  -4.0208  -4.0208  -4.0208  -3.4519  -3.4519
    -3.2832  -3.2800  -3.2800  -3.2760   3.7184   3.7184   4.4006   4.4006
     4.6271   4.6320   5.2274   5.2274   8.8006

          k = 0.0316 0.0316 0.0316 ( 10933 PWs)   bands (ev):

    -6.4253  -6.4253  -4.0265  -4.0206  -4.0206  -4.0206  -3.4516  -3.4516
    -3.2833  -3.2800  -3.2800  -3.2758   3.7113   3.7113   4.3883   4.3883
     4.6257   4.6307   5.2428   5.2428   8.8019

          k = 0.0328 0.0328 0.0328 ( 10933 PWs)   bands (ev):

    -6.4247  -6.4247  -4.0266  -4.0205  -4.0203  -4.0203  -3.4514  -3.4514
    -3.2833  -3.2800  -3.2800  -3.2756   3.7039   3.7039   4.3762   4.3762
     4.6242   4.6294   5.2582   5.2582   8.8033

          k = 0.0341 0.0341 0.0341 ( 10933 PWs)   bands (ev):

    -6.4242  -6.4242  -4.0267  -4.0204  -4.0200  -4.0200  -3.4512  -3.4512
    -3.2834  -3.2799  -3.2799  -3.2754   3.6961   3.6961   4.3643   4.3643
     4.6226   4.6281   5.2737   5.2737   8.8047

          k = 0.0354 0.0354 0.0354 ( 10933 PWs)   bands (ev):

    -6.4236  -6.4236  -4.0268  -4.0202  -4.0197  -4.0197  -3.4510  -3.4510
    -3.2835  -3.2799  -3.2799  -3.2752   3.6881   3.6881   4.3526   4.3526
     4.6210   4.6267   5.2891   5.2891   8.8062

          k = 0.0366 0.0366 0.0366 ( 10933 PWs)   bands (ev):

    -6.4230  -6.4230  -4.0268  -4.0201  -4.0194  -4.0194  -3.4507  -3.4507
    -3.2836  -3.2799  -3.2799  -3.2750   3.6796   3.6796   4.3410   4.3410
     4.6194   4.6252   5.3045   5.3045   8.8077

          k = 0.0379 0.0379 0.0379 ( 10939 PWs)   bands (ev):

    -6.4224  -6.4224  -4.0269  -4.0199  -4.0191  -4.0191  -3.4505  -3.4505
    -3.2836  -3.2798  -3.2798  -3.2748   3.6708   3.6708   4.3297   4.3297
     4.6177   4.6237   5.3199   5.3199   8.8092

          k = 0.0391 0.0391 0.0391 ( 10939 PWs)   bands (ev):

    -6.4218  -6.4218  -4.0270  -4.0198  -4.0187  -4.0187  -3.4502  -3.4502
    -3.2837  -3.2798  -3.2798  -3.2745   3.6617   3.6617   4.3186   4.3186
     4.6160   4.6222   5.3353   5.3353   8.8108

          k = 0.0404 0.0404 0.0404 ( 10939 PWs)   bands (ev):

    -6.4211  -6.4211  -4.0271  -4.0196  -4.0184  -4.0184  -3.4499  -3.4499
    -3.2837  -3.2797  -3.2797  -3.2743   3.6522   3.6522   4.3076   4.3076
     4.6142   4.6206   5.3506   5.3506   8.8124

          k = 0.0417 0.0417 0.0417 ( 10939 PWs)   bands (ev):

    -6.4204  -6.4204  -4.0271  -4.0195  -4.0181  -4.0181  -3.4497  -3.4497
    -3.2838  -3.2797  -3.2797  -3.2741   3.6423   3.6423   4.2969   4.2969
     4.6123   4.6189   5.3659   5.3659   8.8141

          k = 0.0429 0.0429 0.0429 ( 10939 PWs)   bands (ev):

    -6.4197  -6.4197  -4.0272  -4.0193  -4.0177  -4.0177  -3.4494  -3.4494
    -3.2839  -3.2796  -3.2796  -3.2739   3.6321   3.6321   4.2864   4.2864
     4.6104   4.6172   5.3811   5.3811   8.8158

          k = 0.0442 0.0442 0.0442 ( 10933 PWs)   bands (ev):

    -6.4190  -6.4190  -4.0273  -4.0192  -4.0173  -4.0173  -3.4491  -3.4491
    -3.2839  -3.2796  -3.2796  -3.2736   3.6216   3.6216   4.2762   4.2762
     4.6085   4.6154   5.3964   5.3964   8.8176

          k = 0.0455 0.0455 0.0455 ( 10933 PWs)   bands (ev):

    -6.4183  -6.4183  -4.0274  -4.0190  -4.0169  -4.0169  -3.4488  -3.4488
    -3.2839  -3.2795  -3.2795  -3.2734   3.6107   3.6107   4.2661   4.2661
     4.6065   4.6136   5.4115   5.4115   8.8194

          k = 0.0467 0.0467 0.0467 ( 10933 PWs)   bands (ev):

    -6.4175  -6.4175  -4.0274  -4.0189  -4.0165  -4.0165  -3.4485  -3.4485
    -3.2840  -3.2795  -3.2795  -3.2732   3.5995   3.5995   4.2563   4.2563
     4.6045   4.6118   5.4266   5.4266   8.8212

          k = 0.0480 0.0480 0.0480 ( 10933 PWs)   bands (ev):

    -6.4167  -6.4167  -4.0275  -4.0187  -4.0161  -4.0161  -3.4482  -3.4482
    -3.2840  -3.2794  -3.2794  -3.2729   3.5880   3.5880   4.2467   4.2467
     4.6024   4.6099   5.4416   5.4416   8.8231

          k = 0.0492 0.0492 0.0492 ( 10933 PWs)   bands (ev):

    -6.4160  -6.4160  -4.0276  -4.0186  -4.0157  -4.0157  -3.4478  -3.4478
    -3.2841  -3.2794  -3.2794  -3.2727   3.5761   3.5761   4.2374   4.2374
     4.6003   4.6079   5.4566   5.4566   8.8250

          k = 0.0505 0.0505 0.0505 ( 10939 PWs)   bands (ev):

    -6.4151  -6.4151  -4.0276  -4.0184  -4.0153  -4.0153  -3.4475  -3.4475
    -3.2841  -3.2793  -3.2793  -3.2725   3.5639   3.5639   4.2282   4.2282
     4.5981   4.6060   5.4715   5.4715   8.8270

          k = 0.0518 0.0518 0.0518 ( 10924 PWs)   bands (ev):

    -6.4143  -6.4143  -4.0277  -4.0183  -4.0149  -4.0149  -3.4472  -3.4472
    -3.2841  -3.2793  -3.2793  -3.2722   3.5514   3.5514   4.2193   4.2193
     4.5959   4.6039   5.4863   5.4863   8.8289

          k = 0.0530 0.0530 0.0530 ( 10924 PWs)   bands (ev):

    -6.4135  -6.4135  -4.0278  -4.0181  -4.0144  -4.0144  -3.4468  -3.4468
    -3.2842  -3.2792  -3.2792  -3.2720   3.5386   3.5386   4.2106   4.2106
     4.5936   4.6018   5.5010   5.5010   8.8310

          k = 0.0543 0.0543 0.0543 ( 10924 PWs)   bands (ev):

    -6.4126  -6.4126  -4.0278  -4.0180  -4.0140  -4.0140  -3.4465  -3.4465
    -3.2842  -3.2791  -3.2791  -3.2717   3.5255   3.5255   4.2021   4.2021
     4.5913   4.5997   5.5157   5.5157   8.8330

          k = 0.0556 0.0556 0.0556 ( 10924 PWs)   bands (ev):

    -6.4117  -6.4117  -4.0279  -4.0178  -4.0135  -4.0135  -3.4461  -3.4461
    -3.2842  -3.2790  -3.2790  -3.2715   3.5121   3.5121   4.1938   4.1938
     4.5890   4.5975   5.5302   5.5302   8.8352

          k = 0.0568 0.0568 0.0568 ( 10924 PWs)   bands (ev):

    -6.4108  -6.4108  -4.0279  -4.0177  -4.0130  -4.0130  -3.4457  -3.4457
    -3.2842  -3.2790  -3.2790  -3.2712   3.4984   3.4984   4.1857   4.1857
     4.5866   4.5953   5.5447   5.5447   8.8373

          k = 0.0581 0.0581 0.0581 ( 10924 PWs)   bands (ev):

    -6.4099  -6.4099  -4.0280  -4.0175  -4.0125  -4.0125  -3.4453  -3.4453
    -3.2842  -3.2789  -3.2789  -3.2710   3.4844   3.4844   4.1778   4.1778
     4.5841   4.5930   5.5591   5.5591   8.8395

          k = 0.0593 0.0593 0.0593 ( 10918 PWs)   bands (ev):

    -6.4089  -6.4089  -4.0280  -4.0174  -4.0120  -4.0120  -3.4449  -3.4449
    -3.2842  -3.2788  -3.2788  -3.2707   3.4702   3.4702   4.1701   4.1701
     4.5817   4.5907   5.5733   5.5733   8.8417

          k = 0.0606 0.0606 0.0606 ( 10918 PWs)   bands (ev):

    -6.4079  -6.4079  -4.0281  -4.0172  -4.0115  -4.0115  -3.4446  -3.4446
    -3.2843  -3.2787  -3.2787  -3.2705   3.4557   3.4557   4.1625   4.1625
     4.5791   4.5884   5.5875   5.5875   8.8440

          k = 0.0619 0.0619 0.0619 ( 10918 PWs)   bands (ev):

    -6.4070  -6.4070  -4.0281  -4.0171  -4.0110  -4.0110  -3.4441  -3.4441
    -3.2843  -3.2786  -3.2786  -3.2702   3.4410   3.4410   4.1552   4.1552
     4.5766   4.5860   5.6016   5.6016   8.8464

          k = 0.0631 0.0631 0.0631 ( 10918 PWs)   bands (ev):

    -6.4060  -6.4060  -4.0282  -4.0169  -4.0104  -4.0104  -3.4437  -3.4437
    -3.2843  -3.2786  -3.2786  -3.2700   3.4260   3.4260   4.1480   4.1480
     4.5740   4.5835   5.6155   5.6155   8.8487

          k = 0.0644 0.0644 0.0644 ( 10918 PWs)   bands (ev):

    -6.4049  -6.4049  -4.0282  -4.0168  -4.0099  -4.0099  -3.4433  -3.4433
    -3.2843  -3.2785  -3.2785  -3.2697   3.4108   3.4108   4.1410   4.1410
     4.5713   4.5810   5.6294   5.6294   8.8512

          k = 0.0657 0.0657 0.0657 ( 10924 PWs)   bands (ev):

    -6.4039  -6.4039  -4.0283  -4.0166  -4.0094  -4.0094  -3.4429  -3.4429
    -3.2843  -3.2784  -3.2784  -3.2695   3.3954   3.3954   4.1341   4.1341
     4.5687   4.5785   5.6431   5.6431   8.8537

          k = 0.0669 0.0669 0.0669 ( 10924 PWs)   bands (ev):

    -6.4028  -6.4028  -4.0283  -4.0165  -4.0088  -4.0088  -3.4425  -3.4425
    -3.2842  -3.2783  -3.2783  -3.2692   3.3797   3.3797   4.1274   4.1274
     4.5659   4.5759   5.6567   5.6567   8.8562

          k = 0.0682 0.0682 0.0682 ( 10924 PWs)   bands (ev):

    -6.4018  -6.4018  -4.0284  -4.0163  -4.0082  -4.0082  -3.4420  -3.4420
    -3.2842  -3.2782  -3.2782  -3.2689   3.3639   3.3639   4.1208   4.1208
     4.5632   4.5733   5.6702   5.6702   8.8588

          k = 0.0694 0.0694 0.0694 ( 10927 PWs)   bands (ev):

    -6.4007  -6.4007  -4.0284  -4.0162  -4.0076  -4.0076  -3.4416  -3.4416
    -3.2842  -3.2781  -3.2781  -3.2687   3.3478   3.3478   4.1143   4.1143
     4.5604   4.5707   5.6835   5.6835   8.8614

          k = 0.0707 0.0707 0.0707 ( 10927 PWs)   bands (ev):

    -6.3996  -6.3996  -4.0284  -4.0160  -4.0070  -4.0070  -3.4411  -3.4411
    -3.2842  -3.2779  -3.2779  -3.2684   3.3316   3.3316   4.1080   4.1080
     4.5575   4.5680   5.6968   5.6968   8.8642

          k = 0.0720 0.0720 0.0720 ( 10927 PWs)   bands (ev):

    -6.3984  -6.3984  -4.0285  -4.0158  -4.0064  -4.0064  -3.4406  -3.4406
    -3.2842  -3.2778  -3.2778  -3.2682   3.3152   3.3152   4.1018   4.1018
     4.5547   4.5653   5.7099   5.7099   8.8669

          k = 0.0732 0.0732 0.0732 ( 10933 PWs)   bands (ev):

    -6.3973  -6.3973  -4.0285  -4.0157  -4.0058  -4.0058  -3.4402  -3.4402
    -3.2842  -3.2777  -3.2777  -3.2679   3.2986   3.2986   4.0957   4.0957
     4.5518   4.5625   5.7229   5.7229   8.8698

          k = 0.0745 0.0745 0.0745 ( 10933 PWs)   bands (ev):

    -6.3961  -6.3961  -4.0286  -4.0155  -4.0052  -4.0052  -3.4397  -3.4397
    -3.2841  -3.2776  -3.2776  -3.2676   3.2819   3.2819   4.0897   4.0897
     4.5488   4.5597   5.7357   5.7357   8.8727

          k = 0.0758 0.0758 0.0758 ( 10939 PWs)   bands (ev):

    -6.3950  -6.3950  -4.0286  -4.0154  -4.0045  -4.0045  -3.4392  -3.4392
    -3.2841  -3.2775  -3.2775  -3.2674   3.2650   3.2650   4.0839   4.0839
     4.5458   4.5569   5.7484   5.7484   8.8757

          k = 0.0770 0.0770 0.0770 ( 10939 PWs)   bands (ev):

    -6.3938  -6.3938  -4.0286  -4.0152  -4.0039  -4.0039  -3.4387  -3.4387
    -3.2841  -3.2773  -3.2773  -3.2671   3.2480   3.2480   4.0781   4.0781
     4.5428   4.5540   5.7610   5.7610   8.8788

          k = 0.0783 0.0783 0.0783 ( 10951 PWs)   bands (ev):

    -6.3926  -6.3926  -4.0286  -4.0151  -4.0032  -4.0032  -3.4382  -3.4382
    -3.2840  -3.2772  -3.2772  -3.2668   3.2308   3.2308   4.0724   4.0724
     4.5398   4.5511   5.7734   5.7734   8.8820

          k = 0.0795 0.0795 0.0795 ( 10951 PWs)   bands (ev):

    -6.3913  -6.3913  -4.0287  -4.0149  -4.0026  -4.0026  -3.4377  -3.4377
    -3.2840  -3.2771  -3.2771  -3.2665   3.2135   3.2135   4.0668   4.0668
     4.5367   4.5482   5.7857   5.7857   8.8852

          k = 0.0808 0.0808 0.0808 ( 10945 PWs)   bands (ev):

    -6.3901  -6.3901  -4.0287  -4.0148  -4.0019  -4.0019  -3.4372  -3.4372
    -3.2839  -3.2769  -3.2769  -3.2663   3.1961   3.1961   4.0613   4.0613
     4.5336   4.5452   5.7979   5.7979   8.8886

          k = 0.0821 0.0821 0.0821 ( 10939 PWs)   bands (ev):

    -6.3888  -6.3888  -4.0287  -4.0146  -4.0012  -4.0012  -3.4367  -3.4367
    -3.2839  -3.2768  -3.2768  -3.2660   3.1785   3.1785   4.0559   4.0559
     4.5304   4.5422   5.8099   5.8099   8.8920

          k = 0.0833 0.0833 0.0833 ( 10939 PWs)   bands (ev):

    -6.3876  -6.3876  -4.0287  -4.0145  -4.0005  -4.0005  -3.4362  -3.4362
    -3.2838  -3.2766  -3.2766  -3.2657   3.1609   3.1609   4.0505   4.0505
     4.5273   4.5392   5.8217   5.8217   8.8956

          k = 0.0846 0.0846 0.0846 ( 10939 PWs)   bands (ev):

    -6.3863  -6.3863  -4.0288  -4.0143  -3.9998  -3.9998  -3.4356  -3.4356
    -3.2838  -3.2764  -3.2764  -3.2654   3.1431   3.1431   4.0452   4.0452
     4.5241   4.5361   5.8334   5.8334   8.8992

          k = 0.0859 0.0859 0.0859 ( 10939 PWs)   bands (ev):

    -6.3850  -6.3850  -4.0288  -4.0142  -3.9990  -3.9990  -3.4351  -3.4351
    -3.2837  -3.2763  -3.2763  -3.2652   3.1252   3.1252   4.0400   4.0400
     4.5208   4.5330   5.8449   5.8449   8.9030

          k = 0.0871 0.0871 0.0871 ( 10939 PWs)   bands (ev):

    -6.3836  -6.3836  -4.0288  -4.0140  -3.9983  -3.9983  -3.4345  -3.4345
    -3.2837  -3.2761  -3.2761  -3.2649   3.1073   3.1073   4.0348   4.0348
     4.5176   4.5298   5.8563   5.8563   8.9068

          k = 0.0884 0.0884 0.0884 ( 10939 PWs)   bands (ev):

    -6.3823  -6.3823  -4.0288  -4.0139  -3.9976  -3.9976  -3.4340  -3.4340
    -3.2836  -3.2759  -3.2759  -3.2646   3.0892   3.0892   4.0297   4.0297
     4.5143   4.5267   5.8676   5.8676   8.9108

          k = 0.0897 0.0897 0.0897 ( 10933 PWs)   bands (ev):

    -6.3810  -6.3810  -4.0288  -4.0137  -3.9968  -3.9968  -3.4334  -3.4334
    -3.2835  -3.2757  -3.2757  -3.2643   3.0711   3.0711   4.0247   4.0247
     4.5109   4.5235   5.8786   5.8786   8.9149

          k = 0.0909 0.0909 0.0909 ( 10939 PWs)   bands (ev):

    -6.3796  -6.3796  -4.0289  -4.0136  -3.9960  -3.9960  -3.4329  -3.4329
    -3.2835  -3.2755  -3.2755  -3.2640   3.0529   3.0529   4.0197   4.0197
     4.5076   4.5202   5.8895   5.8895   8.9191

          k = 0.0922 0.0922 0.0922 ( 10936 PWs)   bands (ev):

    -6.3782  -6.3782  -4.0289  -4.0134  -3.9953  -3.9953  -3.4323  -3.4323
    -3.2834  -3.2753  -3.2753  -3.2638   3.0346   3.0346   4.0147   4.0147
     4.5042   4.5170   5.9003   5.9003   8.9235

          k = 0.0934 0.0934 0.0934 ( 10936 PWs)   bands (ev):

    -6.3768  -6.3768  -4.0289  -4.0133  -3.9945  -3.9945  -3.4317  -3.4317
    -3.2833  -3.2751  -3.2751  -3.2635   3.0162   3.0162   4.0098   4.0098
     4.5008   4.5137   5.9109   5.9109   8.9279

          k = 0.0947 0.0947 0.0947 ( 10936 PWs)   bands (ev):

    -6.3754  -6.3754  -4.0289  -4.0131  -3.9937  -3.9937  -3.4312  -3.4312
    -3.2832  -3.2749  -3.2749  -3.2632   2.9978   2.9978   4.0049   4.0049
     4.4974   4.5104   5.9213   5.9213   8.9326

          k = 0.0960 0.0960 0.0960 ( 10936 PWs)   bands (ev):

    -6.3740  -6.3740  -4.0289  -4.0130  -3.9929  -3.9929  -3.4306  -3.4306
    -3.2831  -3.2747  -3.2747  -3.2629   2.9793   2.9793   4.0001   4.0001
     4.4939   4.5070   5.9315   5.9315   8.9373

          k = 0.0972 0.0972 0.0972 ( 10936 PWs)   bands (ev):

    -6.3725  -6.3725  -4.0289  -4.0128  -3.9921  -3.9921  -3.4300  -3.4300
    -3.2831  -3.2745  -3.2745  -3.2626   2.9607   2.9607   3.9953   3.9953
     4.4904   4.5037   5.9416   5.9416   8.9422

          k = 0.0985 0.0985 0.0985 ( 10936 PWs)   bands (ev):

    -6.3711  -6.3711  -4.0289  -4.0127  -3.9912  -3.9912  -3.4294  -3.4294
    -3.2830  -3.2742  -3.2742  -3.2623   2.9421   2.9421   3.9906   3.9906
     4.4869   4.5003   5.9515   5.9515   8.9473

          k = 0.0998 0.0998 0.0998 ( 10936 PWs)   bands (ev):

    -6.3696  -6.3696  -4.0289  -4.0125  -3.9904  -3.9904  -3.4288  -3.4288
    -3.2829  -3.2740  -3.2740  -3.2620   2.9234   2.9234   3.9859   3.9859
     4.4834   4.4969   5.9613   5.9613   8.9525

          k = 0.1010 0.1010 0.1010 ( 10924 PWs)   bands (ev):

    -6.3681  -6.3681  -4.0289  -4.0124  -3.9896  -3.9896  -3.4282  -3.4282
    -3.2828  -3.2737  -3.2737  -3.2618   2.9047   2.9047   3.9812   3.9812
     4.4798   4.4934   5.9708   5.9708   8.9578

          k = 0.1023 0.1023 0.1023 ( 10930 PWs)   bands (ev):

    -6.3667  -6.3667  -4.0289  -4.0122  -3.9887  -3.9887  -3.4276  -3.4276
    -3.2827  -3.2735  -3.2735  -3.2615   2.8860   2.8860   3.9765   3.9765
     4.4763   4.4899   5.9802   5.9802   8.9633

          k = 0.1035 0.1035 0.1035 ( 10918 PWs)   bands (ev):

    -6.3651  -6.3651  -4.0289  -4.0121  -3.9878  -3.9878  -3.4270  -3.4270
    -3.2826  -3.2732  -3.2732  -3.2612   2.8672   2.8672   3.9719   3.9719
     4.4727   4.4865   5.9894   5.9894   8.9690

          k = 0.1048 0.1048 0.1048 ( 10918 PWs)   bands (ev):

    -6.3636  -6.3636  -4.0289  -4.0119  -3.9870  -3.9870  -3.4263  -3.4263
    -3.2825  -3.2730  -3.2730  -3.2609   2.8483   2.8483   3.9673   3.9673
     4.4690   4.4829   5.9985   5.9985   8.9748

          k = 0.1061 0.1061 0.1061 ( 10918 PWs)   bands (ev):

    -6.3621  -6.3621  -4.0289  -4.0118  -3.9861  -3.9861  -3.4257  -3.4257
    -3.2823  -3.2727  -3.2727  -3.2606   2.8295   2.8295   3.9627   3.9627
     4.4654   4.4794   6.0074   6.0074   8.9808

          k = 0.1073 0.1073 0.1073 ( 10918 PWs)   bands (ev):

    -6.3606  -6.3606  -4.0289  -4.0116  -3.9852  -3.9852  -3.4251  -3.4251
    -3.2822  -3.2724  -3.2724  -3.2603   2.8106   2.8106   3.9581   3.9581
     4.4618   4.4758   6.0161   6.0161   8.9869

          k = 0.1086 0.1086 0.1086 ( 10918 PWs)   bands (ev):

    -6.3590  -6.3590  -4.0289  -4.0115  -3.9843  -3.9843  -3.4245  -3.4245
    -3.2821  -3.2721  -3.2721  -3.2600   2.7917   2.7917   3.9536   3.9536
     4.4581   4.4723   6.0246   6.0246   8.9933

          k = 0.1099 0.1099 0.1099 ( 10912 PWs)   bands (ev):

    -6.3574  -6.3574  -4.0289  -4.0113  -3.9834  -3.9834  -3.4238  -3.4238
    -3.2820  -3.2718  -3.2718  -3.2597   2.7727   2.7727   3.9491   3.9491
     4.4544   4.4686   6.0330   6.0330   8.9998

          k = 0.1111 0.1111 0.1111 ( 10912 PWs)   bands (ev):

    -6.3559  -6.3559  -4.0289  -4.0112  -3.9824  -3.9824  -3.4232  -3.4232
    -3.2819  -3.2715  -3.2715  -3.2594   2.7537   2.7537   3.9446   3.9446
     4.4507   4.4650   6.0411   6.0411   9.0064

          k = 0.1124 0.1124 0.1124 ( 10912 PWs)   bands (ev):

    -6.3543  -6.3543  -4.0288  -4.0111  -3.9815  -3.9815  -3.4225  -3.4225
    -3.2817  -3.2711  -3.2711  -3.2591   2.7347   2.7347   3.9401   3.9401
     4.4469   4.4614   6.0491   6.0491   9.0133

          k = 0.1136 0.1136 0.1136 ( 10924 PWs)   bands (ev):

    -6.3527  -6.3527  -4.0288  -4.0109  -3.9806  -3.9806  -3.4219  -3.4219
    -3.2816  -3.2708  -3.2708  -3.2588   2.7157   2.7157   3.9357   3.9357
     4.4432   4.4577   6.0570   6.0570   9.0203

          k = 0.1149 0.1149 0.1149 ( 10924 PWs)   bands (ev):

    -6.3510  -6.3510  -4.0288  -4.0108  -3.9796  -3.9796  -3.4213  -3.4213
    -3.2815  -3.2704  -3.2704  -3.2586   2.6967   2.6967   3.9312   3.9312
     4.4394   4.4540   6.0646   6.0646   9.0275

          k = 0.1162 0.1162 0.1162 ( 10924 PWs)   bands (ev):

    -6.3494  -6.3494  -4.0288  -4.0106  -3.9787  -3.9787  -3.4206  -3.4206
    -3.2813  -3.2701  -3.2701  -3.2583   2.6776   2.6776   3.9268   3.9268
     4.4356   4.4503   6.0721   6.0721   9.0349

          k = 0.1174 0.1174 0.1174 ( 10912 PWs)   bands (ev):

    -6.3478  -6.3478  -4.0288  -4.0105  -3.9777  -3.9777  -3.4199  -3.4199
    -3.2812  -3.2697  -3.2697  -3.2580   2.6586   2.6586   3.9224   3.9224
     4.4318   4.4466   6.0794   6.0794   9.0425

          k = 0.1187 0.1187 0.1187 ( 10912 PWs)   bands (ev):

    -6.3461  -6.3461  -4.0288  -4.0104  -3.9767  -3.9767  -3.4193  -3.4193
    -3.2811  -3.2693  -3.2693  -3.2577   2.6395   2.6395   3.9180   3.9180
     4.4280   4.4429   6.0865   6.0865   9.0502

          k = 0.1200 0.1200 0.1200 ( 10915 PWs)   bands (ev):

    -6.3445  -6.3445  -4.0287  -4.0102  -3.9757  -3.9757  -3.4186  -3.4186
    -3.2809  -3.2689  -3.2689  -3.2574   2.6204   2.6204   3.9136   3.9136
     4.4242   4.4391   6.0934   6.0934   9.0581

          k = 0.1212 0.1212 0.1212 ( 10915 PWs)   bands (ev):

    -6.3428  -6.3428  -4.0287  -4.0101  -3.9747  -3.9747  -3.4180  -3.4180
    -3.2808  -3.2685  -3.2685  -3.2571   2.6013   2.6013   3.9093   3.9093
     4.4204   4.4354   6.1002   6.1002   9.0662

          k = 0.1225 0.1225 0.1225 ( 10915 PWs)   bands (ev):

    -6.3411  -6.3411  -4.0287  -4.0100  -3.9737  -3.9737  -3.4173  -3.4173
    -3.2806  -3.2681  -3.2681  -3.2568   2.5822   2.5822   3.9049   3.9049
     4.4165   4.4316   6.1068   6.1068   9.0745

          k = 0.1237 0.1237 0.1237 ( 10909 PWs)   bands (ev):

    -6.3394  -6.3394  -4.0287  -4.0098  -3.9727  -3.9727  -3.4166  -3.4166
    -3.2805  -3.2677  -3.2677  -3.2565   2.5631   2.5631   3.9006   3.9006
     4.4127   4.4278   6.1132   6.1132   9.0830

          k = 0.1250 0.1250 0.1250 ( 10897 PWs)   bands (ev):

    -6.3377  -6.3377  -4.0286  -4.0097  -3.9717  -3.9717  -3.4160  -3.4160
    -3.2803  -3.2672  -3.2672  -3.2562   2.5440   2.5440   3.8962   3.8962
     4.4088   4.4240   6.1195   6.1195   9.0916

          k = 0.1263 0.1263 0.1263 ( 10897 PWs)   bands (ev):

    -6.3360  -6.3360  -4.0286  -4.0096  -3.9706  -3.9706  -3.4153  -3.4153
    -3.2801  -3.2668  -3.2668  -3.2559   2.5249   2.5249   3.8919   3.8919
     4.4049   4.4202   6.1256   6.1256   9.1004

          k = 0.1275 0.1275 0.1275 ( 10897 PWs)   bands (ev):

    -6.3343  -6.3343  -4.0286  -4.0094  -3.9696  -3.9696  -3.4146  -3.4146
    -3.2800  -3.2663  -3.2663  -3.2556   2.5059   2.5059   3.8876   3.8876
     4.4010   4.4164   6.1315   6.1315   9.1094

          k = 0.1288 0.1288 0.1288 ( 10897 PWs)   bands (ev):

    -6.3326  -6.3326  -4.0285  -4.0093  -3.9686  -3.9686  -3.4140  -3.4140
    -3.2798  -3.2658  -3.2658  -3.2553   2.4868   2.4868   3.8833   3.8833
     4.3971   4.4125   6.1372   6.1372   9.1186

          k = 0.1301 0.1301 0.1301 ( 10897 PWs)   bands (ev):

    -6.3309  -6.3309  -4.0285  -4.0092  -3.9675  -3.9675  -3.4133  -3.4133
    -3.2796  -3.2653  -3.2653  -3.2550   2.4677   2.4677   3.8790   3.8790
     4.3932   4.4087   6.1428   6.1428   9.1279

          k = 0.1313 0.1313 0.1313 ( 10897 PWs)   bands (ev):

    -6.3291  -6.3291  -4.0285  -4.0090  -3.9664  -3.9664  -3.4126  -3.4126
    -3.2795  -3.2648  -3.2648  -3.2547   2.4486   2.4486   3.8747   3.8747
     4.3893   4.4048   6.1482   6.1482   9.1374

          k = 0.1326 0.1326 0.1326 ( 10897 PWs)   bands (ev):

    -6.3274  -6.3274  -4.0284  -4.0089  -3.9653  -3.9653  -3.4120  -3.4120
    -3.2793  -3.2643  -3.2643  -3.2544   2.4296   2.4296   3.8705   3.8705
     4.3854   4.4009   6.1534   6.1534   9.1471

          k = 0.1338 0.1338 0.1338 ( 10897 PWs)   bands (ev):

    -6.3256  -6.3256  -4.0284  -4.0088  -3.9643  -3.9643  -3.4113  -3.4113
    -3.2791  -3.2638  -3.2638  -3.2541   2.4105   2.4105   3.8662   3.8662
     4.3814   4.3970   6.1585   6.1585   9.1569

          k = 0.1351 0.1351 0.1351 ( 10891 PWs)   bands (ev):

    -6.3239  -6.3239  -4.0284  -4.0087  -3.9632  -3.9632  -3.4106  -3.4106
    -3.2789  -3.2632  -3.2632  -3.2538   2.3915   2.3915   3.8620   3.8620
     4.3775   4.3932   6.1634   6.1634   9.1669

          k = 0.1364 0.1364 0.1364 ( 10891 PWs)   bands (ev):

    -6.3221  -6.3221  -4.0283  -4.0085  -3.9621  -3.9621  -3.4100  -3.4100
    -3.2787  -3.2626  -3.2626  -3.2535   2.3725   2.3725   3.8577   3.8577
     4.3735   4.3893   6.1682   6.1682   9.1770

          k = 0.1376 0.1376 0.1376 ( 10891 PWs)   bands (ev):

    -6.3203  -6.3203  -4.0283  -4.0084  -3.9610  -3.9610  -3.4093  -3.4093
    -3.2785  -3.2621  -3.2621  -3.2532   2.3535   2.3535   3.8535   3.8535
     4.3696   4.3853   6.1728   6.1728   9.1872

          k = 0.1389 0.1389 0.1389 ( 10897 PWs)   bands (ev):

    -6.3185  -6.3185  -4.0282  -4.0083  -3.9598  -3.9598  -3.4086  -3.4086
    -3.2784  -3.2615  -3.2615  -3.2530   2.3345   2.3345   3.8493   3.8493
     4.3656   4.3814   6.1772   6.1772   9.1976

          k = 0.1402 0.1402 0.1402 ( 10897 PWs)   bands (ev):

    -6.3167  -6.3167  -4.0282  -4.0082  -3.9587  -3.9587  -3.4080  -3.4080
    -3.2782  -3.2608  -3.2608  -3.2527   2.3155   2.3155   3.8451   3.8451
     4.3616   4.3775   6.1815   6.1815   9.2081

          k = 0.1414 0.1414 0.1414 ( 10897 PWs)   bands (ev):

    -6.3149  -6.3149  -4.0281  -4.0080  -3.9576  -3.9576  -3.4073  -3.4073
    -3.2780  -3.2602  -3.2602  -3.2524   2.2966   2.2966   3.8409   3.8409
     4.3577   4.3736   6.1856   6.1856   9.2186

          k = 0.1427 0.1427 0.1427 ( 10897 PWs)   bands (ev):

    -6.3131  -6.3131  -4.0281  -4.0079  -3.9565  -3.9565  -3.4067  -3.4067
    -3.2778  -3.2596  -3.2596  -3.2521   2.2776   2.2776   3.8367   3.8367
     4.3537   4.3696   6.1896   6.1896   9.2292

          k = 0.1439 0.1439 0.1439 ( 10897 PWs)   bands (ev):

    -6.3113  -6.3113  -4.0281  -4.0078  -3.9553  -3.9553  -3.4060  -3.4060
    -3.2776  -3.2589  -3.2589  -3.2518   2.2587   2.2587   3.8325   3.8325
     4.3497   4.3657   6.1934   6.1934   9.2398

          k = 0.1452 0.1452 0.1452 ( 10900 PWs)   bands (ev):

    -6.3095  -6.3095  -4.0280  -4.0077  -3.9542  -3.9542  -3.4053  -3.4053
    -3.2774  -3.2582  -3.2582  -3.2515   2.2398   2.2398   3.8283   3.8283
     4.3457   4.3618   6.1971   6.1971   9.2504

          k = 0.1465 0.1465 0.1465 ( 10894 PWs)   bands (ev):

    -6.3077  -6.3077  -4.0279  -4.0076  -3.9530  -3.9530  -3.4047  -3.4047
    -3.2771  -3.2575  -3.2575  -3.2512   2.2210   2.2210   3.8241   3.8241
     4.3418   4.3578   6.2006   6.2006   9.2610

          k = 0.1477 0.1477 0.1477 ( 10900 PWs)   bands (ev):

    -6.3058  -6.3058  -4.0279  -4.0075  -3.9518  -3.9518  -3.4040  -3.4040
    -3.2769  -3.2568  -3.2568  -3.2509   2.2022   2.2022   3.8200   3.8200
     4.3378   4.3539   6.2040   6.2040   9.2714

          k = 0.1490 0.1490 0.1490 ( 10900 PWs)   bands (ev):

    -6.3040  -6.3040  -4.0278  -4.0074  -3.9507  -3.9507  -3.4034  -3.4034
    -3.2767  -3.2561  -3.2561  -3.2506   2.1834   2.1834   3.8158   3.8158
     4.3338   4.3499   6.2072   6.2072   9.2817

          k = 0.1503 0.1503 0.1503 ( 10900 PWs)   bands (ev):

    -6.3021  -6.3021  -4.0278  -4.0072  -3.9495  -3.9495  -3.4028  -3.4028
    -3.2765  -3.2553  -3.2553  -3.2503   2.1646   2.1646   3.8117   3.8117
     4.3298   4.3459   6.2103   6.2103   9.2917

          k = 0.1515 0.1515 0.1515 ( 10900 PWs)   bands (ev):

    -6.3003  -6.3003  -4.0277  -4.0071  -3.9483  -3.9483  -3.4021  -3.4021
    -3.2763  -3.2545  -3.2545  -3.2500   2.1458   2.1458   3.8075   3.8075
     4.3258   4.3420   6.2133   6.2133   9.3014

          k = 0.1528 0.1528 0.1528 ( 10900 PWs)   bands (ev):

    -6.2985  -6.2985  -4.0277  -4.0070  -3.9471  -3.9471  -3.4015  -3.4015
    -3.2761  -3.2537  -3.2537  -3.2498   2.1271   2.1271   3.8034   3.8034
     4.3218   4.3380   6.2161   6.2161   9.3106

          k = 0.1540 0.1540 0.1540 ( 10900 PWs)   bands (ev):

    -6.2966  -6.2966  -4.0276  -4.0069  -3.9459  -3.9459  -3.4009  -3.4009
    -3.2758  -3.2529  -3.2529  -3.2495   2.1085   2.1085   3.7993   3.7993
     4.3179   4.3341   6.2188   6.2188   9.3193

          k = 0.1553 0.1553 0.1553 ( 10900 PWs)   bands (ev):

    -6.2947  -6.2947  -4.0276  -4.0068  -3.9447  -3.9447  -3.4002  -3.4002
    -3.2756  -3.2521  -3.2521  -3.2492   2.0898   2.0898   3.7952   3.7952
     4.3139   4.3301   6.2214   6.2214   9.3275

          k = 0.1566 0.1566 0.1566 ( 10912 PWs)   bands (ev):

    -6.2929  -6.2929  -4.0275  -4.0067  -3.9435  -3.9435  -3.3996  -3.3996
    -3.2754  -3.2512  -3.2512  -3.2489   2.0712   2.0712   3.7911   3.7911
     4.3099   4.3261   6.2238   6.2238   9.3351

          k = 0.1578 0.1578 0.1578 ( 10906 PWs)   bands (ev):

    -6.2910  -6.2910  -4.0274  -4.0066  -3.9423  -3.9423  -3.3990  -3.3990
    -3.2751  -3.2504  -3.2504  -3.2486   2.0526   2.0526   3.7870   3.7870
     4.3059   4.3222   6.2261   6.2261   9.3422

          k = 0.1591 0.1591 0.1591 ( 10906 PWs)   bands (ev):

    -6.2891  -6.2891  -4.0274  -4.0065  -3.9410  -3.9410  -3.3984  -3.3984
    -3.2749  -3.2495  -3.2495  -3.2483   2.0341   2.0341   3.7830   3.7830
     4.3020   4.3182   6.2283   6.2283   9.3488

          k = 0.1604 0.1604 0.1604 ( 10906 PWs)   bands (ev):

    -6.2873  -6.2873  -4.0273  -4.0064  -3.9398  -3.9398  -3.3978  -3.3978
    -3.2747  -3.2485  -3.2485  -3.2480   2.0156   2.0156   3.7789   3.7789
     4.2980   4.3142   6.2303   6.2303   9.3549

          k = 0.1616 0.1616 0.1616 ( 10906 PWs)   bands (ev):

    -6.2854  -6.2854  -4.0272  -4.0063  -3.9386  -3.9386  -3.3972  -3.3972
    -3.2744  -3.2478  -3.2476  -3.2476   1.9971   1.9971   3.7749   3.7749
     4.2940   4.3103   6.2323   6.2323   9.3607

          k = 0.1629 0.1629 0.1629 ( 10906 PWs)   bands (ev):

    -6.2835  -6.2835  -4.0272  -4.0062  -3.9373  -3.9373  -3.3966  -3.3966
    -3.2742  -3.2475  -3.2466  -3.2466   1.9787   1.9787   3.7708   3.7708
     4.2901   4.3063   6.2341   6.2341   9.3661

          k = 0.1641 0.1641 0.1641 ( 10906 PWs)   bands (ev):

    -6.2816  -6.2816  -4.0271  -4.0061  -3.9361  -3.9361  -3.3960  -3.3960
    -3.2739  -3.2472  -3.2457  -3.2457   1.9603   1.9603   3.7668   3.7668
     4.2861   4.3024   6.2358   6.2358   9.3712

          k = 0.1654 0.1654 0.1654 ( 10906 PWs)   bands (ev):

    -6.2798  -6.2798  -4.0270  -4.0060  -3.9348  -3.9348  -3.3954  -3.3954
    -3.2737  -3.2469  -3.2447  -3.2447   1.9420   1.9420   3.7628   3.7628
     4.2822   4.2984   6.2374   6.2374   9.3761

          k = 0.1667 0.1667 0.1667 ( 10909 PWs)   bands (ev):

    -6.2779  -6.2779  -4.0270  -4.0059  -3.9336  -3.9336  -3.3948  -3.3948
    -3.2735  -3.2466  -3.2436  -3.2436   1.9237   1.9237   3.7588   3.7588
     4.2782   4.2945   6.2389   6.2389   9.3808

          k = 0.1679 0.1679 0.1679 ( 10906 PWs)   bands (ev):

    -6.2760  -6.2760  -4.0269  -4.0058  -3.9323  -3.9323  -3.3943  -3.3943
    -3.2732  -3.2464  -3.2426  -3.2426   1.9055   1.9055   3.7548   3.7548
     4.2743   4.2905   6.2402   6.2402   9.3852

          k = 0.1692 0.1692 0.1692 ( 10906 PWs)   bands (ev):

    -6.2741  -6.2741  -4.0268  -4.0057  -3.9311  -3.9311  -3.3937  -3.3937
    -3.2729  -3.2461  -3.2415  -3.2415   1.8873   1.8873   3.7508   3.7508
     4.2703   4.2866   6.2415   6.2415   9.3896

          k = 0.1705 0.1705 0.1705 ( 10918 PWs)   bands (ev):

    -6.2722  -6.2722  -4.0267  -4.0057  -3.9298  -3.9298  -3.3932  -3.3932
    -3.2727  -3.2458  -3.2404  -3.2404   1.8691   1.8691   3.7468   3.7468
     4.2664   4.2827   6.2427   6.2427   9.3938

          k = 0.1717 0.1717 0.1717 ( 10912 PWs)   bands (ev):

    -6.2703  -6.2703  -4.0267  -4.0056  -3.9285  -3.9285  -3.3926  -3.3926
    -3.2724  -3.2455  -3.2393  -3.2393   1.8510   1.8510   3.7429   3.7429
     4.2625   4.2788   6.2437   6.2437   9.3978

          k = 0.1730 0.1730 0.1730 ( 10912 PWs)   bands (ev):

    -6.2685  -6.2685  -4.0266  -4.0055  -3.9272  -3.9272  -3.3921  -3.3921
    -3.2722  -3.2453  -3.2382  -3.2382   1.8329   1.8329   3.7389   3.7389
     4.2586   4.2748   6.2447   6.2447   9.4017

          k = 0.1743 0.1743 0.1743 ( 10912 PWs)   bands (ev):

    -6.2666  -6.2666  -4.0265  -4.0054  -3.9260  -3.9260  -3.3915  -3.3915
    -3.2719  -3.2450  -3.2370  -3.2370   1.8149   1.8149   3.7350   3.7350
     4.2547   4.2709   6.2456   6.2456   9.4056

          k = 0.1755 0.1755 0.1755 ( 10912 PWs)   bands (ev):

    -6.2647  -6.2647  -4.0264  -4.0053  -3.9247  -3.9247  -3.3910  -3.3910
    -3.2716  -3.2447  -3.2359  -3.2359   1.7970   1.7970   3.7311   3.7311
     4.2508   4.2670   6.2463   6.2463   9.4093

          k = 0.1768 0.1768 0.1768 ( 10906 PWs)   bands (ev):

    -6.2628  -6.2628  -4.0263  -4.0052  -3.9234  -3.9234  -3.3905  -3.3905
    -3.2714  -3.2444  -3.2346  -3.2346   1.7791   1.7791   3.7272   3.7272
     4.2469   4.2631   6.2470   6.2470   9.4129

          k = 0.1780 0.1780 0.1780 ( 10912 PWs)   bands (ev):

    -6.2609  -6.2609  -4.0263  -4.0052  -3.9221  -3.9221  -3.3900  -3.3900
    -3.2711  -3.2442  -3.2334  -3.2334   1.7612   1.7612   3.7233   3.7233
     4.2431   4.2592   6.2476   6.2476   9.4165

          k = 0.1793 0.1793 0.1793 ( 10912 PWs)   bands (ev):

    -6.2590  -6.2590  -4.0262  -4.0051  -3.9208  -3.9208  -3.3895  -3.3895
    -3.2708  -3.2439  -3.2322  -3.2322   1.7434   1.7434   3.7194   3.7194
     4.2392   4.2554   6.2481   6.2481   9.4199

          k = 0.1806 0.1806 0.1806 ( 10912 PWs)   bands (ev):

    -6.2571  -6.2571  -4.0261  -4.0050  -3.9195  -3.9195  -3.3890  -3.3890
    -3.2706  -3.2436  -3.2309  -3.2309   1.7257   1.7257   3.7155   3.7155
     4.2353   4.2515   6.2485   6.2485   9.4233

          k = 0.1818 0.1818 0.1818 ( 10912 PWs)   bands (ev):

    -6.2552  -6.2552  -4.0260  -4.0049  -3.9182  -3.9182  -3.3885  -3.3885
    -3.2703  -3.2434  -3.2296  -3.2296   1.7080   1.7080   3.7117   3.7117
     4.2315   4.2476   6.2489   6.2489   9.4266

          k = 0.1831 0.1831 0.1831 ( 10912 PWs)   bands (ev):

    -6.2534  -6.2534  -4.0259  -4.0049  -3.9169  -3.9169  -3.3880  -3.3880
    -3.2700  -3.2431  -3.2283  -3.2283   1.6904   1.6904   3.7078   3.7078
     4.2277   4.2438   6.2491   6.2491   9.4298

          k = 0.1844 0.1844 0.1844 ( 10912 PWs)   bands (ev):

    -6.2515  -6.2515  -4.0258  -4.0048  -3.9156  -3.9156  -3.3875  -3.3875
    -3.2697  -3.2429  -3.2269  -3.2269   1.6728   1.6728   3.7040   3.7040
     4.2239   4.2399   6.2493   6.2493   9.4330

          k = 0.1856 0.1856 0.1856 ( 10912 PWs)   bands (ev):

    -6.2496  -6.2496  -4.0257  -4.0047  -3.9143  -3.9143  -3.3871  -3.3871
    -3.2694  -3.2426  -3.2256  -3.2256   1.6553   1.6553   3.7002   3.7002
     4.2201   4.2361   6.2494   6.2494   9.4361

          k = 0.1869 0.1869 0.1869 ( 10906 PWs)   bands (ev):

    -6.2477  -6.2477  -4.0257  -4.0046  -3.9130  -3.9130  -3.3866  -3.3866
    -3.2692  -3.2423  -3.2242  -3.2242   1.6378   1.6378   3.6964   3.6964
     4.2163   4.2323   6.2494   6.2494   9.4391

          k = 0.1881 0.1881 0.1881 ( 10906 PWs)   bands (ev):

    -6.2459  -6.2459  -4.0256  -4.0046  -3.9117  -3.9117  -3.3862  -3.3862
    -3.2689  -3.2421  -3.2228  -3.2228   1.6204   1.6204   3.6926   3.6926
     4.2125   4.2285   6.2494   6.2494   9.4420

          k = 0.1894 0.1894 0.1894 ( 10906 PWs)   bands (ev):

    -6.2440  -6.2440  -4.0255  -4.0045  -3.9104  -3.9104  -3.3857  -3.3857
    -3.2686  -3.2418  -3.2213  -3.2213   1.6031   1.6031   3.6889   3.6889
     4.2087   4.2247   6.2493   6.2493   9.4449

          k = 0.1907 0.1907 0.1907 ( 10906 PWs)   bands (ev):

    -6.2421  -6.2421  -4.0254  -4.0045  -3.9090  -3.9090  -3.3853  -3.3853
    -3.2683  -3.2416  -3.2199  -3.2199   1.5858   1.5858   3.6851   3.6851
     4.2050   4.2209   6.2491   6.2491   9.4477

          k = 0.1919 0.1919 0.1919 ( 10924 PWs)   bands (ev):

    -6.2402  -6.2402  -4.0253  -4.0044  -3.9077  -3.9077  -3.3849  -3.3849
    -3.2680  -3.2413  -3.2184  -3.2184   1.5686   1.5686   3.6814   3.6814
     4.2013   4.2171   6.2488   6.2488   9.4504

          k = 0.1932 0.1932 0.1932 ( 10924 PWs)   bands (ev):

    -6.2384  -6.2384  -4.0252  -4.0043  -3.9064  -3.9064  -3.3845  -3.3845
    -3.2677  -3.2411  -3.2169  -3.2169   1.5515   1.5515   3.6777   3.6777
     4.1975   4.2134   6.2485   6.2485   9.4531

          k = 0.1945 0.1945 0.1945 ( 10915 PWs)   bands (ev):

    -6.2365  -6.2365  -4.0251  -4.0043  -3.9051  -3.9051  -3.3841  -3.3841
    -3.2674  -3.2408  -3.2153  -3.2153   1.5344   1.5344   3.6740   3.6740
     4.1938   4.2096   6.2481   6.2481   9.4557

          k = 0.1957 0.1957 0.1957 ( 10909 PWs)   bands (ev):

    -6.2347  -6.2347  -4.0250  -4.0042  -3.9038  -3.9038  -3.3837  -3.3837
    -3.2671  -3.2406  -3.2138  -3.2138   1.5174   1.5174   3.6703   3.6703
     4.1901   4.2059   6.2477   6.2477   9.4582

          k = 0.1970 0.1970 0.1970 ( 10909 PWs)   bands (ev):

    -6.2328  -6.2328  -4.0249  -4.0042  -3.9025  -3.9025  -3.3833  -3.3833
    -3.2668  -3.2403  -3.2122  -3.2122   1.5005   1.5005   3.6667   3.6667
     4.1865   4.2022   6.2472   6.2472   9.4607

          k = 0.1982 0.1982 0.1982 ( 10909 PWs)   bands (ev):

    -6.2310  -6.2310  -4.0248  -4.0041  -3.9011  -3.9011  -3.3829  -3.3829
    -3.2665  -3.2401  -3.2106  -3.2106   1.4836   1.4836   3.6630   3.6630
     4.1828   4.1985   6.2467   6.2467   9.4631

          k = 0.1995 0.1995 0.1995 ( 10903 PWs)   bands (ev):

    -6.2291  -6.2291  -4.0247  -4.0041  -3.8998  -3.8998  -3.3825  -3.3825
    -3.2662  -3.2399  -3.2090  -3.2090   1.4668   1.4668   3.6594   3.6594
     4.1792   4.1948   6.2461   6.2461   9.4654

          k = 0.2008 0.2008 0.2008 ( 10897 PWs)   bands (ev):

    -6.2273  -6.2273  -4.0246  -4.0040  -3.8985  -3.8985  -3.3822  -3.3822
    -3.2659  -3.2396  -3.2073  -3.2073   1.4501   1.4501   3.6558   3.6558
     4.1755   4.1911   6.2454   6.2454   9.4677

          k = 0.2020 0.2020 0.2020 ( 10897 PWs)   bands (ev):

    -6.2255  -6.2255  -4.0245  -4.0040  -3.8972  -3.8972  -3.3818  -3.3818
    -3.2656  -3.2394  -3.2057  -3.2057   1.4335   1.4335   3.6522   3.6522
     4.1719   4.1874   6.2447   6.2447   9.4699

          k = 0.2033 0.2033 0.2033 ( 10897 PWs)   bands (ev):

    -6.2236  -6.2236  -4.0244  -4.0039  -3.8959  -3.8959  -3.3815  -3.3815
    -3.2653  -3.2392  -3.2040  -3.2040   1.4169   1.4169   3.6486   3.6486
     4.1684   4.1838   6.2440   6.2440   9.4720

          k = 0.2046 0.2046 0.2046 ( 10897 PWs)   bands (ev):

    -6.2218  -6.2218  -4.0243  -4.0039  -3.8946  -3.8946  -3.3811  -3.3811
    -3.2650  -3.2389  -3.2023  -3.2023   1.4004   1.4004   3.6451   3.6451
     4.1648   4.1802   6.2432   6.2432   9.4741

          k = 0.2058 0.2058 0.2058 ( 10909 PWs)   bands (ev):

    -6.2200  -6.2200  -4.0242  -4.0038  -3.8933  -3.8933  -3.3808  -3.3808
    -3.2647  -3.2387  -3.2006  -3.2006   1.3840   1.3840   3.6415   3.6415
     4.1612   4.1766   6.2423   6.2423   9.4762

          k = 0.2071 0.2071 0.2071 ( 10909 PWs)   bands (ev):

    -6.2182  -6.2182  -4.0241  -4.0038  -3.8919  -3.8919  -3.3805  -3.3805
    -3.2644  -3.2385  -3.1988  -3.1988   1.3676   1.3676   3.6380   3.6380
     4.1577   4.1730   6.2415   6.2415   9.4781

          k = 0.2083 0.2083 0.2083 ( 10909 PWs)   bands (ev):

    -6.2164  -6.2164  -4.0240  -4.0038  -3.8906  -3.8906  -3.3802  -3.3802
    -3.2641  -3.2382  -3.1970  -3.1970   1.3513   1.3513   3.6345   3.6345
     4.1542   4.1694   6.2405   6.2405   9.4801

          k = 0.2096 0.2096 0.2096 ( 10909 PWs)   bands (ev):

    -6.2146  -6.2146  -4.0239  -4.0037  -3.8893  -3.8893  -3.3798  -3.3798
    -3.2638  -3.2380  -3.1952  -3.1952   1.3351   1.3351   3.6311   3.6311
     4.1507   4.1658   6.2396   6.2396   9.4819

          k = 0.2109 0.2109 0.2109 ( 10909 PWs)   bands (ev):

    -6.2128  -6.2128  -4.0238  -4.0037  -3.8880  -3.8880  -3.3795  -3.3795
    -3.2635  -3.2378  -3.1934  -3.1934   1.3190   1.3190   3.6276   3.6276
     4.1472   4.1623   6.2386   6.2386   9.4837

          k = 0.2121 0.2121 0.2121 ( 10897 PWs)   bands (ev):

    -6.2110  -6.2110  -4.0237  -4.0036  -3.8867  -3.8867  -3.3793  -3.3793
    -3.2632  -3.2376  -3.1916  -3.1916   1.3030   1.3030   3.6242   3.6242
     4.1438   4.1588   6.2375   6.2375   9.4854

          k = 0.2134 0.2134 0.2134 ( 10900 PWs)   bands (ev):

    -6.2092  -6.2092  -4.0236  -4.0036  -3.8854  -3.8854  -3.3790  -3.3790
    -3.2629  -3.2374  -3.1897  -3.1897   1.2870   1.2870   3.6208   3.6208
     4.1403   4.1553   6.2365   6.2365   9.4871

          k = 0.2147 0.2147 0.2147 ( 10900 PWs)   bands (ev):

    -6.2075  -6.2075  -4.0234  -4.0036  -3.8841  -3.8841  -3.3787  -3.3787
    -3.2626  -3.2371  -3.1879  -3.1879   1.2712   1.2712   3.6174   3.6174
     4.1369   4.1518   6.2354   6.2354   9.4887

          k = 0.2159 0.2159 0.2159 ( 10900 PWs)   bands (ev):

    -6.2057  -6.2057  -4.0233  -4.0036  -3.8828  -3.8828  -3.3784  -3.3784
    -3.2622  -3.2369  -3.1860  -3.1860   1.2554   1.2554   3.6140   3.6140
     4.1335   4.1483   6.2342   6.2342   9.4903

          k = 0.2172 0.2172 0.2172 ( 10903 PWs)   bands (ev):

    -6.2040  -6.2040  -4.0232  -4.0035  -3.8815  -3.8815  -3.3782  -3.3782
    -3.2619  -3.2367  -3.1841  -3.1841   1.2397   1.2397   3.6107   3.6107
     4.1302   4.1449   6.2330   6.2330   9.4918

          k = 0.2184 0.2184 0.2184 ( 10897 PWs)   bands (ev):

    -6.2022  -6.2022  -4.0231  -4.0035  -3.8802  -3.8802  -3.3779  -3.3779
    -3.2616  -3.2365  -3.1821  -3.1821   1.2241   1.2241   3.6073   3.6073
     4.1268   4.1415   6.2319   6.2319   9.4933

          k = 0.2197 0.2197 0.2197 ( 10897 PWs)   bands (ev):

    -6.2005  -6.2005  -4.0230  -4.0035  -3.8789  -3.8789  -3.3777  -3.3777
    -3.2613  -3.2363  -3.1802  -3.1802   1.2085   1.2085   3.6040   3.6040
     4.1235   4.1381   6.2306   6.2306   9.4947

          k = 0.2210 0.2210 0.2210 ( 10885 PWs)   bands (ev):

    -6.1987  -6.1987  -4.0229  -4.0035  -3.8777  -3.8777  -3.3774  -3.3774
    -3.2610  -3.2361  -3.1782  -3.1782   1.1931   1.1931   3.6007   3.6007
     4.1202   4.1347   6.2294   6.2294   9.4960

          k = 0.2222 0.2222 0.2222 ( 10885 PWs)   bands (ev):

    -6.1970  -6.1970  -4.0228  -4.0034  -3.8764  -3.8764  -3.3772  -3.3772
    -3.2607  -3.2359  -3.1763  -3.1763   1.1777   1.1777   3.5975   3.5975
     4.1169   4.1313   6.2281   6.2281   9.4973

          k = 0.2235 0.2235 0.2235 ( 10885 PWs)   bands (ev):

    -6.1953  -6.1953  -4.0227  -4.0034  -3.8751  -3.8751  -3.3770  -3.3770
    -3.2603  -3.2357  -3.1743  -3.1743   1.1625   1.1625   3.5943   3.5943
     4.1136   4.1280   6.2268   6.2268   9.4986

          k = 0.2248 0.2248 0.2248 ( 10879 PWs)   bands (ev):

    -6.1936  -6.1936  -4.0225  -4.0034  -3.8738  -3.8738  -3.3767  -3.3767
    -3.2600  -3.2355  -3.1722  -3.1722   1.1473   1.1473   3.5910   3.5910
     4.1104   4.1246   6.2255   6.2255   9.4998

          k = 0.2260 0.2260 0.2260 ( 10879 PWs)   bands (ev):

    -6.1919  -6.1919  -4.0224  -4.0034  -3.8726  -3.8726  -3.3765  -3.3765
    -3.2597  -3.2353  -3.1702  -3.1702   1.1322   1.1322   3.5878   3.5878
     4.1072   4.1214   6.2241   6.2241   9.5009

          k = 0.2273 0.2273 0.2273 ( 10873 PWs)   bands (ev):

    -6.1902  -6.1902  -4.0223  -4.0034  -3.8713  -3.8713  -3.3763  -3.3763
    -3.2594  -3.2351  -3.1682  -3.1682   1.1172   1.1172   3.5847   3.5847
     4.1040   4.1181   6.2228   6.2228   9.5020

          k = 0.2285 0.2285 0.2285 ( 10873 PWs)   bands (ev):

    -6.1886  -6.1886  -4.0222  -4.0034  -3.8700  -3.8700  -3.3761  -3.3761
    -3.2591  -3.2349  -3.1661  -3.1661   1.1023   1.1023   3.5815   3.5815
     4.1008   4.1148   6.2214   6.2214   9.5031

          k = 0.2298 0.2298 0.2298 ( 10873 PWs)   bands (ev):

    -6.1869  -6.1869  -4.0221  -4.0033  -3.8688  -3.8688  -3.3759  -3.3759
    -3.2587  -3.2347  -3.1640  -3.1640   1.0875   1.0875   3.5784   3.5784
     4.0977   4.1116   6.2200   6.2200   9.5041

          k = 0.2311 0.2311 0.2311 ( 10873 PWs)   bands (ev):

    -6.1852  -6.1852  -4.0220  -4.0033  -3.8676  -3.8676  -3.3757  -3.3757
    -3.2584  -3.2346  -3.1619  -3.1619   1.0728   1.0728   3.5753   3.5753
     4.0946   4.1084   6.2186   6.2186   9.5050

          k = 0.2323 0.2323 0.2323 ( 10873 PWs)   bands (ev):

    -6.1836  -6.1836  -4.0218  -4.0033  -3.8663  -3.8663  -3.3755  -3.3755
    -3.2581  -3.2344  -3.1598  -3.1598   1.0582   1.0582   3.5722   3.5722
     4.0915   4.1052   6.2172   6.2172   9.5059

          k = 0.2336 0.2336 0.2336 ( 10873 PWs)   bands (ev):

    -6.1820  -6.1820  -4.0217  -4.0033  -3.8651  -3.8651  -3.3754  -3.3754
    -3.2578  -3.2342  -3.1577  -3.1577   1.0437   1.0437   3.5692   3.5692
     4.0884   4.1020   6.2157   6.2157   9.5068

          k = 0.2349 0.2349 0.2349 ( 10873 PWs)   bands (ev):

    -6.1803  -6.1803  -4.0216  -4.0033  -3.8639  -3.8639  -3.3752  -3.3752
    -3.2575  -3.2340  -3.1556  -3.1556   1.0293   1.0293   3.5662   3.5662
     4.0854   4.0989   6.2143   6.2143   9.5076

          k = 0.2361 0.2361 0.2361 ( 10873 PWs)   bands (ev):

    -6.1787  -6.1787  -4.0215  -4.0033  -3.8626  -3.8626  -3.3750  -3.3750
    -3.2571  -3.2339  -3.1535  -3.1535   1.0150   1.0150   3.5632   3.5632
     4.0824   4.0958   6.2128   6.2128   9.5084

          k = 0.2374 0.2374 0.2374 ( 10873 PWs)   bands (ev):

    -6.1771  -6.1771  -4.0214  -4.0033  -3.8614  -3.8614  -3.3749  -3.3749
    -3.2568  -3.2337  -3.1513  -3.1513   1.0008   1.0008   3.5602   3.5602
     4.0794   4.0927   6.2113   6.2113   9.5091

          k = 0.2386 0.2386 0.2386 ( 10873 PWs)   bands (ev):

    -6.1755  -6.1755  -4.0212  -4.0033  -3.8602  -3.8602  -3.3747  -3.3747
    -3.2565  -3.2335  -3.1492  -3.1492   0.9867   0.9867   3.5573   3.5573
     4.0764   4.0896   6.2099   6.2099   9.5098

          k = 0.2399 0.2399 0.2399 ( 10873 PWs)   bands (ev):

    -6.1740  -6.1740  -4.0211  -4.0033  -3.8590  -3.8590  -3.3746  -3.3746
    -3.2562  -3.2334  -3.1470  -3.1470   0.9727   0.9727   3.5543   3.5543
     4.0735   4.0866   6.2084   6.2084   9.5105

          k = 0.2412 0.2412 0.2412 ( 10873 PWs)   bands (ev):

    -6.1724  -6.1724  -4.0210  -4.0033  -3.8578  -3.8578  -3.3744  -3.3744
    -3.2558  -3.2332  -3.1448  -3.1448   0.9588   0.9588   3.5514   3.5514
     4.0706   4.0836   6.2069   6.2069   9.5111

          k = 0.2424 0.2424 0.2424 ( 10873 PWs)   bands (ev):

    -6.1709  -6.1709  -4.0209  -4.0033  -3.8566  -3.8566  -3.3743  -3.3743
    -3.2555  -3.2330  -3.1426  -3.1426   0.9451   0.9451   3.5486   3.5486
     4.0677   4.0806   6.2054   6.2054   9.5117

          k = 0.2437 0.2437 0.2437 ( 10873 PWs)   bands (ev):

    -6.1693  -6.1693  -4.0208  -4.0034  -3.8555  -3.8555  -3.3741  -3.3741
    -3.2552  -3.2329  -3.1404  -3.1404   0.9314   0.9314   3.5457   3.5457
     4.0648   4.0776   6.2039   6.2039   9.5122

          k = 0.2450 0.2450 0.2450 ( 10873 PWs)   bands (ev):

    -6.1678  -6.1678  -4.0206  -4.0034  -3.8543  -3.8543  -3.3740  -3.3740
    -3.2549  -3.2327  -3.1382  -3.1382   0.9178   0.9178   3.5429   3.5429
     4.0620   4.0747   6.2023   6.2023   9.5127

          k = 0.2462 0.2462 0.2462 ( 10873 PWs)   bands (ev):

    -6.1663  -6.1663  -4.0205  -4.0034  -3.8531  -3.8531  -3.3739  -3.3739
    -3.2546  -3.2326  -3.1360  -3.1360   0.9044   0.9044   3.5401   3.5401
     4.0592   4.0718   6.2008   6.2008   9.5132

          k = 0.2475 0.2475 0.2475 ( 10879 PWs)   bands (ev):

    -6.1648  -6.1648  -4.0204  -4.0034  -3.8520  -3.8520  -3.3738  -3.3738
    -3.2542  -3.2324  -3.1338  -3.1338   0.8910   0.8910   3.5374   3.5374
     4.0564   4.0689   6.1993   6.1993   9.5136

          k = 0.2488 0.2488 0.2488 ( 10891 PWs)   bands (ev):

    -6.1633  -6.1633  -4.0203  -4.0034  -3.8508  -3.8508  -3.3736  -3.3736
    -3.2539  -3.2323  -3.1316  -3.1316   0.8778   0.8778   3.5346   3.5346
     4.0537   4.0661   6.1978   6.1978   9.5140

          k = 0.2500 0.2500 0.2500 ( 10891 PWs)   bands (ev):

    -6.1618  -6.1618  -4.0201  -4.0034  -3.8497  -3.8497  -3.3735  -3.3735
    -3.2536  -3.2322  -3.1294  -3.1294   0.8647   0.8647   3.5319   3.5319
     4.0510   4.0632   6.1963   6.1963   9.5143

          k = 0.2513 0.2513 0.2513 ( 10891 PWs)   bands (ev):

    -6.1603  -6.1603  -4.0200  -4.0034  -3.8486  -3.8486  -3.3734  -3.3734
    -3.2533  -3.2320  -3.1271  -3.1271   0.8517   0.8517   3.5292   3.5292
     4.0483   4.0604   6.1947   6.1947   9.5147

          k = 0.2525 0.2525 0.2525 ( 10888 PWs)   bands (ev):

    -6.1589  -6.1589  -4.0199  -4.0035  -3.8474  -3.8474  -3.3733  -3.3733
    -3.2529  -3.2319  -3.1249  -3.1249   0.8388   0.8388   3.5266   3.5266
     4.0456   4.0577   6.1932   6.1932   9.5150

          k = 0.2538 0.2538 0.2538 ( 10894 PWs)   bands (ev):

    -6.1574  -6.1574  -4.0197  -4.0035  -3.8463  -3.8463  -3.3732  -3.3732
    -3.2526  -3.2318  -3.1226  -3.1226   0.8260   0.8260   3.5240   3.5240
     4.0430   4.0549   6.1917   6.1917   9.5152

          k = 0.2551 0.2551 0.2551 ( 10891 PWs)   bands (ev):

    -6.1560  -6.1560  -4.0196  -4.0035  -3.8452  -3.8452  -3.3731  -3.3731
    -3.2523  -3.2316  -3.1204  -3.1204   0.8134   0.8134   3.5214   3.5214
     4.0404   4.0522   6.1902   6.1902   9.5155

          k = 0.2563 0.2563 0.2563 ( 10885 PWs)   bands (ev):

    -6.1546  -6.1546  -4.0195  -4.0035  -3.8441  -3.8441  -3.3730  -3.3730
    -3.2520  -3.2315  -3.1182  -3.1182   0.8008   0.8008   3.5188   3.5188
     4.0378   4.0495   6.1887   6.1887   9.5157

          k = 0.2576 0.2576 0.2576 ( 10885 PWs)   bands (ev):

    -6.1532  -6.1532  -4.0194  -4.0036  -3.8430  -3.8430  -3.3729  -3.3729
    -3.2517  -3.2314  -3.1159  -3.1159   0.7884   0.7884   3.5163   3.5163
     4.0353   4.0468   6.1872   6.1872   9.5158

          k = 0.2589 0.2589 0.2589 ( 10885 PWs)   bands (ev):

    -6.1518  -6.1518  -4.0192  -4.0036  -3.8420  -3.8420  -3.3728  -3.3728
    -3.2514  -3.2313  -3.1137  -3.1137   0.7761   0.7761   3.5137   3.5137
     4.0327   4.0442   6.1856   6.1856   9.5160

          k = 0.2601 0.2601 0.2601 ( 10891 PWs)   bands (ev):

    -6.1505  -6.1505  -4.0191  -4.0036  -3.8409  -3.8409  -3.3728  -3.3728
    -3.2510  -3.2312  -3.1114  -3.1114   0.7639   0.7639   3.5113   3.5113
     4.0303   4.0416   6.1841   6.1841   9.5161

          k = 0.2614 0.2614 0.2614 ( 10891 PWs)   bands (ev):

    -6.1491  -6.1491  -4.0190  -4.0037  -3.8399  -3.8399  -3.3727  -3.3727
    -3.2507  -3.2310  -3.1092  -3.1092   0.7519   0.7519   3.5088   3.5088
     4.0278   4.0390   6.1827   6.1827   9.5162

          k = 0.2626 0.2626 0.2626 ( 10891 PWs)   bands (ev):

    -6.1478  -6.1478  -4.0188  -4.0037  -3.8388  -3.8388  -3.3726  -3.3726
    -3.2504  -3.2309  -3.1070  -3.1070   0.7400   0.7400   3.5064   3.5064
     4.0254   4.0365   6.1812   6.1812   9.5163

          k = 0.2639 0.2639 0.2639 ( 10891 PWs)   bands (ev):

    -6.1464  -6.1464  -4.0187  -4.0037  -3.8378  -3.8378  -3.3725  -3.3725
    -3.2501  -3.2308  -3.1047  -3.1047   0.7282   0.7282   3.5040   3.5040
     4.0230   4.0339   6.1797   6.1797   9.5163

          k = 0.2652 0.2652 0.2652 ( 10891 PWs)   bands (ev):

    -6.1451  -6.1451  -4.0186  -4.0038  -3.8368  -3.8368  -3.3725  -3.3725
    -3.2498  -3.2307  -3.1025  -3.1025   0.7165   0.7165   3.5016   3.5016
     4.0206   4.0315   6.1782   6.1782   9.5164

          k = 0.2664 0.2664 0.2664 ( 10891 PWs)   bands (ev):

    -6.1438  -6.1438  -4.0185  -4.0038  -3.8358  -3.8358  -3.3724  -3.3724
    -3.2495  -3.2306  -3.1003  -3.1003   0.7050   0.7050   3.4993   3.4993
     4.0183   4.0290   6.1768   6.1768   9.5164

          k = 0.2677 0.2677 0.2677 ( 10903 PWs)   bands (ev):

    -6.1426  -6.1426  -4.0183  -4.0038  -3.8348  -3.8348  -3.3723  -3.3723
    -3.2492  -3.2305  -3.0980  -3.0980   0.6936   0.6936   3.4970   3.4970
     4.0160   4.0266   6.1753   6.1753   9.5164

          k = 0.2690 0.2690 0.2690 ( 10903 PWs)   bands (ev):

    -6.1413  -6.1413  -4.0182  -4.0039  -3.8338  -3.8338  -3.3723  -3.3723
    -3.2488  -3.2305  -3.0958  -3.0958   0.6823   0.6823   3.4947   3.4947
     4.0137   4.0242   6.1739   6.1739   9.5163

          k = 0.2702 0.2702 0.2702 ( 10903 PWs)   bands (ev):

    -6.1401  -6.1401  -4.0181  -4.0039  -3.8328  -3.8328  -3.3722  -3.3722
    -3.2485  -3.2304  -3.0936  -3.0936   0.6712   0.6712   3.4924   3.4924
     4.0115   4.0218   6.1724   6.1724   9.5163

          k = 0.2715 0.2715 0.2715 ( 10903 PWs)   bands (ev):

    -6.1388  -6.1388  -4.0179  -4.0040  -3.8318  -3.8318  -3.3722  -3.3722
    -3.2482  -3.2303  -3.0914  -3.0914   0.6602   0.6602   3.4902   3.4902
     4.0093   4.0195   6.1710   6.1710   9.5162

          k = 0.2727 0.2727 0.2727 ( 10903 PWs)   bands (ev):

    -6.1376  -6.1376  -4.0178  -4.0040  -3.8309  -3.8309  -3.3721  -3.3721
    -3.2479  -3.2302  -3.0892  -3.0892   0.6493   0.6493   3.4880   3.4880
     4.0071   4.0171   6.1696   6.1696   9.5161

          k = 0.2740 0.2740 0.2740 ( 10909 PWs)   bands (ev):

    -6.1364  -6.1364  -4.0177  -4.0041  -3.8299  -3.8299  -3.3720  -3.3720
    -3.2476  -3.2301  -3.0870  -3.0870   0.6386   0.6386   3.4859   3.4859
     4.0049   4.0149   6.1682   6.1682   9.5160

          k = 0.2753 0.2753 0.2753 ( 10909 PWs)   bands (ev):

    -6.1352  -6.1352  -4.0175  -4.0041  -3.8290  -3.8290  -3.3720  -3.3720
    -3.2473  -3.2300  -3.0849  -3.0849   0.6280   0.6280   3.4838   3.4838
     4.0028   4.0126   6.1668   6.1668   9.5159

          k = 0.2765 0.2765 0.2765 ( 10915 PWs)   bands (ev):

    -6.1341  -6.1341  -4.0174  -4.0042  -3.8281  -3.8281  -3.3720  -3.3720
    -3.2470  -3.2300  -3.0827  -3.0827   0.6175   0.6175   3.4817   3.4817
     4.0008   4.0104   6.1654   6.1654   9.5158

          k = 0.2778 0.2778 0.2778 ( 10924 PWs)   bands (ev):

    -6.1329  -6.1329  -4.0173  -4.0042  -3.8272  -3.8272  -3.3719  -3.3719
    -3.2467  -3.2299  -3.0806  -3.0806   0.6072   0.6072   3.4796   3.4796
     3.9987   4.0082   6.1641   6.1641   9.5156

          k = 0.2791 0.2791 0.2791 ( 10924 PWs)   bands (ev):

    -6.1318  -6.1318  -4.0171  -4.0043  -3.8263  -3.8263  -3.3719  -3.3719
    -3.2464  -3.2298  -3.0784  -3.0784   0.5970   0.5970   3.4776   3.4776
     3.9967   4.0061   6.1627   6.1627   9.5154

          k = 0.2803 0.2803 0.2803 ( 10925 PWs)   bands (ev):

    -6.1307  -6.1307  -4.0170  -4.0043  -3.8254  -3.8254  -3.3718  -3.3718
    -3.2461  -3.2298  -3.0763  -3.0763   0.5870   0.5870   3.4756   3.4756
     3.9947   4.0039   6.1614   6.1614   9.5153

          k = 0.2816 0.2816 0.2816 ( 10931 PWs)   bands (ev):

    -6.1296  -6.1296  -4.0169  -4.0044  -3.8245  -3.8245  -3.3718  -3.3718
    -3.2458  -3.2297  -3.0742  -3.0742   0.5771   0.5771   3.4736   3.4736
     3.9928   4.0018   6.1601   6.1601   9.5151

          k = 0.2828 0.2828 0.2828 ( 10931 PWs)   bands (ev):

    -6.1285  -6.1285  -4.0167  -4.0044  -3.8237  -3.8237  -3.3718  -3.3718
    -3.2455  -3.2297  -3.0721  -3.0721   0.5673   0.5673   3.4717   3.4717
     3.9908   3.9998   6.1588   6.1588   9.5149

          k = 0.2841 0.2841 0.2841 ( 10931 PWs)   bands (ev):

    -6.1274  -6.1274  -4.0166  -4.0045  -3.8228  -3.8228  -3.3717  -3.3717
    -3.2452  -3.2296  -3.0700  -3.0700   0.5577   0.5577   3.4698   3.4698
     3.9890   3.9978   6.1575   6.1575   9.5147

          k = 0.2854 0.2854 0.2854 ( 10919 PWs)   bands (ev):

    -6.1263  -6.1263  -4.0165  -4.0045  -3.8220  -3.8220  -3.3717  -3.3717
    -3.2449  -3.2296  -3.0680  -3.0680   0.5483   0.5483   3.4679   3.4679
     3.9871   3.9958   6.1562   6.1562   9.5144

          k = 0.2866 0.2866 0.2866 ( 10919 PWs)   bands (ev):

    -6.1253  -6.1253  -4.0163  -4.0046  -3.8212  -3.8212  -3.3717  -3.3717
    -3.2446  -3.2295  -3.0659  -3.0659   0.5390   0.5390   3.4661   3.4661
     3.9853   3.9938   6.1550   6.1550   9.5142

          k = 0.2879 0.2879 0.2879 ( 10904 PWs)   bands (ev):

    -6.1243  -6.1243  -4.0162  -4.0047  -3.8204  -3.8204  -3.3716  -3.3716
    -3.2443  -3.2295  -3.0639  -3.0639   0.5298   0.5298   3.4642   3.4642
     3.9835   3.9919   6.1537   6.1537   9.5140

          k = 0.2892 0.2892 0.2892 ( 10892 PWs)   bands (ev):

    -6.1233  -6.1233  -4.0161  -4.0047  -3.8196  -3.8196  -3.3716  -3.3716
    -3.2440  -3.2295  -3.0619  -3.0619   0.5208   0.5208   3.4625   3.4625
     3.9817   3.9900   6.1525   6.1525   9.5137

          k = 0.2904 0.2904 0.2904 ( 10892 PWs)   bands (ev):

    -6.1223  -6.1223  -4.0159  -4.0048  -3.8188  -3.8188  -3.3716  -3.3716
    -3.2438  -3.2294  -3.0599  -3.0599   0.5120   0.5120   3.4607   3.4607
     3.9800   3.9881   6.1513   6.1513   9.5135

          k = 0.2917 0.2917 0.2917 ( 10892 PWs)   bands (ev):

    -6.1214  -6.1214  -4.0158  -4.0049  -3.8181  -3.8181  -3.3715  -3.3715
    -3.2435  -3.2294  -3.0580  -3.0580   0.5033   0.5033   3.4590   3.4590
     3.9783   3.9863   6.1501   6.1501   9.5132

          k = 0.2929 0.2929 0.2929 ( 10892 PWs)   bands (ev):

    -6.1204  -6.1204  -4.0157  -4.0049  -3.8173  -3.8173  -3.3715  -3.3715
    -3.2432  -3.2294  -3.0560  -3.0560   0.4947   0.4947   3.4573   3.4573
     3.9767   3.9845   6.1490   6.1490   9.5130

          k = 0.2942 0.2942 0.2942 ( 10892 PWs)   bands (ev):

    -6.1195  -6.1195  -4.0155  -4.0050  -3.8166  -3.8166  -3.3715  -3.3715
    -3.2429  -3.2294  -3.0541  -3.0541   0.4863   0.4863   3.4557   3.4557
     3.9751   3.9827   6.1478   6.1478   9.5127

          k = 0.2955 0.2955 0.2955 ( 10898 PWs)   bands (ev):

    -6.1186  -6.1186  -4.0154  -4.0051  -3.8159  -3.8159  -3.3715  -3.3715
    -3.2426  -3.2293  -3.0522  -3.0522   0.4781   0.4781   3.4541   3.4541
     3.9735   3.9810   6.1467   6.1467   9.5124

          k = 0.2967 0.2967 0.2967 ( 10898 PWs)   bands (ev):

    -6.1177  -6.1177  -4.0153  -4.0051  -3.8152  -3.8152  -3.3715  -3.3715
    -3.2424  -3.2293  -3.0504  -3.0504   0.4700   0.4700   3.4525   3.4525
     3.9720   3.9793   6.1456   6.1456   9.5121

          k = 0.2980 0.2980 0.2980 ( 10898 PWs)   bands (ev):

    -6.1168  -6.1168  -4.0151  -4.0052  -3.8145  -3.8145  -3.3714  -3.3714
    -3.2421  -3.2293  -3.0485  -3.0485   0.4621   0.4621   3.4509   3.4509
     3.9704   3.9776   6.1445   6.1445   9.5119

          k = 0.2993 0.2993 0.2993 ( 10898 PWs)   bands (ev):

    -6.1160  -6.1160  -4.0150  -4.0053  -3.8138  -3.8138  -3.3714  -3.3714
    -3.2418  -3.2293  -3.0467  -3.0467   0.4543   0.4543   3.4494   3.4494
     3.9690   3.9760   6.1434   6.1434   9.5116

          k = 0.3005 0.3005 0.3005 ( 10898 PWs)   bands (ev):

    -6.1151  -6.1151  -4.0149  -4.0054  -3.8131  -3.8131  -3.3714  -3.3714
    -3.2415  -3.2293  -3.0449  -3.0449   0.4467   0.4467   3.4480   3.4480
     3.9675   3.9744   6.1424   6.1424   9.5113

          k = 0.3018 0.3018 0.3018 ( 10898 PWs)   bands (ev):

    -6.1143  -6.1143  -4.0147  -4.0054  -3.8125  -3.8125  -3.3714  -3.3714
    -3.2413  -3.2293  -3.0432  -3.0432   0.4393   0.4393   3.4465   3.4465
     3.9661   3.9728   6.1414   6.1414   9.5110

          k = 0.3030 0.3030 0.3030 ( 10898 PWs)   bands (ev):

    -6.1135  -6.1135  -4.0146  -4.0055  -3.8118  -3.8118  -3.3714  -3.3714
    -3.2410  -3.2293  -3.0414  -3.0414   0.4320   0.4320   3.4451   3.4451
     3.9647   3.9713   6.1404   6.1404   9.5107

          k = 0.3043 0.3043 0.3043 ( 10898 PWs)   bands (ev):

    -6.1127  -6.1127  -4.0145  -4.0056  -3.8112  -3.8112  -3.3714  -3.3714
    -3.2407  -3.2293  -3.0397  -3.0397   0.4249   0.4249   3.4437   3.4437
     3.9634   3.9698   6.1394   6.1394   9.5104

          k = 0.3056 0.3056 0.3056 ( 10898 PWs)   bands (ev):

    -6.1120  -6.1120  -4.0143  -4.0057  -3.8106  -3.8106  -3.3714  -3.3714
    -3.2405  -3.2293  -3.0381  -3.0381   0.4180   0.4180   3.4424   3.4424
     3.9621   3.9683   6.1384   6.1384   9.5101

          k = 0.3068 0.3068 0.3068 ( 10895 PWs)   bands (ev):

    -6.1112  -6.1112  -4.0142  -4.0058  -3.8100  -3.8100  -3.3713  -3.3713
    -3.2402  -3.2294  -3.0364  -3.0364   0.4112   0.4112   3.4411   3.4411
     3.9608   3.9669   6.1375   6.1375   9.5099

          k = 0.3081 0.3081 0.3081 ( 10895 PWs)   bands (ev):

    -6.1105  -6.1105  -4.0141  -4.0059  -3.8094  -3.8094  -3.3713  -3.3713
    -3.2400  -3.2294  -3.0348  -3.0348   0.4046   0.4046   3.4398   3.4398
     3.9596   3.9655   6.1366   6.1366   9.5096

          k = 0.3094 0.3094 0.3094 ( 10901 PWs)   bands (ev):

    -6.1098  -6.1098  -4.0139  -4.0059  -3.8089  -3.8089  -3.3713  -3.3713
    -3.2397  -3.2294  -3.0333  -3.0333   0.3981   0.3981   3.4385   3.4385
     3.9584   3.9642   6.1357   6.1357   9.5093

          k = 0.3106 0.3106 0.3106 ( 10901 PWs)   bands (ev):

    -6.1091  -6.1091  -4.0138  -4.0060  -3.8083  -3.8083  -3.3713  -3.3713
    -3.2394  -3.2294  -3.0317  -3.0317   0.3919   0.3919   3.4373   3.4373
     3.9572   3.9628   6.1348   6.1348   9.5090

          k = 0.3119 0.3119 0.3119 ( 10907 PWs)   bands (ev):

    -6.1084  -6.1084  -4.0137  -4.0061  -3.8078  -3.8078  -3.3713  -3.3713
    -3.2392  -3.2295  -3.0302  -3.0302   0.3858   0.3858   3.4361   3.4361
     3.9561   3.9616   6.1340   6.1340   9.5087

          k = 0.3131 0.3131 0.3131 ( 10913 PWs)   bands (ev):

    -6.1078  -6.1078  -4.0135  -4.0062  -3.8073  -3.8073  -3.3713  -3.3713
    -3.2389  -3.2295  -3.0288  -3.0288   0.3798   0.3798   3.4350   3.4350
     3.9550   3.9603   6.1331   6.1331   9.5085

          k = 0.3144 0.3144 0.3144 ( 10919 PWs)   bands (ev):

    -6.1072  -6.1072  -4.0134  -4.0063  -3.8068  -3.8068  -3.3713  -3.3713
    -3.2387  -3.2295  -3.0274  -3.0274   0.3741   0.3741   3.4339   3.4339
     3.9539   3.9591   6.1323   6.1323   9.5082

          k = 0.3157 0.3157 0.3157 ( 10919 PWs)   bands (ev):

    -6.1066  -6.1066  -4.0133  -4.0064  -3.8063  -3.8063  -3.3713  -3.3713
    -3.2385  -3.2296  -3.0260  -3.0260   0.3685   0.3685   3.4328   3.4328
     3.9529   3.9579   6.1316   6.1316   9.5079

          k = 0.3169 0.3169 0.3169 ( 10913 PWs)   bands (ev):

    -6.1060  -6.1060  -4.0132  -4.0065  -3.8058  -3.8058  -3.3713  -3.3713
    -3.2382  -3.2296  -3.0246  -3.0246   0.3631   0.3631   3.4318   3.4318
     3.9519   3.9568   6.1308   6.1308   9.5077

          k = 0.3182 0.3182 0.3182 ( 10913 PWs)   bands (ev):

    -6.1054  -6.1054  -4.0130  -4.0066  -3.8054  -3.8054  -3.3713  -3.3713
    -3.2380  -3.2297  -3.0233  -3.0233   0.3578   0.3578   3.4308   3.4308
     3.9510   3.9556   6.1301   6.1301   9.5074

          k = 0.3195 0.3195 0.3195 ( 10913 PWs)   bands (ev):

    -6.1048  -6.1048  -4.0129  -4.0067  -3.8049  -3.8049  -3.3713  -3.3713
    -3.2377  -3.2297  -3.0220  -3.0220   0.3528   0.3528   3.4298   3.4298
     3.9501   3.9546   6.1294   6.1294   9.5072

          k = 0.3207 0.3207 0.3207 ( 10913 PWs)   bands (ev):

    -6.1043  -6.1043  -4.0128  -4.0067  -3.8045  -3.8045  -3.3713  -3.3713
    -3.2375  -3.2298  -3.0208  -3.0208   0.3479   0.3479   3.4289   3.4289
     3.9492   3.9535   6.1287   6.1287   9.5069

          k = 0.3220 0.3220 0.3220 ( 10913 PWs)   bands (ev):

    -6.1038  -6.1038  -4.0126  -4.0068  -3.8041  -3.8041  -3.3713  -3.3713
    -3.2373  -3.2298  -3.0196  -3.0196   0.3432   0.3432   3.4280   3.4280
     3.9483   3.9525   6.1280   6.1280   9.5067

          k = 0.3232 0.3232 0.3232 ( 10913 PWs)   bands (ev):

    -6.1033  -6.1033  -4.0125  -4.0069  -3.8037  -3.8037  -3.3713  -3.3713
    -3.2371  -3.2299  -3.0185  -3.0185   0.3387   0.3387   3.4271   3.4271
     3.9475   3.9516   6.1274   6.1274   9.5065

          k = 0.3245 0.3245 0.3245 ( 10913 PWs)   bands (ev):

    -6.1028  -6.1028  -4.0124  -4.0070  -3.8033  -3.8033  -3.3713  -3.3713
    -3.2368  -3.2300  -3.0173  -3.0173   0.3343   0.3343   3.4263   3.4263
     3.9468   3.9506   6.1268   6.1268   9.5062

          k = 0.3258 0.3258 0.3258 ( 10919 PWs)   bands (ev):

    -6.1024  -6.1024  -4.0122  -4.0071  -3.8030  -3.8030  -3.3712  -3.3712
    -3.2366  -3.2300  -3.0163  -3.0163   0.3301   0.3301   3.4255   3.4255
     3.9460   3.9497   6.1262   6.1262   9.5060

          k = 0.3270 0.3270 0.3270 ( 10925 PWs)   bands (ev):

    -6.1020  -6.1020  -4.0121  -4.0072  -3.8026  -3.8026  -3.3712  -3.3712
    -3.2364  -3.2301  -3.0153  -3.0153   0.3261   0.3261   3.4247   3.4247
     3.9453   3.9489   6.1256   6.1256   9.5058

          k = 0.3283 0.3283 0.3283 ( 10925 PWs)   bands (ev):

    -6.1015  -6.1015  -4.0120  -4.0073  -3.8023  -3.8023  -3.3712  -3.3712
    -3.2362  -3.2302  -3.0143  -3.0143   0.3223   0.3223   3.4240   3.4240
     3.9447   3.9480   6.1251   6.1251   9.5056

          k = 0.3296 0.3296 0.3296 ( 10925 PWs)   bands (ev):

    -6.1011  -6.1011  -4.0119  -4.0074  -3.8020  -3.8020  -3.3712  -3.3712
    -3.2360  -3.2303  -3.0133  -3.0133   0.3187   0.3187   3.4233   3.4233
     3.9440   3.9472   6.1246   6.1246   9.5054

          k = 0.3308 0.3308 0.3308 ( 10925 PWs)   bands (ev):

    -6.1008  -6.1008  -4.0117  -4.0075  -3.8017  -3.8017  -3.3712  -3.3712
    -3.2358  -3.2304  -3.0124  -3.0124   0.3153   0.3153   3.4227   3.4227
     3.9435   3.9465   6.1241   6.1241   9.5052

          k = 0.3321 0.3321 0.3321 ( 10925 PWs)   bands (ev):

    -6.1004  -6.1004  -4.0116  -4.0076  -3.8014  -3.8014  -3.3712  -3.3712
    -3.2356  -3.2304  -3.0116  -3.0116   0.3120   0.3120   3.4220   3.4220
     3.9429   3.9458   6.1237   6.1237   9.5051

          k = 0.3334 0.3334 0.3334 ( 10919 PWs)   bands (ev):

    -6.1001  -6.1001  -4.0115  -4.0077  -3.8011  -3.8011  -3.3712  -3.3712
    -3.2353  -3.2305  -3.0108  -3.0108   0.3089   0.3089   3.4215   3.4215
     3.9424   3.9451   6.1232   6.1232   9.5049

          k = 0.3346 0.3346 0.3346 ( 10919 PWs)   bands (ev):

    -6.0998  -6.0998  -4.0114  -4.0079  -3.8009  -3.8009  -3.3712  -3.3712
    -3.2351  -3.2306  -3.0100  -3.0100   0.3060   0.3060   3.4209   3.4209
     3.9419   3.9444   6.1228   6.1228   9.5047

          k = 0.3359 0.3359 0.3359 ( 10919 PWs)   bands (ev):

    -6.0995  -6.0995  -4.0112  -4.0080  -3.8006  -3.8006  -3.3712  -3.3712
    -3.2349  -3.2307  -3.0093  -3.0093   0.3033   0.3033   3.4204   3.4204
     3.9415   3.9438   6.1224   6.1224   9.5046

          k = 0.3371 0.3371 0.3371 ( 10919 PWs)   bands (ev):

    -6.0992  -6.0992  -4.0111  -4.0081  -3.8004  -3.8004  -3.3712  -3.3712
    -3.2348  -3.2308  -3.0087  -3.0087   0.3008   0.3008   3.4199   3.4199
     3.9410   3.9432   6.1221   6.1221   9.5044

          k = 0.3384 0.3384 0.3384 ( 10919 PWs)   bands (ev):

    -6.0990  -6.0990  -4.0110  -4.0082  -3.8002  -3.8002  -3.3712  -3.3712
    -3.2346  -3.2310  -3.0081  -3.0081   0.2984   0.2984   3.4195   3.4195
     3.9407   3.9427   6.1218   6.1218   9.5043

          k = 0.3397 0.3397 0.3397 ( 10919 PWs)   bands (ev):

    -6.0987  -6.0987  -4.0109  -4.0083  -3.8000  -3.8000  -3.3712  -3.3712
    -3.2344  -3.2311  -3.0075  -3.0075   0.2963   0.2963   3.4191   3.4191
     3.9403   3.9422   6.1215   6.1215   9.5042

          k = 0.3409 0.3409 0.3409 ( 10919 PWs)   bands (ev):

    -6.0985  -6.0985  -4.0107  -4.0084  -3.7999  -3.7999  -3.3712  -3.3712
    -3.2342  -3.2312  -3.0070  -3.0070   0.2943   0.2943   3.4187   3.4187
     3.9400   3.9417   6.1212   6.1212   9.5041

          k = 0.3422 0.3422 0.3422 ( 10919 PWs)   bands (ev):

    -6.0983  -6.0983  -4.0106  -4.0085  -3.7997  -3.7997  -3.3712  -3.3712
    -3.2340  -3.2313  -3.0065  -3.0065   0.2925   0.2925   3.4183   3.4183
     3.9398   3.9413   6.1209   6.1209   9.5040

          k = 0.3435 0.3435 0.3435 ( 10919 PWs)   bands (ev):

    -6.0981  -6.0981  -4.0105  -4.0086  -3.7996  -3.7996  -3.3712  -3.3712
    -3.2338  -3.2314  -3.0061  -3.0061   0.2909   0.2909   3.4180   3.4180
     3.9395   3.9409   6.1207   6.1207   9.5039

          k = 0.3447 0.3447 0.3447 ( 10919 PWs)   bands (ev):

    -6.0980  -6.0980  -4.0104  -4.0087  -3.7995  -3.7995  -3.3712  -3.3712
    -3.2337  -3.2315  -3.0057  -3.0057   0.2895   0.2895   3.4178   3.4178
     3.9394   3.9405   6.1205   6.1205   9.5038

          k = 0.3460 0.3460 0.3460 ( 10913 PWs)   bands (ev):

    -6.0979  -6.0979  -4.0102  -4.0088  -3.7994  -3.7994  -3.3712  -3.3712
    -3.2335  -3.2317  -3.0054  -3.0054   0.2883   0.2883   3.4175   3.4175
     3.9392   3.9402   6.1203   6.1203   9.5037

          k = 0.3472 0.3472 0.3472 ( 10913 PWs)   bands (ev):

    -6.0978  -6.0978  -4.0101  -4.0090  -3.7993  -3.7993  -3.3712  -3.3712
    -3.2333  -3.2318  -3.0051  -3.0051   0.2873   0.2873   3.4174   3.4174
     3.9391   3.9399   6.1202   6.1202   9.5037

          k = 0.3485 0.3485 0.3485 ( 10913 PWs)   bands (ev):

    -6.0977  -6.0977  -4.0100  -4.0091  -3.7992  -3.7992  -3.3712  -3.3712
    -3.2331  -3.2319  -3.0049  -3.0049   0.2864   0.2864   3.4172   3.4172
     3.9390   3.9397   6.1201   6.1201   9.5036

          k = 0.3498 0.3498 0.3498 ( 10913 PWs)   bands (ev):

    -6.0976  -6.0976  -4.0099  -4.0092  -3.7991  -3.7991  -3.3712  -3.3712
    -3.2330  -3.2321  -3.0047  -3.0047   0.2858   0.2858   3.4171   3.4171
     3.9390   3.9395   6.1200   6.1200   9.5036

          k = 0.3510 0.3510 0.3510 ( 10901 PWs)   bands (ev):

    -6.0975  -6.0975  -4.0098  -4.0093  -3.7991  -3.7991  -3.3712  -3.3712
    -3.2328  -3.2322  -3.0046  -3.0046   0.2853   0.2853   3.4170   3.4170
     3.9390   3.9393   6.1199   6.1199   9.5036

          k = 0.3523 0.3523 0.3523 ( 10886 PWs)   bands (ev):

    -6.0975  -6.0975  -4.0096  -4.0094  -3.7991  -3.7991  -3.3712  -3.3712
    -3.2327  -3.2324  -3.0045  -3.0045   0.2850   0.2850   3.4169   3.4169
     3.9390   3.9392   6.1199   6.1199   9.5035

          k = 0.3536 0.3536 0.3536 ( 10880 PWs)   bands (ev):

    -6.0975  -6.0975  -4.0095  -4.0095  -3.7991  -3.7991  -3.3712  -3.3712
    -3.2325  -3.2325  -3.0045  -3.0045   0.2849   0.2849   3.4169   3.4169
     3.9391   3.9391   6.1199   6.1199   9.5035

          k = 0.3536 0.3553 0.3518 ( 10886 PWs)   bands (ev):

    -6.0976  -6.0974  -4.0095  -4.0095  -3.8001  -3.7980  -3.3714  -3.3710
    -3.2325  -3.2325  -3.0052  -3.0038   0.2843   0.2856   3.4152   3.4183
     3.9389   3.9389   6.1187   6.1216   9.5035

          k = 0.3536 0.3571 0.3500 ( 10900 PWs)   bands (ev):

    -6.0977  -6.0973  -4.0095  -4.0095  -3.8012  -3.7969  -3.3717  -3.3708
    -3.2325  -3.2325  -3.0058  -3.0031   0.2837   0.2863   3.4133   3.4195
     3.9384   3.9384   6.1180   6.1238   9.5035

          k = 0.3536 0.3589 0.3483 ( 10906 PWs)   bands (ev):

    -6.0978  -6.0971  -4.0095  -4.0095  -3.8022  -3.7959  -3.3719  -3.3705
    -3.2325  -3.2325  -3.0065  -3.0025   0.2832   0.2870   3.4111   3.4205
     3.9376   3.9376   6.1179   6.1265   9.5034

          k = 0.3536 0.3606 0.3465 ( 10910 PWs)   bands (ev):

    -6.0978  -6.0970  -4.0095  -4.0095  -3.8033  -3.7948  -3.3721  -3.3703
    -3.2325  -3.2325  -3.0071  -3.0017   0.2827   0.2878   3.4087   3.4212
     3.9364   3.9365   6.1183   6.1298   9.5034

          k = 0.3536 0.3624 0.3447 ( 10910 PWs)   bands (ev):

    -6.0979  -6.0968  -4.0095  -4.0094  -3.8043  -3.7938  -3.3723  -3.3700
    -3.2325  -3.2325  -3.0077  -3.0010   0.2822   0.2887   3.4060   3.4217
     3.9349   3.9351   6.1192   6.1335   9.5035

          k = 0.3536 0.3642 0.3429 ( 10910 PWs)   bands (ev):

    -6.0979  -6.0966  -4.0094  -4.0094  -3.8053  -3.7927  -3.3725  -3.3697
    -3.2325  -3.2325  -3.0083  -3.0003   0.2818   0.2895   3.4030   3.4219
     3.9331   3.9333   6.1207   6.1378   9.5032

          k = 0.3536 0.3659 0.3412 ( 10912 PWs)   bands (ev):

    -6.0979  -6.0964  -4.0094  -4.0094  -3.8064  -3.7916  -3.3726  -3.3695
    -3.2326  -3.2325  -3.0089  -2.9996   0.2814   0.2905   3.3999   3.4218
     3.9310   3.9313   6.1227   6.1426   9.5026

          k = 0.3536 0.3677 0.3394 ( 10912 PWs)   bands (ev):

    -6.0980  -6.0962  -4.0093  -4.0093  -3.8074  -3.7906  -3.3728  -3.3692
    -3.2326  -3.2326  -3.0095  -2.9988   0.2811   0.2914   3.3964   3.4216
     3.9285   3.9290   6.1251   6.1478   9.5019

          k = 0.3536 0.3695 0.3376 ( 10912 PWs)   bands (ev):

    -6.0980  -6.0960  -4.0093  -4.0093  -3.8084  -3.7895  -3.3730  -3.3689
    -3.2326  -3.2326  -3.0101  -2.9980   0.2808   0.2924   3.3927   3.4211
     3.9258   3.9264   6.1281   6.1536   9.5023

          k = 0.3536 0.3712 0.3359 ( 10912 PWs)   bands (ev):

    -6.0979  -6.0958  -4.0092  -4.0092  -3.8095  -3.7884  -3.3731  -3.3686
    -3.2326  -3.2326  -3.0107  -2.9973   0.2805   0.2935   3.3887   3.4203
     3.9227   3.9235   6.1316   6.1598   9.5008

          k = 0.3536 0.3730 0.3341 ( 10912 PWs)   bands (ev):

    -6.0979  -6.0956  -4.0092  -4.0091  -3.8105  -3.7874  -3.3733  -3.3683
    -3.2326  -3.2326  -3.0112  -2.9965   0.2803   0.2945   3.3845   3.4193
     3.9193   3.9204   6.1356   6.1665   9.5005

          k = 0.3536 0.3748 0.3323 ( 10912 PWs)   bands (ev):

    -6.0979  -6.0953  -4.0091  -4.0091  -3.8115  -3.7863  -3.3734  -3.3680
    -3.2326  -3.2326  -3.0118  -2.9957   0.2801   0.2957   3.3801   3.4180
     3.9156   3.9171   6.1401   6.1737   9.4983

          k = 0.3536 0.3765 0.3306 ( 10912 PWs)   bands (ev):

    -6.0978  -6.0951  -4.0090  -4.0090  -3.8125  -3.7852  -3.3735  -3.3677
    -3.2326  -3.2326  -3.0123  -2.9949   0.2800   0.2968   3.3753   3.4165
     3.9116   3.9135   6.1450   6.1813   9.4988

          k = 0.3536 0.3783 0.3288 ( 10910 PWs)   bands (ev):

    -6.0978  -6.0948  -4.0089  -4.0089  -3.8136  -3.7842  -3.3737  -3.3674
    -3.2327  -3.2327  -3.0128  -2.9941   0.2799   0.2980   3.3703   3.4148
     3.9073   3.9096   6.1505   6.1894   9.4962

          k = 0.3536 0.3801 0.3270 ( 10908 PWs)   bands (ev):

    -6.0977  -6.0945  -4.0088  -4.0088  -3.8146  -3.7831  -3.3738  -3.3671
    -3.2327  -3.2327  -3.0133  -2.9933   0.2798   0.2993   3.3650   3.4128
     3.9027   3.9056   6.1564   6.1979   9.4940

          k = 0.3536 0.3818 0.3253 ( 10904 PWs)   bands (ev):

    -6.0976  -6.0942  -4.0087  -4.0087  -3.8156  -3.7820  -3.3739  -3.3668
    -3.2327  -3.2327  -3.0138  -2.9924   0.2798   0.3006   3.3595   3.4106
     3.8979   3.9013   6.1628   6.2068   9.4945

          k = 0.3536 0.3836 0.3235 ( 10906 PWs)   bands (ev):

    -6.0975  -6.0939  -4.0086  -4.0086  -3.8166  -3.7809  -3.3740  -3.3664
    -3.2327  -3.2327  -3.0143  -2.9916   0.2798   0.3019   3.3537   3.4081
     3.8928   3.8969   6.1696   6.2162   9.4918

          k = 0.3536 0.3854 0.3217 ( 10904 PWs)   bands (ev):

    -6.0974  -6.0936  -4.0085  -4.0085  -3.8176  -3.7799  -3.3741  -3.3661
    -3.2328  -3.2327  -3.0148  -2.9907   0.2798   0.3033   3.3476   3.4053
     3.8875   3.8922   6.1768   6.2259   9.4903

          k = 0.3536 0.3871 0.3200 ( 10904 PWs)   bands (ev):

    -6.0973  -6.0932  -4.0084  -4.0083  -3.8186  -3.7788  -3.3741  -3.3657
    -3.2328  -3.2328  -3.0152  -2.9899   0.2799   0.3047   3.3413   3.4024
     3.8819   3.8874   6.1845   6.2360   9.4840

          k = 0.3536 0.3889 0.3182 ( 10906 PWs)   bands (ev):

    -6.0972  -6.0929  -4.0083  -4.0082  -3.8196  -3.7777  -3.3742  -3.3654
    -3.2328  -3.2328  -3.0157  -2.9890   0.2800   0.3061   3.3347   3.3991
     3.8761   3.8824   6.1926   6.2466   9.4823

          k = 0.3536 0.3907 0.3164 ( 10900 PWs)   bands (ev):

    -6.0970  -6.0925  -4.0082  -4.0081  -3.8206  -3.7766  -3.3743  -3.3651
    -3.2328  -3.2328  -3.0161  -2.9881   0.2802   0.3076   3.3278   3.3956
     3.8701   3.8773   6.2011   6.2574   9.4770

          k = 0.3536 0.3924 0.3147 ( 10900 PWs)   bands (ev):

    -6.0969  -6.0922  -4.0081  -4.0079  -3.8216  -3.7756  -3.3743  -3.3647
    -3.2329  -3.2328  -3.0165  -2.9873   0.2804   0.3092   3.3207   3.3919
     3.8639   3.8721   6.2100   6.2687   9.4739

          k = 0.3536 0.3942 0.3129 ( 10900 PWs)   bands (ev):

    -6.0967  -6.0918  -4.0079  -4.0078  -3.8226  -3.7745  -3.3744  -3.3643
    -3.2329  -3.2329  -3.0169  -2.9864   0.2806   0.3108   3.3133   3.3879
     3.8575   3.8667   6.2193   6.2803   9.4693

          k = 0.3536 0.3960 0.3111 ( 10896 PWs)   bands (ev):

    -6.0965  -6.0914  -4.0078  -4.0076  -3.8236  -3.7734  -3.3744  -3.3640
    -3.2330  -3.2329  -3.0173  -2.9855   0.2809   0.3124   3.3056   3.3836
     3.8509   3.8612   6.2290   6.2922   9.4656

          k = 0.3536 0.3977 0.3094 ( 10896 PWs)   bands (ev):

    -6.0963  -6.0910  -4.0077  -4.0074  -3.8245  -3.7723  -3.3744  -3.3636
    -3.2330  -3.2329  -3.0177  -2.9845   0.2812   0.3140   3.2977   3.3791
     3.8442   3.8555   6.2390   6.3045   9.4609

          k = 0.3536 0.3995 0.3076 ( 10896 PWs)   bands (ev):

    -6.0961  -6.0906  -4.0075  -4.0073  -3.8255  -3.7713  -3.3744  -3.3632
    -3.2330  -3.2330  -3.0181  -2.9836   0.2816   0.3157   3.2895   3.3743
     3.8373   3.8498   6.2494   6.3171   9.4563

          k = 0.3536 0.4013 0.3058 ( 10892 PWs)   bands (ev):

    -6.0959  -6.0902  -4.0074  -4.0071  -3.8265  -3.7702  -3.3744  -3.3628
    -3.2331  -3.2330  -3.0184  -2.9827   0.2819   0.3175   3.2811   3.3692
     3.8302   3.8440   6.2601   6.3299   9.4547

          k = 0.3536 0.4031 0.3041 ( 10892 PWs)   bands (ev):

    -6.0957  -6.0897  -4.0072  -4.0069  -3.8275  -3.7691  -3.3744  -3.3625
    -3.2331  -3.2330  -3.0188  -2.9817   0.2823   0.3193   3.2724   3.3639
     3.8231   3.8381   6.2712   6.3431   9.4443

          k = 0.3536 0.4048 0.3023 ( 10892 PWs)   bands (ev):

    -6.0954  -6.0893  -4.0070  -4.0067  -3.8284  -3.7681  -3.3744  -3.3621
    -3.2332  -3.2331  -3.0191  -2.9808   0.2828   0.3211   3.2634   3.3584
     3.8158   3.8322   6.2826   6.3566   9.4387

          k = 0.3536 0.4066 0.3005 ( 10890 PWs)   bands (ev):

    -6.0952  -6.0888  -4.0069  -4.0065  -3.8294  -3.7670  -3.3744  -3.3617
    -3.2332  -3.2331  -3.0194  -2.9798   0.2833   0.3229   3.2542   3.3526
     3.8083   3.8261   6.2942   6.3703   9.4320

          k = 0.3536 0.4084 0.2988 ( 10892 PWs)   bands (ev):

    -6.0949  -6.0883  -4.0067  -4.0063  -3.8303  -3.7659  -3.3744  -3.3613
    -3.2332  -3.2331  -3.0197  -2.9789   0.2838   0.3248   3.2447   3.3465
     3.8008   3.8200   6.3062   6.3843   9.4264

          k = 0.3536 0.4101 0.2970 ( 10888 PWs)   bands (ev):

    -6.0946  -6.0879  -4.0065  -4.0061  -3.8313  -3.7649  -3.3743  -3.3609
    -3.2333  -3.2332  -3.0200  -2.9779   0.2843   0.3268   3.2350   3.3402
     3.7932   3.8139   6.3184   6.3985   9.4193

          k = 0.3536 0.4119 0.2952 ( 10886 PWs)   bands (ev):

    -6.0943  -6.0874  -4.0063  -4.0059  -3.8322  -3.7638  -3.3743  -3.3605
    -3.2333  -3.2332  -3.0203  -2.9769   0.2849   0.3287   3.2251   3.3336
     3.7855   3.8077   6.3310   6.4130   9.4128

          k = 0.3536 0.4137 0.2934 ( 10886 PWs)   bands (ev):

    -6.0940  -6.0869  -4.0062  -4.0056  -3.8332  -3.7627  -3.3742  -3.3601
    -3.2334  -3.2332  -3.0206  -2.9759   0.2855   0.3308   3.2149   3.3267
     3.7778   3.8015   6.3437   6.4277   9.4062

          k = 0.3536 0.4154 0.2917 ( 10890 PWs)   bands (ev):

    -6.0937  -6.0864  -4.0060  -4.0054  -3.8341  -3.7617  -3.3742  -3.3597
    -3.2334  -3.2333  -3.0208  -2.9749   0.2861   0.3328   3.2045   3.3196
     3.7700   3.7952   6.3568   6.4426   9.3994

          k = 0.3536 0.4172 0.2899 ( 10892 PWs)   bands (ev):

    -6.0934  -6.0858  -4.0058  -4.0051  -3.8351  -3.7606  -3.3741  -3.3593
    -3.2335  -3.2333  -3.0211  -2.9739   0.2868   0.3349   3.1938   3.3123
     3.7621   3.7889   6.3700   6.4577   9.3923

          k = 0.3536 0.4190 0.2881 ( 10892 PWs)   bands (ev):

    -6.0931  -6.0853  -4.0056  -4.0049  -3.8360  -3.7595  -3.3740  -3.3589
    -3.2336  -3.2333  -3.0213  -2.9729   0.2875   0.3370   3.1829   3.3047
     3.7542   3.7826   6.3835   6.4730   9.3855

          k = 0.3536 0.4207 0.2864 ( 10890 PWs)   bands (ev):

    -6.0928  -6.0848  -4.0054  -4.0046  -3.8369  -3.7585  -3.3739  -3.3584
    -3.2336  -3.2334  -3.0215  -2.9718   0.2883   0.3392   3.1719   3.2968
     3.7462   3.7762   6.3972   6.4885   9.3783

          k = 0.3536 0.4225 0.2846 ( 10888 PWs)   bands (ev):

    -6.0924  -6.0842  -4.0052  -4.0044  -3.8378  -3.7574  -3.3738  -3.3580
    -3.2337  -3.2334  -3.0217  -2.9708   0.2890   0.3414   3.1606   3.2887
     3.7382   3.7699   6.4111   6.5042   9.3709

          k = 0.3536 0.4243 0.2828 ( 10886 PWs)   bands (ev):

    -6.0920  -6.0837  -4.0049  -4.0041  -3.8387  -3.7564  -3.3737  -3.3576
    -3.2337  -3.2335  -3.0219  -2.9698   0.2898   0.3436   3.1491   3.2804
     3.7302   3.7635   6.4252   6.5200   9.3636

          k = 0.3536 0.4260 0.2811 ( 10888 PWs)   bands (ev):

    -6.0917  -6.0831  -4.0047  -4.0038  -3.8397  -3.7553  -3.3736  -3.3572
    -3.2338  -3.2335  -3.0221  -2.9687   0.2906   0.3459   3.1374   3.2719
     3.7222   3.7571   6.4395   6.5360   9.3563

          k = 0.3536 0.4278 0.2793 ( 10890 PWs)   bands (ev):

    -6.0913  -6.0825  -4.0045  -4.0035  -3.8406  -3.7543  -3.3735  -3.3567
    -3.2339  -3.2335  -3.0222  -2.9677   0.2915   0.3482   3.1255   3.2631
     3.7142   3.7506   6.4540   6.5522   9.3488

          k = 0.3536 0.4296 0.2775 ( 10886 PWs)   bands (ev):

    -6.0909  -6.0819  -4.0043  -4.0032  -3.8415  -3.7532  -3.3733  -3.3563
    -3.2339  -3.2336  -3.0224  -2.9666   0.2923   0.3506   3.1134   3.2541
     3.7061   3.7442   6.4686   6.5685   9.3423

          k = 0.3536 0.4313 0.2758 ( 10892 PWs)   bands (ev):

    -6.0905  -6.0813  -4.0041  -4.0029  -3.8424  -3.7522  -3.3732  -3.3559
    -3.2340  -3.2336  -3.0225  -2.9655   0.2932   0.3530   3.1012   3.2448
     3.6981   3.7378   6.4834   6.5849   9.3338

          k = 0.3536 0.4331 0.2740 ( 10886 PWs)   bands (ev):

    -6.0901  -6.0807  -4.0038  -4.0026  -3.8433  -3.7511  -3.3730  -3.3554
    -3.2340  -3.2337  -3.0226  -2.9644   0.2942   0.3554   3.0888   3.2354
     3.6900   3.7313   6.4983   6.6015   9.3263

          k = 0.3536 0.4349 0.2722 ( 10886 PWs)   bands (ev):

    -6.0897  -6.0801  -4.0036  -4.0023  -3.8441  -3.7501  -3.3728  -3.3550
    -3.2341  -3.2337  -3.0227  -2.9633   0.2951   0.3578   3.0762   3.2257
     3.6819   3.7248   6.5134   6.6182   9.3187

          k = 0.3536 0.4366 0.2705 ( 10890 PWs)   bands (ev):

    -6.0892  -6.0795  -4.0034  -4.0020  -3.8450  -3.7491  -3.3727  -3.3546
    -3.2342  -3.2337  -3.0228  -2.9623   0.2961   0.3603   3.0634   3.2159
     3.6739   3.7183   6.5286   6.6350   9.3112

          k = 0.3536 0.4384 0.2687 ( 10894 PWs)   bands (ev):

    -6.0888  -6.0788  -4.0031  -4.0017  -3.8459  -3.7480  -3.3725  -3.3541
    -3.2343  -3.2338  -3.0229  -2.9611   0.2971   0.3628   3.0506   3.2059
     3.6658   3.7119   6.5439   6.6519   9.3036

          k = 0.3536 0.4402 0.2669 ( 10890 PWs)   bands (ev):

    -6.0883  -6.0782  -4.0029  -4.0014  -3.8468  -3.7470  -3.3723  -3.3537
    -3.2343  -3.2338  -3.0229  -2.9600   0.2981   0.3654   3.0375   3.1956
     3.6578   3.7054   6.5593   6.6689   9.2961

          k = 0.3536 0.4419 0.2652 ( 10890 PWs)   bands (ev):

    -6.0879  -6.0775  -4.0026  -4.0010  -3.8476  -3.7460  -3.3721  -3.3533
    -3.2344  -3.2339  -3.0230  -2.9589   0.2992   0.3679   3.0244   3.1852
     3.6497   3.6988   6.5748   6.6859   9.2885

          k = 0.3536 0.4437 0.2634 ( 10890 PWs)   bands (ev):

    -6.0874  -6.0769  -4.0024  -4.0007  -3.8485  -3.7450  -3.3719  -3.3528
    -3.2345  -3.2339  -3.0230  -2.9578   0.3002   0.3706   3.0111   3.1747
     3.6417   3.6923   6.5904   6.7031   9.2811

          k = 0.3536 0.4455 0.2616 ( 10898 PWs)   bands (ev):

    -6.0869  -6.0762  -4.0021  -4.0003  -3.8494  -3.7439  -3.3716  -3.3524
    -3.2345  -3.2339  -3.0230  -2.9567   0.3013   0.3732   2.9977   3.1639
     3.6337   3.6858   6.6062   6.7203   9.2735

          k = 0.3536 0.4472 0.2599 ( 10896 PWs)   bands (ev):

    -6.0864  -6.0755  -4.0018  -4.0000  -3.8502  -3.7429  -3.3714  -3.3519
    -3.2346  -3.2340  -3.0230  -2.9555   0.3024   0.3759   2.9841   3.1531
     3.6256   3.6792   6.6219   6.7376   9.2661

          k = 0.3536 0.4490 0.2581 ( 10896 PWs)   bands (ev):

    -6.0859  -6.0748  -4.0016  -3.9996  -3.8511  -3.7419  -3.3712  -3.3515
    -3.2347  -3.2340  -3.0230  -2.9544   0.3035   0.3786   2.9705   3.1420
     3.6176   3.6727   6.6378   6.7550   9.2587

          k = 0.3536 0.4508 0.2563 ( 10898 PWs)   bands (ev):

    -6.0854  -6.0742  -4.0013  -3.9992  -3.8519  -3.7409  -3.3709  -3.3510
    -3.2348  -3.2341  -3.0230  -2.9532   0.3047   0.3813   2.9568   3.1309
     3.6096   3.6661   6.6537   6.7724   9.2513

          k = 0.3536 0.4525 0.2546 ( 10896 PWs)   bands (ev):

    -6.0849  -6.0735  -4.0010  -3.9988  -3.8527  -3.7399  -3.3707  -3.3506
    -3.2349  -3.2341  -3.0229  -2.9521   0.3059   0.3841   2.9430   3.1196
     3.6016   3.6595   6.6697   6.7899   9.2440

          k = 0.3536 0.4543 0.2528 ( 10902 PWs)   bands (ev):

    -6.0844  -6.0727  -4.0008  -3.9985  -3.8536  -3.7389  -3.3704  -3.3501
    -3.2349  -3.2341  -3.0229  -2.9509   0.3070   0.3869   2.9291   3.1082
     3.5936   3.6529   6.6858   6.8074   9.2368

          k = 0.3536 0.4561 0.2510 ( 10902 PWs)   bands (ev):

    -6.0839  -6.0720  -4.0005  -3.9981  -3.8544  -3.7379  -3.3701  -3.3497
    -3.2350  -3.2342  -3.0228  -2.9497   0.3082   0.3897   2.9151   3.0966
     3.5856   3.6463   6.7018   6.8249   9.2296

          k = 0.3536 0.4579 0.2493 ( 10896 PWs)   bands (ev):

    -6.0833  -6.0713  -4.0002  -3.9977  -3.8552  -3.7369  -3.3698  -3.3492
    -3.2351  -3.2342  -3.0227  -2.9485   0.3095   0.3925   2.9010   3.0850
     3.5776   3.6396   6.7180   6.8425   9.2226

          k = 0.3536 0.4596 0.2475 ( 10898 PWs)   bands (ev):

    -6.0828  -6.0706  -3.9999  -3.9973  -3.8560  -3.7359  -3.3695  -3.3488
    -3.2352  -3.2343  -3.0226  -2.9474   0.3107   0.3954   2.8869   3.0733
     3.5696   3.6329   6.7341   6.8601   9.2155

          k = 0.3536 0.4614 0.2457 ( 10896 PWs)   bands (ev):

    -6.0822  -6.0699  -3.9997  -3.9969  -3.8568  -3.7349  -3.3692  -3.3483
    -3.2353  -3.2343  -3.0225  -2.9462   0.3119   0.3983   2.8728   3.0615
     3.5616   3.6262   6.7503   6.8777   9.2086

          k = 0.3536 0.4632 0.2440 ( 10896 PWs)   bands (ev):

    -6.0817  -6.0691  -3.9994  -3.9964  -3.8577  -3.7339  -3.3689  -3.3479
    -3.2354  -3.2343  -3.0224  -2.9450   0.3132   0.4012   2.8585   3.0496
     3.5536   3.6195   6.7665   6.8954   9.2017

          k = 0.3536 0.4649 0.2422 ( 10898 PWs)   bands (ev):

    -6.0811  -6.0684  -3.9991  -3.9960  -3.8585  -3.7330  -3.3686  -3.3475
    -3.2354  -3.2344  -3.0222  -2.9438   0.3145   0.4042   2.8443   3.0376
     3.5456   3.6128   6.7827   6.9130   9.1949

          k = 0.3536 0.4667 0.2404 ( 10898 PWs)   bands (ev):

    -6.0805  -6.0676  -3.9988  -3.9956  -3.8593  -3.7320  -3.3683  -3.3470
    -3.2355  -3.2344  -3.0221  -2.9426   0.3158   0.4071   2.8300   3.0256
     3.5375   3.6060   6.7989   6.9307   9.1882

          k = 0.3536 0.4685 0.2386 ( 10898 PWs)   bands (ev):

    -6.0799  -6.0669  -3.9985  -3.9952  -3.8600  -3.7310  -3.3679  -3.3466
    -3.2356  -3.2344  -3.0219  -2.9414   0.3170   0.4101   2.8156   3.0135
     3.5295   3.5992   6.8152   6.9483   9.1817

          k = 0.3536 0.4702 0.2369 ( 10892 PWs)   bands (ev):

    -6.0794  -6.0661  -3.9982  -3.9947  -3.8608  -3.7301  -3.3676  -3.3461
    -3.2357  -3.2344  -3.0217  -2.9401   0.3183   0.4131   2.8013   3.0014
     3.5215   3.5924   6.8314   6.9660   9.1752

          k = 0.3536 0.4720 0.2351 ( 10892 PWs)   bands (ev):

    -6.0788  -6.0653  -3.9979  -3.9943  -3.8616  -3.7291  -3.3673  -3.3457
    -3.2358  -3.2345  -3.0215  -2.9389   0.3197   0.4162   2.7869   2.9892
     3.5134   3.5855   6.8476   6.9837   9.1688

          k = 0.3536 0.4738 0.2333 ( 10894 PWs)   bands (ev):

    -6.0782  -6.0645  -3.9976  -3.9938  -3.8624  -3.7282  -3.3669  -3.3452
    -3.2359  -3.2345  -3.0213  -2.9377   0.3210   0.4192   2.7725   2.9770
     3.5053   3.5787   6.8638   7.0013   9.1626

          k = 0.3536 0.4755 0.2316 ( 10898 PWs)   bands (ev):

    -6.0775  -6.0638  -3.9973  -3.9934  -3.8631  -3.7272  -3.3665  -3.3448
    -3.2360  -3.2345  -3.0210  -2.9364   0.3223   0.4223   2.7581   2.9648
     3.4972   3.5718   6.8800   7.0189   9.1565

          k = 0.3536 0.4773 0.2298 ( 10898 PWs)   bands (ev):

    -6.0769  -6.0630  -3.9970  -3.9929  -3.8639  -3.7263  -3.3662  -3.3443
    -3.2361  -3.2346  -3.0208  -2.9352   0.3237   0.4254   2.7437   2.9525
     3.4891   3.5648   6.8962   7.0365   9.1504

          k = 0.3536 0.4791 0.2280 ( 10898 PWs)   bands (ev):

    -6.0763  -6.0622  -3.9967  -3.9924  -3.8647  -3.7253  -3.3658  -3.3439
    -3.2362  -3.2346  -3.0205  -2.9340   0.3250   0.4285   2.7293   2.9403
     3.4810   3.5578   6.9124   7.0541   9.1445

          k = 0.3536 0.4808 0.2263 ( 10896 PWs)   bands (ev):

    -6.0757  -6.0614  -3.9964  -3.9920  -3.8654  -3.7244  -3.3654  -3.3435
    -3.2363  -3.2346  -3.0202  -2.9327   0.3263   0.4316   2.7149   2.9280
     3.4729   3.5508   6.9285   7.0717   9.1388

          k = 0.3536 0.4826 0.2245 ( 10894 PWs)   bands (ev):

    -6.0750  -6.0606  -3.9961  -3.9915  -3.8662  -3.7235  -3.3650  -3.3430
    -3.2364  -3.2346  -3.0199  -2.9315   0.3277   0.4347   2.7006   2.9158
     3.4647   3.5438   6.9446   7.0892   9.1331

          k = 0.3536 0.4844 0.2227 ( 10898 PWs)   bands (ev):

    -6.0744  -6.0598  -3.9957  -3.9910  -3.8669  -3.7226  -3.3646  -3.3426
    -3.2365  -3.2347  -3.0196  -2.9302   0.3290   0.4379   2.6862   2.9035
     3.4565   3.5367   6.9607   7.1067   9.1276

          k = 0.3536 0.4861 0.2210 ( 10900 PWs)   bands (ev):

    -6.0738  -6.0590  -3.9954  -3.9905  -3.8676  -3.7216  -3.3642  -3.3421
    -3.2366  -3.2347  -3.0193  -2.9289   0.3304   0.4410   2.6719   2.8913
     3.4483   3.5295   6.9767   7.1242   9.1222

          k = 0.3536 0.4879 0.2192 ( 10900 PWs)   bands (ev):

    -6.0731  -6.0582  -3.9951  -3.9900  -3.8684  -3.7207  -3.3638  -3.3417
    -3.2367  -3.2347  -3.0189  -2.9277   0.3318   0.4442   2.6576   2.8791
     3.4401   3.5224   6.9926   7.1416   9.1170

          k = 0.3536 0.4897 0.2174 ( 10896 PWs)   bands (ev):

    -6.0725  -6.0573  -3.9948  -3.9895  -3.8691  -3.7198  -3.3633  -3.3413
    -3.2368  -3.2347  -3.0185  -2.9264   0.3331   0.4474   2.6433   2.8669
     3.4319   3.5152   7.0086   7.1590   9.1119

          k = 0.3536 0.4914 0.2157 ( 10902 PWs)   bands (ev):

    -6.0718  -6.0565  -3.9945  -3.9890  -3.8698  -3.7189  -3.3629  -3.3408
    -3.2369  -3.2347  -3.0182  -2.9251   0.3345   0.4506   2.6291   2.8548
     3.4236   3.5079   7.0244   7.1763   9.1069

          k = 0.3536 0.4932 0.2139 ( 10900 PWs)   bands (ev):

    -6.0711  -6.0557  -3.9941  -3.9885  -3.8705  -3.7180  -3.3625  -3.3404
    -3.2370  -3.2348  -3.0178  -2.9238   0.3358   0.4537   2.6149   2.8427
     3.4153   3.5006   7.0403   7.1936   9.1021

          k = 0.3536 0.4950 0.2121 ( 10900 PWs)   bands (ev):

    -6.0705  -6.0549  -3.9938  -3.9880  -3.8712  -3.7171  -3.3620  -3.3400
    -3.2371  -3.2348  -3.0174  -2.9226   0.3372   0.4570   2.6008   2.8306
     3.4069   3.4933   7.0560   7.2109   9.0974

          k = 0.3536 0.4967 0.2104 ( 10900 PWs)   bands (ev):

    -6.0698  -6.0540  -3.9935  -3.9875  -3.8719  -3.7163  -3.3616  -3.3396
    -3.2372  -3.2348  -3.0169  -2.9213   0.3385   0.4602   2.5868   2.8186
     3.3985   3.4859   7.0717   7.2281   9.0929

          k = 0.3536 0.4985 0.2086 ( 10900 PWs)   bands (ev):

    -6.0691  -6.0532  -3.9932  -3.9870  -3.8726  -3.7154  -3.3612  -3.3391
    -3.2373  -3.2348  -3.0165  -2.9200   0.3398   0.4634   2.5728   2.8067
     3.3901   3.4785   7.0874   7.2452   9.0885

          k = 0.3536 0.5003 0.2068 ( 10904 PWs)   bands (ev):

    -6.0684  -6.0524  -3.9928  -3.9865  -3.8733  -3.7145  -3.3607  -3.3387
    -3.2374  -3.2348  -3.0160  -2.9187   0.3412   0.4666   2.5588   2.7948
     3.3817   3.4711   7.1029   7.2623   9.0842

          k = 0.3536 0.5020 0.2051 ( 10904 PWs)   bands (ev):

    -6.0677  -6.0515  -3.9925  -3.9860  -3.8740  -3.7137  -3.3602  -3.3383
    -3.2375  -3.2348  -3.0156  -2.9174   0.3425   0.4698   2.5450   2.7830
     3.3733   3.4636   7.1184   7.2793   9.0802

          k = 0.3536 0.5038 0.2033 ( 10902 PWs)   bands (ev):

    -6.0670  -6.0507  -3.9922  -3.9854  -3.8747  -3.7128  -3.3598  -3.3379
    -3.2376  -3.2348  -3.0151  -2.9161   0.3438   0.4730   2.5312   2.7712
     3.3648   3.4561   7.1339   7.2963   9.0762

          k = 0.3536 0.5056 0.2015 ( 10902 PWs)   bands (ev):

    -6.0664  -6.0498  -3.9919  -3.9849  -3.8754  -3.7119  -3.3593  -3.3375
    -3.2377  -3.2348  -3.0146  -2.9148   0.3451   0.4763   2.5175   2.7596
     3.3562   3.4485   7.1492   7.3132   9.0725

          k = 0.3536 0.5073 0.1998 ( 10898 PWs)   bands (ev):

    -6.0657  -6.0490  -3.9915  -3.9844  -3.8760  -3.7111  -3.3588  -3.3371
    -3.2379  -3.2348  -3.0141  -2.9135   0.3464   0.4795   2.5038   2.7480
     3.3477   3.4409   7.1645   7.3300   9.0689

          k = 0.3536 0.5091 0.1980 ( 10904 PWs)   bands (ev):

    -6.0650  -6.0481  -3.9912  -3.9838  -3.8767  -3.7103  -3.3583  -3.3367
    -3.2380  -3.2348  -3.0135  -2.9122   0.3477   0.4827   2.4903   2.7365
     3.3391   3.4332   7.1797   7.3467   9.0654

          k = 0.3536 0.5109 0.1962 ( 10912 PWs)   bands (ev):

    -6.0643  -6.0473  -3.9909  -3.9833  -3.8774  -3.7094  -3.3579  -3.3363
    -3.2381  -3.2348  -3.0130  -2.9109   0.3490   0.4859   2.4768   2.7251
     3.3305   3.4255   7.1948   7.3634   9.0620

          k = 0.3536 0.5127 0.1945 ( 10912 PWs)   bands (ev):

    -6.0635  -6.0465  -3.9905  -3.9828  -3.8780  -3.7086  -3.3574  -3.3359
    -3.2382  -3.2348  -3.0124  -2.9096   0.3502   0.4891   2.4635   2.7138
     3.3218   3.4178   7.2099   7.3801   9.0588

          k = 0.3536 0.5144 0.1927 ( 10910 PWs)   bands (ev):

    -6.0628  -6.0456  -3.9902  -3.9822  -3.8787  -3.7078  -3.3569  -3.3355
    -3.2383  -3.2348  -3.0119  -2.9082   0.3515   0.4923   2.4502   2.7026
     3.3131   3.4100   7.2248   7.3966   9.0556

          k = 0.3536 0.5162 0.1909 ( 10908 PWs)   bands (ev):

    -6.0621  -6.0448  -3.9898  -3.9817  -3.8793  -3.7070  -3.3564  -3.3351
    -3.2384  -3.2348  -3.0113  -2.9069   0.3527   0.4955   2.4371   2.6915
     3.3044   3.4021   7.2397   7.4131   9.0516

          k = 0.3536 0.5180 0.1892 ( 10908 PWs)   bands (ev):

    -6.0614  -6.0439  -3.9895  -3.9811  -3.8799  -3.7062  -3.3559  -3.3347
    -3.2385  -3.2348  -3.0107  -2.9056   0.3539   0.4987   2.4240   2.6805
     3.2956   3.3943   7.2545   7.4295   9.0494

          k = 0.3536 0.5197 0.1874 ( 10912 PWs)   bands (ev):

    -6.0607  -6.0430  -3.9892  -3.9806  -3.8806  -3.7054  -3.3554  -3.3343
    -3.2387  -3.2348  -3.0100  -2.9043   0.3551   0.5018   2.4111   2.6696
     3.2868   3.3863   7.2692   7.4458   9.0445

          k = 0.3536 0.5215 0.1856 ( 10916 PWs)   bands (ev):

    -6.0600  -6.0422  -3.9888  -3.9800  -3.8812  -3.7046  -3.3549  -3.3339
    -3.2388  -3.2348  -3.0094  -2.9030   0.3563   0.5050   2.3983   2.6588
     3.2780   3.3784   7.2838   7.4621   9.0412

          k = 0.3536 0.5233 0.1838 ( 10916 PWs)   bands (ev):

    -6.0593  -6.0413  -3.9885  -3.9794  -3.8818  -3.7038  -3.3544  -3.3335
    -3.2389  -3.2348  -3.0088  -2.9016   0.3574   0.5081   2.3856   2.6482
     3.2692   3.3704   7.2983   7.4782   9.0383

          k = 0.3536 0.5250 0.1821 ( 10916 PWs)   bands (ev):

    -6.0585  -6.0405  -3.9882  -3.9789  -3.8824  -3.7030  -3.3538  -3.3331
    -3.2390  -3.2348  -3.0081  -2.9003   0.3586   0.5112   2.3730   2.6377
     3.2603   3.3623   7.3127   7.4943   9.0350

          k = 0.3536 0.5268 0.1803 ( 10912 PWs)   bands (ev):

    -6.0578  -6.0396  -3.9878  -3.9783  -3.8830  -3.7022  -3.3533  -3.3327
    -3.2391  -3.2348  -3.0074  -2.8990   0.3597   0.5143   2.3606   2.6273
     3.2514   3.3542   7.3270   7.5103   9.0321

          k = 0.3536 0.5286 0.1785 ( 10910 PWs)   bands (ev):

    -6.0571  -6.0388  -3.9875  -3.9778  -3.8836  -3.7015  -3.3528  -3.3324
    -3.2392  -3.2348  -3.0067  -2.8977   0.3608   0.5174   2.3482   2.6170
     3.2424   3.3461   7.3412   7.5263   9.0295

          k = 0.3536 0.5303 0.1768 ( 10910 PWs)   bands (ev):

    -6.0564  -6.0379  -3.9871  -3.9772  -3.8842  -3.7007  -3.3523  -3.3320
    -3.2394  -3.2348  -3.0060  -2.8964   0.3618   0.5205   2.3361   2.6069
     3.2334   3.3379   7.3553   7.5421   9.0271

          k = 0.3536 0.5321 0.1750 ( 10910 PWs)   bands (ev):

    -6.0557  -6.0371  -3.9868  -3.9766  -3.8848  -3.7000  -3.3518  -3.3316
    -3.2395  -3.2348  -3.0053  -2.8950   0.3629   0.5235   2.3240   2.5969
     3.2244   3.3297   7.3693   7.5579   9.0244

          k = 0.3536 0.5339 0.1732 ( 10910 PWs)   bands (ev):

    -6.0549  -6.0362  -3.9864  -3.9761  -3.8854  -3.6992  -3.3512  -3.3312
    -3.2396  -3.2347  -3.0046  -2.8937   0.3639   0.5265   2.3121   2.5871
     3.2154   3.3215   7.3832   7.5736   9.0221

          k = 0.3536 0.5356 0.1715 ( 10914 PWs)   bands (ev):

    -6.0542  -6.0354  -3.9861  -3.9755  -3.8860  -3.6985  -3.3507  -3.3309
    -3.2397  -3.2347  -3.0038  -2.8924   0.3649   0.5295   2.3004   2.5774
     3.2063   3.3132   7.3970   7.5892   9.0199

          k = 0.3536 0.5374 0.1697 ( 10916 PWs)   bands (ev):

    -6.0535  -6.0345  -3.9858  -3.9749  -3.8866  -3.6977  -3.3502  -3.3305
    -3.2399  -3.2347  -3.0031  -2.8911   0.3659   0.5324   2.2888   2.5678
     3.1972   3.3048   7.4107   7.6047   9.0179

          k = 0.3536 0.5392 0.1679 ( 10914 PWs)   bands (ev):

    -6.0528  -6.0337  -3.9854  -3.9743  -3.8871  -3.6970  -3.3497  -3.3302
    -3.2400  -3.2347  -3.0023  -2.8897   0.3668   0.5354   2.2773   2.5584
     3.1880   3.2965   7.4243   7.6201   9.0162

          k = 0.3536 0.5409 0.1662 ( 10912 PWs)   bands (ev):

    -6.0520  -6.0329  -3.9851  -3.9738  -3.8877  -3.6963  -3.3492  -3.3298
    -3.2401  -3.2347  -3.0015  -2.8884   0.3677   0.5383   2.2660   2.5492
     3.1789   3.2881   7.4378   7.6354   9.0144

          k = 0.3536 0.5427 0.1644 ( 10902 PWs)   bands (ev):

    -6.0513  -6.0320  -3.9847  -3.9732  -3.8882  -3.6956  -3.3486  -3.3294
    -3.2402  -3.2346  -3.0007  -2.8871   0.3686   0.5411   2.2549   2.5401
     3.1697   3.2796   7.4512   7.6507   9.0128

          k = 0.3536 0.5445 0.1626 ( 10902 PWs)   bands (ev):

    -6.0506  -6.0312  -3.9844  -3.9726  -3.8888  -3.6949  -3.3481  -3.3291
    -3.2404  -3.2346  -2.9999  -2.8858   0.3694   0.5439   2.2439   2.5312
     3.1605   3.2711   7.4645   7.6658   9.0114

          k = 0.3536 0.5462 0.1609 ( 10908 PWs)   bands (ev):

    -6.0499  -6.0303  -3.9841  -3.9721  -3.8893  -3.6942  -3.3476  -3.3287
    -3.2405  -3.2346  -2.9991  -2.8845   0.3703   0.5467   2.2331   2.5224
     3.1512   3.2626   7.4777   7.6809   9.0102

          k = 0.3536 0.5480 0.1591 ( 10908 PWs)   bands (ev):

    -6.0492  -6.0295  -3.9837  -3.9715  -3.8899  -3.6935  -3.3471  -3.3284
    -3.2406  -3.2346  -2.9983  -2.8831   0.3710   0.5495   2.2225   2.5138
     3.1420   3.2541   7.4908   7.6958   9.0090

          k = 0.3536 0.5498 0.1573 ( 10906 PWs)   bands (ev):

    -6.0484  -6.0287  -3.9834  -3.9709  -3.8904  -3.6928  -3.3465  -3.3281
    -3.2407  -3.2345  -2.9974  -2.8818   0.3718   0.5522   2.2121   2.5053
     3.1327   3.2455   7.5037   7.7107   9.0079

          k = 0.3536 0.5515 0.1556 ( 10906 PWs)   bands (ev):

    -6.0477  -6.0278  -3.9830  -3.9704  -3.8909  -3.6921  -3.3460  -3.3277
    -3.2409  -3.2345  -2.9966  -2.8805   0.3725   0.5548   2.2018   2.4971
     3.1233   3.2369   7.5166   7.7255   9.0071

          k = 0.3536 0.5533 0.1538 ( 10904 PWs)   bands (ev):

    -6.0470  -6.0270  -3.9827  -3.9698  -3.8915  -3.6915  -3.3455  -3.3274
    -3.2410  -3.2345  -2.9957  -2.8792   0.3732   0.5574   2.1917   2.4890
     3.1140   3.2282   7.5293   7.7402   9.0063

          k = 0.3536 0.5551 0.1520 ( 10904 PWs)   bands (ev):

    -6.0463  -6.0262  -3.9824  -3.9692  -3.8920  -3.6908  -3.3450  -3.3270
    -3.2411  -3.2345  -2.9948  -2.8779   0.3739   0.5600   2.1818   2.4810
     3.1047   3.2195   7.5420   7.7548   9.0058

          k = 0.3536 0.5568 0.1503 ( 10892 PWs)   bands (ev):

    -6.0456  -6.0254  -3.9820  -3.9687  -3.8925  -3.6901  -3.3445  -3.3267
    -3.2413  -3.2344  -2.9940  -2.8766   0.3745   0.5625   2.1720   2.4733
     3.0953   3.2108   7.5545   7.7694   9.0053

          k = 0.3536 0.5586 0.1485 ( 10892 PWs)   bands (ev):

    -6.0449  -6.0246  -3.9817  -3.9681  -3.8930  -3.6895  -3.3439  -3.3264
    -3.2414  -3.2344  -2.9931  -2.8753   0.3751   0.5650   2.1625   2.4657
     3.0859   3.2021   7.5669   7.7838   9.0050

          k = 0.3536 0.5604 0.1467 ( 10892 PWs)   bands (ev):

    -6.0442  -6.0238  -3.9814  -3.9675  -3.8935  -3.6889  -3.3434  -3.3260
    -3.2415  -3.2344  -2.9922  -2.8740   0.3756   0.5674   2.1531   2.4583
     3.0765   3.1933   7.5792   7.7981   9.0049

          k = 0.3536 0.5621 0.1450 ( 10888 PWs)   bands (ev):

    -6.0435  -6.0230  -3.9810  -3.9670  -3.8940  -3.6882  -3.3429  -3.3257
    -3.2417  -3.2343  -2.9913  -2.8727   0.3761   0.5698   2.1440   2.4511
     3.0670   3.1845   7.5914   7.8124   9.0048

          k = 0.3536 0.5639 0.1432 ( 10888 PWs)   bands (ev):

    -6.0428  -6.0222  -3.9807  -3.9664  -3.8945  -3.6876  -3.3424  -3.3254
    -3.2418  -3.2343  -2.9903  -2.8714   0.3766   0.5721   2.1350   2.4441
     3.0576   3.1757   7.6035   7.8265   9.0048

          k = 0.3536 0.5657 0.1414 ( 10890 PWs)   bands (ev):

    -6.0421  -6.0214  -3.9804  -3.9659  -3.8949  -3.6870  -3.3419  -3.3251
    -3.2419  -3.2343  -2.9894  -2.8702   0.3770   0.5744   2.1262   2.4372
     3.0481   3.1668   7.6155   7.8406   9.0052

          k = 0.3536 0.5675 0.1397 ( 10888 PWs)   bands (ev):

    -6.0414  -6.0206  -3.9800  -3.9653  -3.8954  -3.6864  -3.3414  -3.3247
    -3.2421  -3.2342  -2.9885  -2.8689   0.3774   0.5766   2.1176   2.4306
     3.0386   3.1579   7.6274   7.8545   9.0053

          k = 0.3536 0.5692 0.1379 ( 10888 PWs)   bands (ev):

    -6.0407  -6.0198  -3.9797  -3.9648  -3.8959  -3.6858  -3.3409  -3.3244
    -3.2422  -3.2342  -2.9875  -2.8676   0.3778   0.5787   2.1093   2.4241
     3.0291   3.1490   7.6391   7.8684   9.0058

          k = 0.3536 0.5710 0.1361 ( 10886 PWs)   bands (ev):

    -6.0400  -6.0190  -3.9794  -3.9642  -3.8964  -3.6852  -3.3404  -3.3241
    -3.2423  -3.2342  -2.9866  -2.8664   0.3781   0.5808   2.1011   2.4178
     3.0196   3.1401   7.6508   7.8822   9.0066

          k = 0.3536 0.5728 0.1344 ( 10886 PWs)   bands (ev):

    -6.0393  -6.0182  -3.9790  -3.9637  -3.8968  -3.6846  -3.3399  -3.3238
    -3.2425  -3.2341  -2.9856  -2.8651   0.3784   0.5828   2.0932   2.4117
     3.0101   3.1311   7.6623   7.8959   9.0071

          k = 0.3536 0.5745 0.1326 ( 10884 PWs)   bands (ev):

    -6.0386  -6.0175  -3.9787  -3.9631  -3.8973  -3.6840  -3.3395  -3.3234
    -3.2426  -3.2341  -2.9847  -2.8638   0.3787   0.5848   2.0854   2.4058
     3.0006   3.1221   7.6737   7.9095   9.0079

          k = 0.3536 0.5763 0.1308 ( 10886 PWs)   bands (ev):

    -6.0380  -6.0167  -3.9784  -3.9626  -3.8977  -3.6834  -3.3390  -3.3231
    -3.2427  -3.2341  -2.9837  -2.8626   0.3789   0.5867   2.0779   2.4001
     2.9911   3.1131   7.6851   7.9229   9.0087

          k = 0.3536 0.5781 0.1290 ( 10886 PWs)   bands (ev):

    -6.0373  -6.0159  -3.9781  -3.9621  -3.8981  -3.6828  -3.3385  -3.3228
    -3.2429  -3.2340  -2.9827  -2.8614   0.3791   0.5885   2.0706   2.3946
     2.9816   3.1041   7.6963   7.9363   9.0097

          k = 0.3536 0.5798 0.1273 ( 10884 PWs)   bands (ev):

    -6.0366  -6.0152  -3.9777  -3.9615  -3.8986  -3.6823  -3.3380  -3.3225
    -3.2430  -3.2340  -2.9817  -2.8601   0.3792   0.5903   2.0635   2.3893
     2.9720   3.0951   7.7074   7.9497   9.0108

          k = 0.3536 0.5816 0.1255 ( 10884 PWs)   bands (ev):

    -6.0360  -6.0144  -3.9774  -3.9610  -3.8990  -3.6817  -3.3376  -3.3222
    -3.2431  -3.2340  -2.9807  -2.8589   0.3793   0.5920   2.0566   2.3841
     2.9625   3.0860   7.7184   7.9629   9.0120

          k = 0.3536 0.5834 0.1237 ( 10884 PWs)   bands (ev):

    -6.0353  -6.0137  -3.9771  -3.9605  -3.8994  -3.6812  -3.3371  -3.3219
    -3.2433  -3.2339  -2.9798  -2.8577   0.3794   0.5936   2.0499   2.3792
     2.9530   3.0770   7.7293   7.9760   9.0132

          k = 0.3536 0.5851 0.1220 ( 10886 PWs)   bands (ev):

    -6.0346  -6.0130  -3.9768  -3.9600  -3.8998  -3.6806  -3.3367  -3.3215
    -3.2434  -3.2339  -2.9788  -2.8565   0.3794   0.5952   2.0435   2.3745
     2.9434   3.0679   7.7400   7.9890   9.0146

          k = 0.3536 0.5869 0.1202 ( 10882 PWs)   bands (ev):

    -6.0340  -6.0122  -3.9765  -3.9595  -3.9002  -3.6801  -3.3362  -3.3212
    -3.2436  -3.2338  -2.9778  -2.8553   0.3794   0.5967   2.0372   2.3700
     2.9339   3.0588   7.7507   8.0019   9.0160

          k = 0.3536 0.5887 0.1184 ( 10882 PWs)   bands (ev):

    -6.0334  -6.0115  -3.9761  -3.9590  -3.9006  -3.6796  -3.3358  -3.3209
    -3.2437  -3.2338  -2.9768  -2.8541   0.3793   0.5982   2.0312   2.3656
     2.9244   3.0497   7.7613   8.0147   9.0176

          k = 0.3536 0.5904 0.1167 ( 10882 PWs)   bands (ev):

    -6.0327  -6.0108  -3.9758  -3.9585  -3.9010  -3.6791  -3.3354  -3.3206
    -3.2438  -3.2338  -2.9758  -2.8529   0.3793   0.5995   2.0254   2.3615
     2.9148   3.0405   7.7717   8.0275   9.0191

          k = 0.3536 0.5922 0.1149 ( 10882 PWs)   bands (ev):

    -6.0321  -6.0101  -3.9755  -3.9580  -3.9014  -3.6786  -3.3350  -3.3203
    -3.2440  -3.2337  -2.9748  -2.8517   0.3792   0.6008   2.0199   2.3575
     2.9053   3.0314   7.7821   8.0401   9.0208

          k = 0.3536 0.5940 0.1131 ( 10886 PWs)   bands (ev):

    -6.0315  -6.0094  -3.9752  -3.9575  -3.9018  -3.6781  -3.3346  -3.3200
    -3.2441  -3.2337  -2.9738  -2.8505   0.3790   0.6020   2.0145   2.3538
     2.8958   3.0223   7.7923   8.0527   9.0225

          k = 0.3536 0.5957 0.1114 ( 10884 PWs)   bands (ev):

    -6.0308  -6.0087  -3.9749  -3.9570  -3.9022  -3.6776  -3.3341  -3.3196
    -3.2443  -3.2337  -2.9728  -2.8494   0.3788   0.6032   2.0094   2.3502
     2.8863   3.0131   7.8024   8.0651   9.0243

          k = 0.3536 0.5975 0.1096 ( 10884 PWs)   bands (ev):

    -6.0302  -6.0080  -3.9746  -3.9565  -3.9025  -3.6771  -3.3338  -3.3193
    -3.2444  -3.2336  -2.9718  -2.8482   0.3786   0.6043   2.0045   2.3469
     2.8769   3.0040   7.8124   8.0774   9.0261

          k = 0.3536 0.5993 0.1078 ( 10884 PWs)   bands (ev):

    -6.0296  -6.0073  -3.9743  -3.9560  -3.9029  -3.6766  -3.3334  -3.3190
    -3.2445  -3.2336  -2.9708  -2.8471   0.3784   0.6053   1.9998   2.3438
     2.8674   2.9948   7.8224   8.0897   9.0279

          k = 0.3536 0.6010 0.1061 ( 10884 PWs)   bands (ev):

    -6.0290  -6.0067  -3.9740  -3.9556  -3.9033  -3.6761  -3.3330  -3.3187
    -3.2447  -3.2335  -2.9698  -2.8459   0.3781   0.6063   1.9953   2.3408
     2.8580   2.9857   7.8322   8.1019   9.0298

          k = 0.3536 0.6028 0.1043 ( 10884 PWs)   bands (ev):

    -6.0284  -6.0060  -3.9737  -3.9551  -3.9036  -3.6757  -3.3326  -3.3184
    -3.2448  -3.2335  -2.9688  -2.8448   0.3778   0.6071   1.9911   2.3381
     2.8485   2.9765   7.8419   8.1139   9.0317

          k = 0.3536 0.6046 0.1025 ( 10892 PWs)   bands (ev):

    -6.0278  -6.0053  -3.9734  -3.9547  -3.9039  -3.6752  -3.3323  -3.3180
    -3.2450  -3.2335  -2.9678  -2.8437   0.3774   0.6079   1.9871   2.3355
     2.8391   2.9673   7.8515   8.1259   9.0336

          k = 0.3536 0.6063 0.1008 ( 10892 PWs)   bands (ev):

    -6.0273  -6.0047  -3.9731  -3.9542  -3.9043  -3.6748  -3.3319  -3.3177
    -3.2451  -3.2334  -2.9668  -2.8426   0.3771   0.6087   1.9833   2.3331
     2.8298   2.9582   7.8609   8.1377   9.0356

          k = 0.3536 0.6081 0.0990 ( 10894 PWs)   bands (ev):

    -6.0267  -6.0041  -3.9728  -3.9538  -3.9046  -3.6743  -3.3316  -3.3174
    -3.2452  -3.2334  -2.9658  -2.8415   0.3767   0.6094   1.9797   2.3310
     2.8204   2.9490   7.8703   8.1495   9.0375

          k = 0.3536 0.6099 0.0972 ( 10892 PWs)   bands (ev):

    -6.0261  -6.0034  -3.9725  -3.9534  -3.9049  -3.6739  -3.3312  -3.3171
    -3.2454  -3.2334  -2.9648  -2.8405   0.3763   0.6100   1.9763   2.3290
     2.8111   2.9399   7.8796   8.1612   9.0394

          k = 0.3536 0.6116 0.0955 ( 10890 PWs)   bands (ev):

    -6.0256  -6.0028  -3.9722  -3.9529  -3.9052  -3.6734  -3.3309  -3.3168
    -3.2455  -3.2333  -2.9638  -2.8394   0.3758   0.6105   1.9731   2.3273
     2.8018   2.9307   7.8888   8.1727   9.0413

          k = 0.3536 0.6134 0.0937 ( 10892 PWs)   bands (ev):

    -6.0250  -6.0022  -3.9719  -3.9525  -3.9055  -3.6730  -3.3306  -3.3164
    -3.2457  -3.2333  -2.9628  -2.8384   0.3753   0.6110   1.9702   2.3257
     2.7926   2.9216   7.8978   8.1842   9.0432

          k = 0.3536 0.6152 0.0919 ( 10892 PWs)   bands (ev):

    -6.0245  -6.0016  -3.9717  -3.9521  -3.9058  -3.6726  -3.3303  -3.3161
    -3.2458  -3.2333  -2.9619  -2.8373   0.3748   0.6114   1.9675   2.3243
     2.7834   2.9124   7.9068   8.1956   9.0451

          k = 0.3536 0.6170 0.0902 ( 10892 PWs)   bands (ev):

    -6.0239  -6.0010  -3.9714  -3.9517  -3.9061  -3.6722  -3.3300  -3.3158
    -3.2459  -3.2332  -2.9609  -2.8363   0.3743   0.6118   1.9649   2.3231
     2.7742   2.9033   7.9156   8.2068   9.0469

          k = 0.3536 0.6187 0.0884 ( 10896 PWs)   bands (ev):

    -6.0234  -6.0004  -3.9711  -3.9513  -3.9064  -3.6718  -3.3297  -3.3155
    -3.2461  -3.2332  -2.9599  -2.8353   0.3738   0.6121   1.9626   2.3221
     2.7651   2.8942   7.9243   8.2180   9.0487

          k = 0.3536 0.6205 0.0866 ( 10894 PWs)   bands (ev):

    -6.0229  -5.9999  -3.9708  -3.9509  -3.9067  -3.6714  -3.3294  -3.3152
    -3.2462  -3.2332  -2.9590  -2.8343   0.3732   0.6123   1.9605   2.3213
     2.7560   2.8851   7.9329   8.2291   9.0504

          k = 0.3536 0.6223 0.0849 ( 10888 PWs)   bands (ev):

    -6.0224  -5.9993  -3.9706  -3.9506  -3.9070  -3.6710  -3.3291  -3.3148
    -3.2463  -3.2331  -2.9580  -2.8333   0.3726   0.6125   1.9586   2.3207
     2.7470   2.8760   7.9414   8.2400   9.0521

          k = 0.3536 0.6240 0.0831 ( 10888 PWs)   bands (ev):

    -6.0219  -5.9987  -3.9703  -3.9502  -3.9072  -3.6707  -3.3289  -3.3145
    -3.2465  -3.2331  -2.9571  -2.8324   0.3720   0.6126   1.9569   2.3203
     2.7380   2.8669   7.9498   8.2509   9.0537

          k = 0.3536 0.6258 0.0813 ( 10890 PWs)   bands (ev):

    -6.0214  -5.9982  -3.9700  -3.9498  -3.9075  -3.6703  -3.3286  -3.3142
    -3.2466  -3.2331  -2.9562  -2.8314   0.3714   0.6127   1.9553   2.3200
     2.7291   2.8578   7.9581   8.2616   9.0552

          k = 0.3536 0.6276 0.0795 ( 10888 PWs)   bands (ev):

    -6.0209  -5.9977  -3.9698  -3.9495  -3.9077  -3.6699  -3.3284  -3.3139
    -3.2467  -3.2330  -2.9553  -2.8305   0.3708   0.6127   1.9540   2.3200
     2.7202   2.8488   7.9663   8.2723   9.0566

          k = 0.3536 0.6293 0.0778 ( 10888 PWs)   bands (ev):

    -6.0204  -5.9971  -3.9695  -3.9491  -3.9080  -3.6696  -3.3281  -3.3136
    -3.2469  -3.2330  -2.9543  -2.8296   0.3702   0.6127   1.9528   2.3201
     2.7114   2.8398   7.9743   8.2828   9.0580

          k = 0.3536 0.6311 0.0760 ( 10888 PWs)   bands (ev):

    -6.0200  -5.9966  -3.9693  -3.9488  -3.9082  -3.6692  -3.3279  -3.3132
    -3.2470  -3.2330  -2.9534  -2.8287   0.3695   0.6126   1.9519   2.3204
     2.7027   2.8308   7.9823   8.2933   9.0593

          k = 0.3536 0.6329 0.0742 ( 10886 PWs)   bands (ev):

    -6.0195  -5.9961  -3.9690  -3.9485  -3.9084  -3.6689  -3.3277  -3.3129
    -3.2471  -3.2329  -2.9526  -2.8278   0.3688   0.6125   1.9511   2.3209
     2.6940   2.8218   7.9901   8.3036   9.0604

          k = 0.3536 0.6346 0.0725 ( 10886 PWs)   bands (ev):

    -6.0190  -5.9956  -3.9688  -3.9482  -3.9087  -3.6686  -3.3275  -3.3126
    -3.2473  -3.2329  -2.9517  -2.8269   0.3682   0.6123   1.9504   2.3216
     2.6854   2.8128   7.9978   8.3138   9.0615

          k = 0.3536 0.6364 0.0707 ( 10878 PWs)   bands (ev):

    -6.0186  -5.9951  -3.9685  -3.9479  -3.9089  -3.6683  -3.3272  -3.3123
    -3.2474  -3.2329  -2.9508  -2.8260   0.3675   0.6121   1.9500   2.3225
     2.6769   2.8039   8.0054   8.3239   9.0625

          k = 0.3536 0.6382 0.0689 ( 10878 PWs)   bands (ev):

    -6.0182  -5.9947  -3.9683  -3.9476  -3.9091  -3.6679  -3.3270  -3.3120
    -3.2475  -3.2329  -2.9500  -2.8252   0.3668   0.6119   1.9497   2.3235
     2.6685   2.7950   8.0128   8.3338   9.0633

          k = 0.3536 0.6399 0.0672 ( 10882 PWs)   bands (ev):

    -6.0178  -5.9942  -3.9680  -3.9473  -3.9093  -3.6676  -3.3269  -3.3117
    -3.2477  -3.2328  -2.9491  -2.8244   0.3661   0.6116   1.9496   2.3247
     2.6601   2.7861   8.0201   8.3437   9.0640

          k = 0.3536 0.6417 0.0654 ( 10878 PWs)   bands (ev):

    -6.0173  -5.9938  -3.9678  -3.9470  -3.9095  -3.6673  -3.3267  -3.3114
    -3.2478  -3.2328  -2.9483  -2.8236   0.3654   0.6113   1.9496   2.3261
     2.6518   2.7773   8.0273   8.3534   9.0647

          k = 0.3536 0.6435 0.0636 ( 10878 PWs)   bands (ev):

    -6.0169  -5.9933  -3.9676  -3.9468  -3.9097  -3.6670  -3.3265  -3.3111
    -3.2479  -3.2328  -2.9475  -2.8228   0.3647   0.6110   1.9497   2.3276
     2.6437   2.7685   8.0344   8.3630   9.0652

          k = 0.3536 0.6452 0.0619 ( 10874 PWs)   bands (ev):

    -6.0165  -5.9929  -3.9674  -3.9465  -3.9098  -3.6668  -3.3263  -3.3108
    -3.2480  -3.2328  -2.9467  -2.8220   0.3640   0.6106   1.9500   2.3294
     2.6356   2.7597   8.0414   8.3725   9.0656

          k = 0.3536 0.6470 0.0601 ( 10872 PWs)   bands (ev):

    -6.0162  -5.9925  -3.9671  -3.9463  -3.9100  -3.6665  -3.3261  -3.3105
    -3.2481  -3.2327  -2.9459  -2.8213   0.3633   0.6102   1.9505   2.3312
     2.6277   2.7510   8.0482   8.3818   9.0659

          k = 0.3536 0.6488 0.0583 ( 10872 PWs)   bands (ev):

    -6.0158  -5.9921  -3.9669  -3.9460  -3.9102  -3.6662  -3.3260  -3.3103
    -3.2483  -3.2327  -2.9452  -2.8205   0.3626   0.6098   1.9510   2.3333
     2.6198   2.7423   8.0548   8.3910   9.0660

          k = 0.3536 0.6505 0.0566 ( 10876 PWs)   bands (ev):

    -6.0154  -5.9917  -3.9667  -3.9458  -3.9103  -3.6660  -3.3258  -3.3100
    -3.2484  -3.2327  -2.9444  -2.8198   0.3619   0.6093   1.9517   2.3355
     2.6121   2.7336   8.0613   8.4000   9.0661

          k = 0.3536 0.6523 0.0548 ( 10870 PWs)   bands (ev):

    -6.0151  -5.9913  -3.9665  -3.9456  -3.9105  -3.6657  -3.3257  -3.3097
    -3.2485  -3.2327  -2.9437  -2.8191   0.3612   0.6089   1.9525   2.3379
     2.6045   2.7250   8.0677   8.4090   9.0661

          k = 0.3536 0.6541 0.0530 ( 10870 PWs)   bands (ev):

    -6.0147  -5.9909  -3.9663  -3.9454  -3.9106  -3.6655  -3.3256  -3.3095
    -3.2486  -3.2327  -2.9430  -2.8185   0.3605   0.6084   1.9534   2.3404
     2.5970   2.7164   8.0740   8.4177   9.0660

          k = 0.3536 0.6558 0.0513 ( 10868 PWs)   bands (ev):

    -6.0144  -5.9905  -3.9661  -3.9452  -3.9108  -3.6652  -3.3254  -3.3092
    -3.2487  -3.2326  -2.9423  -2.8178   0.3598   0.6079   1.9544   2.3431
     2.5897   2.7079   8.0800   8.4263   9.0658

          k = 0.3536 0.6576 0.0495 ( 10868 PWs)   bands (ev):

    -6.0141  -5.9902  -3.9659  -3.9450  -3.9109  -3.6650  -3.3253  -3.3089
    -3.2488  -3.2326  -2.9416  -2.8172   0.3592   0.6074   1.9555   2.3460
     2.5824   2.6994   8.0860   8.4347   9.0655

          k = 0.3536 0.6594 0.0477 ( 10868 PWs)   bands (ev):

    -6.0138  -5.9899  -3.9658  -3.9448  -3.9110  -3.6648  -3.3252  -3.3087
    -3.2489  -3.2326  -2.9410  -2.8166   0.3585   0.6069   1.9567   2.3490
     2.5754   2.6910   8.0918   8.4430   9.0651

          k = 0.3536 0.6611 0.0460 ( 10870 PWs)   bands (ev):

    -6.0135  -5.9895  -3.9656  -3.9446  -3.9111  -3.6646  -3.3250  -3.3084
    -3.2490  -3.2326  -2.9404  -2.8160   0.3579   0.6064   1.9579   2.3521
     2.5685   2.6826   8.0974   8.4511   9.0647

          k = 0.3536 0.6629 0.0442 ( 10868 PWs)   bands (ev):

    -6.0132  -5.9892  -3.9654  -3.9444  -3.9113  -3.6644  -3.3249  -3.3082
    -3.2491  -3.2326  -2.9397  -2.8154   0.3572   0.6059   1.9592   2.3554
     2.5617   2.6743   8.1028   8.4590   9.0642

          k = 0.3536 0.6647 0.0424 ( 10868 PWs)   bands (ev):

    -6.0129  -5.9889  -3.9652  -3.9443  -3.9114  -3.6642  -3.3248  -3.3080
    -3.2492  -3.2325  -2.9391  -2.8149   0.3566   0.6054   1.9606   2.3588
     2.5552   2.6660   8.1081   8.4667   9.0636

          k = 0.3536 0.6664 0.0407 ( 10870 PWs)   bands (ev):

    -6.0126  -5.9886  -3.9651  -3.9441  -3.9115  -3.6640  -3.3247  -3.3078
    -3.2493  -3.2325  -2.9386  -2.8143   0.3560   0.6049   1.9620   2.3624
     2.5487   2.6578   8.1132   8.4743   9.0630

          k = 0.3536 0.6682 0.0389 ( 10868 PWs)   bands (ev):

    -6.0124  -5.9883  -3.9649  -3.9440  -3.9116  -3.6638  -3.3246  -3.3076
    -3.2494  -3.2325  -2.9380  -2.8138   0.3554   0.6044   1.9635   2.3661
     2.5425   2.6497   8.1181   8.4816   9.0624

          k = 0.3536 0.6700 0.0371 ( 10872 PWs)   bands (ev):

    -6.0121  -5.9881  -3.9648  -3.9439  -3.9117  -3.6636  -3.3245  -3.3074
    -3.2495  -3.2325  -2.9375  -2.8133   0.3549   0.6039   1.9650   2.3700
     2.5365   2.6416   8.1229   8.4887   9.0617

          k = 0.3536 0.6718 0.0354 ( 10872 PWs)   bands (ev):

    -6.0119  -5.9878  -3.9646  -3.9437  -3.9117  -3.6635  -3.3245  -3.3072
    -3.2496  -3.2325  -2.9370  -2.8129   0.3543   0.6034   1.9665   2.3740
     2.5307   2.6335   8.1275   8.4955   9.0611

          k = 0.3536 0.6735 0.0336 ( 10864 PWs)   bands (ev):

    -6.0117  -5.9876  -3.9645  -3.9436  -3.9118  -3.6633  -3.3244  -3.3070
    -3.2497  -3.2325  -2.9365  -2.8124   0.3538   0.6029   1.9680   2.3781
     2.5251   2.6256   8.1318   8.5022   9.0604

          k = 0.3536 0.6753 0.0318 ( 10866 PWs)   bands (ev):

    -6.0115  -5.9873  -3.9643  -3.9435  -3.9119  -3.6632  -3.3243  -3.3068
    -3.2497  -3.2325  -2.9360  -2.8120   0.3533   0.6025   1.9695   2.3824
     2.5197   2.6177   8.1360   8.5086   9.0597

          k = 0.3536 0.6771 0.0301 ( 10864 PWs)   bands (ev):

    -6.0113  -5.9871  -3.9642  -3.9434  -3.9120  -3.6630  -3.3242  -3.3066
    -3.2498  -3.2325  -2.9356  -2.8116   0.3528   0.6020   1.9711   2.3867
     2.5145   2.6099   8.1400   8.5147   9.0591

          k = 0.3536 0.6788 0.0283 ( 10868 PWs)   bands (ev):

    -6.0111  -5.9869  -3.9641  -3.9433  -3.9120  -3.6629  -3.3242  -3.3065
    -3.2499  -3.2324  -2.9352  -2.8112   0.3523   0.6016   1.9726   2.3912
     2.5095   2.6022   8.1438   8.5206   9.0584

          k = 0.3536 0.6806 0.0265 ( 10868 PWs)   bands (ev):

    -6.0109  -5.9867  -3.9640  -3.9432  -3.9121  -3.6628  -3.3241  -3.3063
    -3.2499  -3.2324  -2.9348  -2.8108   0.3519   0.6011   1.9740   2.3958
     2.5048   2.5945   8.1474   8.5262   9.0578

          k = 0.3536 0.6824 0.0247 ( 10874 PWs)   bands (ev):

    -6.0107  -5.9865  -3.9639  -3.9431  -3.9121  -3.6626  -3.3240  -3.3062
    -3.2500  -3.2324  -2.9344  -2.8105   0.3514   0.6007   1.9755   2.4005
     2.5004   2.5870   8.1508   8.5315   9.0572

          k = 0.3536 0.6841 0.0230 ( 10874 PWs)   bands (ev):

    -6.0106  -5.9864  -3.9638  -3.9431  -3.9122  -3.6625  -3.3240  -3.3060
    -3.2501  -3.2324  -2.9341  -2.8102   0.3511   0.6004   1.9768   2.4053
     2.4962   2.5796   8.1539   8.5365   9.0567

          k = 0.3536 0.6859 0.0212 ( 10874 PWs)   bands (ev):

    -6.0104  -5.9862  -3.9637  -3.9430  -3.9122  -3.6624  -3.3239  -3.3059
    -3.2501  -3.2324  -2.9338  -2.8099   0.3507   0.6000   1.9782   2.4102
     2.4923   2.5722   8.1569   8.5412   9.0562

          k = 0.3536 0.6877 0.0194 ( 10876 PWs)   bands (ev):

    -6.0103  -5.9861  -3.9636  -3.9429  -3.9123  -3.6623  -3.3239  -3.3058
    -3.2502  -3.2324  -2.9335  -2.8096   0.3503   0.5997   1.9794   2.4152
     2.4886   2.5650   8.1596   8.5455   9.0558

          k = 0.3536 0.6894 0.0177 ( 10878 PWs)   bands (ev):

    -6.0102  -5.9859  -3.9635  -3.9429  -3.9123  -3.6623  -3.3238  -3.3057
    -3.2502  -3.2324  -2.9332  -2.8094   0.3500   0.5993   1.9806   2.4202
     2.4853   2.5579   8.1621   8.5496   9.0554

          k = 0.3536 0.6912 0.0159 ( 10880 PWs)   bands (ev):

    -6.0100  -5.9858  -3.9635  -3.9428  -3.9123  -3.6622  -3.3238  -3.3056
    -3.2503  -3.2324  -2.9330  -2.8092   0.3498   0.5991   1.9817   2.4253
     2.4822   2.5509   8.1644   8.5532   9.0551

          k = 0.3536 0.6930 0.0141 ( 10878 PWs)   bands (ev):

    -6.0099  -5.9857  -3.9634  -3.9428  -3.9124  -3.6621  -3.3238  -3.3055
    -3.2503  -3.2324  -2.9327  -2.8090   0.3495   0.5988   1.9827   2.4304
     2.4795   2.5441   8.1664   8.5566   9.0548

          k = 0.3536 0.6947 0.0124 ( 10874 PWs)   bands (ev):

    -6.0099  -5.9856  -3.9633  -3.9427  -3.9124  -3.6620  -3.3237  -3.3054
    -3.2503  -3.2324  -2.9325  -2.8088   0.3493   0.5986   1.9836   2.4355
     2.4771   2.5376   8.1682   8.5595   9.0546

          k = 0.3536 0.6965 0.0106 ( 10872 PWs)   bands (ev):

    -6.0098  -5.9855  -3.9633  -3.9427  -3.9124  -3.6620  -3.3237  -3.3053
    -3.2504  -3.2324  -2.9324  -2.8086   0.3491   0.5984   1.9844   2.4405
     2.4749   2.5312   8.1698   8.5621   9.0544

          k = 0.3536 0.6983 0.0088 ( 10870 PWs)   bands (ev):

    -6.0097  -5.9855  -3.9633  -3.9427  -3.9124  -3.6620  -3.3237  -3.3053
    -3.2504  -3.2324  -2.9322  -2.8085   0.3489   0.5982   1.9851   2.4454
     2.4732   2.5252   8.1711   8.5643   9.0542

          k = 0.3536 0.7000 0.0071 ( 10864 PWs)   bands (ev):

    -6.0097  -5.9854  -3.9632  -3.9426  -3.9125  -3.6619  -3.3237  -3.3052
    -3.2504  -3.2324  -2.9321  -2.8084   0.3488   0.5981   1.9857   2.4500
     2.4718   2.5197   8.1722   8.5662   9.0541

          k = 0.3536 0.7018 0.0053 ( 10864 PWs)   bands (ev):

    -6.0096  -5.9854  -3.9632  -3.9426  -3.9125  -3.6619  -3.3237  -3.3052
    -3.2504  -3.2324  -2.9320  -2.8083   0.3487   0.5980   1.9861   2.4541
     2.4707   2.5147   8.1731   8.5676   9.0541

          k = 0.3536 0.7036 0.0035 ( 10864 PWs)   bands (ev):

    -6.0096  -5.9853  -3.9632  -3.9426  -3.9125  -3.6619  -3.3237  -3.3052
    -3.2504  -3.2324  -2.9320  -2.8083   0.3486   0.5979   1.9865   2.4574
     2.4701   2.5107   8.1737   8.5686   9.0540

          k = 0.3536 0.7053 0.0018 ( 10864 PWs)   bands (ev):

    -6.0096  -5.9853  -3.9632  -3.9426  -3.9125  -3.6619  -3.3236  -3.3052
    -3.2504  -3.2324  -2.9319  -2.8082   0.3485   0.5978   1.9867   2.4596
     2.4698   2.5080   8.1740   8.5692   9.0540

          k = 0.3536 0.7071 0.0000 ( 10864 PWs)   bands (ev):

    -6.0096  -5.9853  -3.9632  -3.9426  -3.9125  -3.6619  -3.3236  -3.3052
    -3.2504  -3.2324  -2.9319  -2.8082   0.3485   0.5978   1.9867   2.4604
     2.4697   2.5071   8.1742   8.5694   9.0540

          k = 0.3506 0.7071 0.0000 ( 10864 PWs)   bands (ev):

    -6.0096  -5.9853  -3.9632  -3.9426  -3.9125  -3.6619  -3.3236  -3.3052
    -3.2505  -3.2324  -2.9319  -2.8082   0.3485   0.5978   1.9868   2.4601
     2.4701   2.5071   8.1739   8.5690   9.0528

          k = 0.3477 0.7071 0.0000 ( 10864 PWs)   bands (ev):

    -6.0096  -5.9853  -3.9632  -3.9426  -3.9124  -3.6619  -3.3236  -3.3051
    -3.2505  -3.2323  -2.9319  -2.8083   0.3485   0.5976   1.9871   2.4595
     2.4710   2.5073   8.1729   8.5677   9.0495

          k = 0.3447 0.7071 0.0000 ( 10864 PWs)   bands (ev):

    -6.0096  -5.9853  -3.9632  -3.9426  -3.9123  -3.6619  -3.3236  -3.3051
    -3.2505  -3.2323  -2.9319  -2.8083   0.3484   0.5974   1.9875   2.4586
     2.4724   2.5075   8.1714   8.5657   9.0438

          k = 0.3418 0.7071 0.0000 ( 10868 PWs)   bands (ev):

    -6.0096  -5.9853  -3.9633  -3.9426  -3.9122  -3.6620  -3.3236  -3.3051
    -3.2506  -3.2323  -2.9319  -2.8084   0.3484   0.5971   1.9881   2.4576
     2.4740   2.5079   8.1693   8.5628   9.0361

          k = 0.3388 0.7071 0.0000 ( 10876 PWs)   bands (ev):

    -6.0095  -5.9853  -3.9633  -3.9427  -3.9120  -3.6621  -3.3235  -3.3051
    -3.2507  -3.2322  -2.9320  -2.8085   0.3483   0.5968   1.9888   2.4566
     2.4758   2.5084   8.1666   8.5591   9.0264

          k = 0.3359 0.7071 0.0000 ( 10876 PWs)   bands (ev):

    -6.0095  -5.9853  -3.9634  -3.9427  -3.9118  -3.6622  -3.3235  -3.3051
    -3.2508  -3.2322  -2.9320  -2.8087   0.3482   0.5963   1.9897   2.4556
     2.4779   2.5090   8.1633   8.5546   9.0148

          k = 0.3329 0.7071 0.0000 ( 10876 PWs)   bands (ev):

    -6.0095  -5.9853  -3.9635  -3.9427  -3.9116  -3.6623  -3.3234  -3.3050
    -3.2509  -3.2321  -2.9320  -2.8088   0.3481   0.5957   1.9908   2.4547
     2.4800   2.5097   8.1595   8.5493   9.0015

          k = 0.3300 0.7071 0.0000 ( 10872 PWs)   bands (ev):

    -6.0095  -5.9854  -3.9636  -3.9428  -3.9113  -3.6624  -3.3233  -3.3050
    -3.2510  -3.2321  -2.9321  -2.8090   0.3480   0.5951   1.9920   2.4538
     2.4823   2.5105   8.1550   8.5433   8.9867

          k = 0.3270 0.7071 0.0000 ( 10876 PWs)   bands (ev):

    -6.0095  -5.9854  -3.9637  -3.9428  -3.9110  -3.6626  -3.3232  -3.3049
    -3.2512  -3.2320  -2.9321  -2.8092   0.3478   0.5944   1.9935   2.4530
     2.4847   2.5113   8.1500   8.5365   8.9704

          k = 0.3241 0.7071 0.0000 ( 10870 PWs)   bands (ev):

    -6.0095  -5.9854  -3.9639  -3.9429  -3.9106  -3.6627  -3.3232  -3.3049
    -3.2514  -3.2319  -2.9322  -2.8095   0.3477   0.5936   1.9950   2.4523
     2.4872   2.5124   8.1445   8.5290   8.9529

          k = 0.3211 0.7071 0.0000 ( 10874 PWs)   bands (ev):

    -6.0094  -5.9854  -3.9640  -3.9429  -3.9103  -3.6629  -3.3231  -3.3048
    -3.2515  -3.2319  -2.9322  -2.8098   0.3475   0.5927   1.9968   2.4516
     2.4898   2.5135   8.1384   8.5208   8.9343

          k = 0.3182 0.7071 0.0000 ( 10866 PWs)   bands (ev):

    -6.0094  -5.9854  -3.9642  -3.9430  -3.9098  -3.6631  -3.3229  -3.3048
    -3.2517  -3.2318  -2.9323  -2.8100   0.3473   0.5918   1.9986   2.4510
     2.4925   2.5147   8.1317   8.5118   8.9147

          k = 0.3153 0.7071 0.0000 ( 10862 PWs)   bands (ev):

    -6.0094  -5.9854  -3.9643  -3.9430  -3.9094  -3.6633  -3.3228  -3.3047
    -3.2520  -3.2317  -2.9324  -2.8104   0.3471   0.5908   2.0007   2.4506
     2.4953   2.5160   8.1246   8.5022   8.8942

          k = 0.3123 0.7071 0.0000 ( 10862 PWs)   bands (ev):

    -6.0093  -5.9855  -3.9645  -3.9431  -3.9089  -3.6636  -3.3227  -3.3046
    -3.2522  -3.2316  -2.9324  -2.8107   0.3468   0.5897   2.0029   2.4502
     2.4981   2.5174   8.1169   8.4920   8.8735

          k = 0.3094 0.7071 0.0000 ( 10866 PWs)   bands (ev):

    -6.0093  -5.9855  -3.9647  -3.9432  -3.9084  -3.6638  -3.3226  -3.3045
    -3.2524  -3.2315  -2.9325  -2.8111   0.3466   0.5885   2.0052   2.4498
     2.5011   2.5189   8.1088   8.4812   8.8511

          k = 0.3064 0.7071 0.0000 ( 10858 PWs)   bands (ev):

    -6.0093  -5.9855  -3.9649  -3.9433  -3.9079  -3.6641  -3.3224  -3.3044
    -3.2527  -3.2314  -2.9326  -2.8114   0.3464   0.5872   2.0078   2.4496
     2.5042   2.5205   8.1002   8.4697   8.8286

          k = 0.3035 0.7071 0.0000 ( 10862 PWs)   bands (ev):

    -6.0092  -5.9855  -3.9651  -3.9433  -3.9073  -3.6644  -3.3223  -3.3043
    -3.2530  -3.2313  -2.9327  -2.8119   0.3461   0.5859   2.0104   2.4495
     2.5073   2.5223   8.0911   8.4577   8.8050

          k = 0.3005 0.7071 0.0000 ( 10866 PWs)   bands (ev):

    -6.0092  -5.9856  -3.9653  -3.9434  -3.9067  -3.6647  -3.3221  -3.3042
    -3.2532  -3.2312  -2.9328  -2.8123   0.3458   0.5845   2.0132   2.4494
     2.5106   2.5241   8.0816   8.4452   8.7815

          k = 0.2976 0.7071 0.0000 ( 10870 PWs)   bands (ev):

    -6.0091  -5.9856  -3.9655  -3.9435  -3.9061  -3.6650  -3.3220  -3.3041
    -3.2535  -3.2311  -2.9329  -2.8127   0.3455   0.5830   2.0162   2.4494
     2.5139   2.5260   8.0717   8.4321   8.7521

          k = 0.2946 0.7071 0.0000 ( 10866 PWs)   bands (ev):

    -6.0091  -5.9856  -3.9657  -3.9436  -3.9054  -3.6653  -3.3218  -3.3040
    -3.2538  -3.2310  -2.9329  -2.8132   0.3452   0.5815   2.0193   2.4495
     2.5173   2.5280   8.0614   8.4185   8.7283

          k = 0.2917 0.7071-0.0000 ( 10866 PWs)   bands (ev):

    -6.0090  -5.9857  -3.9659  -3.9437  -3.9048  -3.6657  -3.3216  -3.3038
    -3.2542  -3.2309  -2.9330  -2.8137   0.3449   0.5799   2.0225   2.4497
     2.5208   2.5301   8.0506   8.4045   8.6996

          k = 0.2887 0.7071 0.0000 ( 10870 PWs)   bands (ev):

    -6.0090  -5.9857  -3.9661  -3.9438  -3.9041  -3.6661  -3.3214  -3.3037
    -3.2545  -3.2307  -2.9332  -2.8143   0.3445   0.5782   2.0259   2.4500
     2.5244   2.5323   8.0395   8.3901   8.6760

          k = 0.2858 0.7071 0.0000 ( 10870 PWs)   bands (ev):

    -6.0089  -5.9857  -3.9663  -3.9440  -3.9033  -3.6664  -3.3213  -3.3035
    -3.2548  -3.2306  -2.9333  -2.8148   0.3442   0.5765   2.0294   2.4503
     2.5281   2.5346   8.0281   8.3752   8.6468

          k = 0.2828 0.7071 0.0000 ( 10870 PWs)   bands (ev):

    -6.0089  -5.9858  -3.9666  -3.9441  -3.9026  -3.6669  -3.3211  -3.3034
    -3.2552  -3.2305  -2.9334  -2.8154   0.3438   0.5747   2.0331   2.4507
     2.5318   2.5370   8.0163   8.3599   8.6202

          k = 0.2799 0.7071 0.0000 ( 10870 PWs)   bands (ev):

    -6.0088  -5.9858  -3.9668  -3.9442  -3.9018  -3.6673  -3.3209  -3.3032
    -3.2555  -3.2304  -2.9335  -2.8160   0.3435   0.5728   2.0369   2.4512
     2.5356   2.5395   8.0041   8.3443   8.5936

          k = 0.2770 0.7071-0.0000 ( 10866 PWs)   bands (ev):

    -6.0088  -5.9859  -3.9670  -3.9443  -3.9010  -3.6677  -3.3207  -3.3030
    -3.2559  -3.2303  -2.9336  -2.8166   0.3431   0.5709   2.0408   2.4518
     2.5395   2.5421   7.9917   8.3283   8.5672

          k = 0.2740 0.7071 0.0000 ( 10862 PWs)   bands (ev):

    -6.0087  -5.9859  -3.9673  -3.9445  -3.9002  -3.6682  -3.3205  -3.3028
    -3.2562  -3.2302  -2.9337  -2.8172   0.3427   0.5689   2.0448   2.4524
     2.5435   2.5448   7.9790   8.3120   8.5451

          k = 0.2711 0.7071 0.0000 ( 10866 PWs)   bands (ev):

    -6.0086  -5.9860  -3.9675  -3.9446  -3.8993  -3.6686  -3.3203  -3.3026
    -3.2566  -3.2301  -2.9338  -2.8179   0.3423   0.5669   2.0490   2.4532
     2.5475   2.5476   7.9660   8.2954   8.5143

          k = 0.2681 0.7071-0.0000 ( 10870 PWs)   bands (ev):

    -6.0086  -5.9860  -3.9677  -3.9447  -3.8985  -3.6691  -3.3201  -3.3024
    -3.2570  -3.2300  -2.9340  -2.8186   0.3419   0.5648   2.0533   2.4540
     2.5504   2.5516   7.9527   8.2785   8.4919

          k = 0.2652 0.7071 0.0000 ( 10860 PWs)   bands (ev):

    -6.0085  -5.9860  -3.9680  -3.9449  -3.8976  -3.6696  -3.3199  -3.3021
    -3.2574  -3.2299  -2.9341  -2.8193   0.3415   0.5626   2.0577   2.4548
     2.5534   2.5558   7.9393   8.2614   8.4699

          k = 0.2622 0.7071 0.0000 ( 10864 PWs)   bands (ev):

    -6.0084  -5.9861  -3.9682  -3.9450  -3.8967  -3.6702  -3.3197  -3.3019
    -3.2578  -3.2298  -2.9342  -2.8200   0.3410   0.5605   2.0622   2.4558
     2.5564   2.5600   7.9255   8.2440   8.4453

          k = 0.2593 0.7071 0.0000 ( 10864 PWs)   bands (ev):

    -6.0083  -5.9862  -3.9684  -3.9452  -3.8957  -3.6707  -3.3195  -3.3016
    -3.2582  -3.2297  -2.9343  -2.8207   0.3406   0.5582   2.0668   2.4568
     2.5595   2.5643   7.9116   8.2264   8.4185

          k = 0.2563 0.7071 0.0000 ( 10860 PWs)   bands (ev):

    -6.0083  -5.9862  -3.9687  -3.9454  -3.8948  -3.6713  -3.3192  -3.3014
    -3.2586  -3.2296  -2.9345  -2.8215   0.3402   0.5559   2.0716   2.4578
     2.5627   2.5687   7.8975   8.2086   8.3837

          k = 0.2534 0.7071 0.0000 ( 10864 PWs)   bands (ev):

    -6.0082  -5.9863  -3.9689  -3.9455  -3.8938  -3.6718  -3.3190  -3.3011
    -3.2590  -3.2295  -2.9346  -2.8223   0.3397   0.5536   2.0764   2.4590
     2.5660   2.5731   7.8832   8.1907   8.3757

          k = 0.2504 0.7071 0.0000 ( 10864 PWs)   bands (ev):

    -6.0081  -5.9863  -3.9691  -3.9457  -3.8928  -3.6724  -3.3188  -3.3008
    -3.2595  -3.2294  -2.9347  -2.8231   0.3393   0.5512   2.0814   2.4602
     2.5694   2.5776   7.8687   8.1725   8.3322

          k = 0.2475 0.7071 0.0000 ( 10868 PWs)   bands (ev):

    -6.0080  -5.9864  -3.9693  -3.9459  -3.8918  -3.6730  -3.3186  -3.3005
    -3.2599  -3.2293  -2.9349  -2.8239   0.3388   0.5488   2.0864   2.4614
     2.5728   2.5821   7.8541   8.1542   8.3071

          k = 0.2445 0.7071 0.0000 ( 10868 PWs)   bands (ev):

    -6.0079  -5.9864  -3.9696  -3.9460  -3.8908  -3.6737  -3.3184  -3.3002
    -3.2603  -3.2293  -2.9350  -2.8248   0.3384   0.5464   2.0916   2.4627
     2.5763   2.5867   7.8394   8.1358   8.2812

          k = 0.2416 0.7071 0.0000 ( 10868 PWs)   bands (ev):

    -6.0078  -5.9865  -3.9698  -3.9462  -3.8898  -3.6743  -3.3182  -3.2998
    -3.2608  -3.2292  -2.9351  -2.8256   0.3379   0.5439   2.0968   2.4641
     2.5799   2.5914   7.8245   8.1173   8.2623

          k = 0.2386 0.7071 0.0000 ( 10868 PWs)   bands (ev):

    -6.0078  -5.9866  -3.9700  -3.9464  -3.8887  -3.6750  -3.3180  -3.2995
    -3.2612  -3.2291  -2.9352  -2.8265   0.3374   0.5414   2.1022   2.4656
     2.5836   2.5961   7.8095   8.0987   8.2309

          k = 0.2357 0.7071 0.0000 ( 10868 PWs)   bands (ev):

    -6.0077  -5.9866  -3.9702  -3.9466  -3.8876  -3.6756  -3.3178  -3.2991
    -3.2616  -3.2291  -2.9354  -2.8274   0.3370   0.5388   2.1076   2.4670
     2.5873   2.6009   7.7945   8.0799   8.2060

          k = 0.2328 0.7071 0.0000 ( 10868 PWs)   bands (ev):

    -6.0076  -5.9867  -3.9704  -3.9468  -3.8865  -3.6763  -3.3176  -3.2987
    -3.2621  -3.2290  -2.9355  -2.8283   0.3365   0.5363   2.1131   2.4686
     2.5911   2.6057   7.7793   8.0611   8.1844

          k = 0.2298 0.7071 0.0000 ( 10868 PWs)   bands (ev):

    -6.0075  -5.9868  -3.9706  -3.9470  -3.8854  -3.6770  -3.3174  -3.2983
    -3.2626  -3.2290  -2.9356  -2.8292   0.3360   0.5337   2.1187   2.4701
     2.5950   2.6105   7.7641   8.0423   8.1571

          k = 0.2269 0.7071-0.0000 ( 10866 PWs)   bands (ev):

    -6.0074  -5.9868  -3.9708  -3.9472  -3.8843  -3.6777  -3.3172  -3.2979
    -3.2630  -3.2289  -2.9357  -2.8302   0.3356   0.5310   2.1243   2.4718
     2.5989   2.6154   7.7488   8.0234   8.1324

          k = 0.2239 0.7071 0.0000 ( 10866 PWs)   bands (ev):

    -6.0073  -5.9869  -3.9710  -3.9474  -3.8832  -3.6785  -3.3170  -3.2975
    -3.2635  -3.2289  -2.9359  -2.8311   0.3351   0.5284   2.1300   2.4735
     2.6029   2.6203   7.7335   8.0044   8.1090

          k = 0.2210 0.7071 0.0000 ( 10874 PWs)   bands (ev):

    -6.0072  -5.9870  -3.9712  -3.9476  -3.8820  -3.6792  -3.3168  -3.2971
    -3.2639  -3.2288  -2.9360  -2.8321   0.3346   0.5257   2.1358   2.4752
     2.6070   2.6253   7.7181   7.9855   8.0858

          k = 0.2180 0.7071 0.0000 ( 10870 PWs)   bands (ev):

    -6.0071  -5.9871  -3.9713  -3.9478  -3.8809  -3.6800  -3.3166  -3.2966
    -3.2644  -3.2288  -2.9361  -2.8331   0.3342   0.5230   2.1417   2.4769
     2.6111   2.6303   7.7027   7.9665   8.0654

          k = 0.2151 0.7071 0.0000 ( 10870 PWs)   bands (ev):

    -6.0070  -5.9871  -3.9715  -3.9480  -3.8797  -3.6808  -3.3164  -3.2962
    -3.2649  -3.2288  -2.9362  -2.8341   0.3337   0.5202   2.1477   2.4787
     2.6153   2.6353   7.6874   7.9475   8.0368

          k = 0.2121 0.7071 0.0000 ( 10860 PWs)   bands (ev):

    -6.0069  -5.9872  -3.9717  -3.9483  -3.8785  -3.6816  -3.3163  -3.2957
    -3.2654  -3.2287  -2.9363  -2.8351   0.3332   0.5175   2.1536   2.4806
     2.6196   2.6403   7.6720   7.9286   8.0134

          k = 0.2092 0.7071 0.0000 ( 10864 PWs)   bands (ev):

    -6.0068  -5.9873  -3.9719  -3.9485  -3.8773  -3.6824  -3.3161  -3.2952
    -3.2659  -3.2287  -2.9364  -2.8361   0.3328   0.5147   2.1597   2.4824
     2.6239   2.6454   7.6566   7.9096   7.9906

          k = 0.2062 0.7071 0.0000 ( 10864 PWs)   bands (ev):

    -6.0066  -5.9874  -3.9720  -3.9487  -3.8761  -3.6832  -3.3159  -3.2947
    -3.2663  -3.2287  -2.9365  -2.8372   0.3323   0.5120   2.1658   2.4843
     2.6282   2.6505   7.6412   7.8907   7.9782

          k = 0.2033 0.7071-0.0000 ( 10872 PWs)   bands (ev):

    -6.0065  -5.9875  -3.9722  -3.9490  -3.8749  -3.6841  -3.3157  -3.2942
    -3.2668  -3.2287  -2.9366  -2.8383   0.3319   0.5092   2.1719   2.4862
     2.6326   2.6557   7.6259   7.8718   7.9446

          k = 0.2003 0.7071 0.0000 ( 10872 PWs)   bands (ev):

    -6.0064  -5.9875  -3.9723  -3.9492  -3.8736  -3.6849  -3.3155  -3.2937
    -3.2673  -3.2287  -2.9367  -2.8393   0.3315   0.5064   2.1781   2.4882
     2.6370   2.6608   7.6106   7.8530   7.9226

          k = 0.1974 0.7071 0.0000 ( 10868 PWs)   bands (ev):

    -6.0063  -5.9876  -3.9725  -3.9494  -3.8724  -3.6858  -3.3154  -3.2931
    -3.2678  -3.2287  -2.9368  -2.8404   0.3310   0.5036   2.1844   2.4902
     2.6415   2.6660   7.5954   7.8342   7.9010

          k = 0.1945 0.7071 0.0000 ( 10864 PWs)   bands (ev):

    -6.0062  -5.9877  -3.9726  -3.9497  -3.8711  -3.6867  -3.3152  -3.2926
    -3.2683  -3.2288  -2.9369  -2.8415   0.3306   0.5007   2.1907   2.4922
     2.6461   2.6711   7.5802   7.8155   7.8780

          k = 0.1915 0.7071 0.0000 ( 10864 PWs)   bands (ev):

    -6.0061  -5.9878  -3.9727  -3.9499  -3.8698  -3.6876  -3.3150  -3.2920
    -3.2688  -3.2288  -2.9369  -2.8426   0.3302   0.4979   2.1970   2.4942
     2.6506   2.6763   7.5651   7.7969   7.8561

          k = 0.1886 0.7071 0.0000 ( 10864 PWs)   bands (ev):

    -6.0060  -5.9879  -3.9728  -3.9502  -3.8685  -3.6885  -3.3149  -3.2914
    -3.2693  -3.2288  -2.9370  -2.8437   0.3298   0.4951   2.2033   2.4962
     2.6552   2.6815   7.5501   7.7784   7.8347

          k = 0.1856 0.7071 0.0000 ( 10860 PWs)   bands (ev):

    -6.0058  -5.9880  -3.9730  -3.9504  -3.8672  -3.6894  -3.3147  -3.2908
    -3.2698  -3.2288  -2.9370  -2.8449   0.3294   0.4922   2.2097   2.4982
     2.6599   2.6867   7.5351   7.7599   7.8135

          k = 0.1827 0.7071 0.0000 ( 10860 PWs)   bands (ev):

    -6.0057  -5.9881  -3.9731  -3.9507  -3.8659  -3.6904  -3.3145  -3.2902
    -3.2703  -3.2289  -2.9371  -2.8460   0.3290   0.4894   2.2161   2.5003
     2.6645   2.6919   7.5203   7.7416   7.7922

          k = 0.1797 0.7071 0.0000 ( 10864 PWs)   bands (ev):

    -6.0056  -5.9882  -3.9732  -3.9509  -3.8646  -3.6913  -3.3143  -3.2896
    -3.2708  -3.2289  -2.9371  -2.8471   0.3286   0.4866   2.2225   2.5023
     2.6692   2.6971   7.5055   7.7233   7.7714

          k = 0.1768 0.7071 0.0000 ( 10870 PWs)   bands (ev):

    -6.0055  -5.9883  -3.9733  -3.9512  -3.8632  -3.6923  -3.3142  -3.2890
    -3.2713  -3.2290  -2.9372  -2.8483   0.3283   0.4837   2.2290   2.5044
     2.6740   2.7022   7.4909   7.7052   7.7509

          k = 0.1738 0.7071 0.0000 ( 10860 PWs)   bands (ev):

    -6.0053  -5.9884  -3.9734  -3.9514  -3.8619  -3.6933  -3.3140  -3.2884
    -3.2718  -3.2291  -2.9372  -2.8495   0.3279   0.4809   2.2354   2.5065
     2.6787   2.7074   7.4764   7.6872   7.7307

          k = 0.1709 0.7071 0.0000 ( 10860 PWs)   bands (ev):

    -6.0052  -5.9885  -3.9734  -3.9517  -3.8605  -3.6943  -3.3138  -3.2877
    -3.2723  -3.2291  -2.9372  -2.8506   0.3276   0.4781   2.2419   2.5086
     2.6835   2.7126   7.4620   7.6693   7.7111

          k = 0.1679 0.7071 0.0000 ( 10860 PWs)   bands (ev):

    -6.0051  -5.9886  -3.9735  -3.9520  -3.8592  -3.6953  -3.3137  -3.2871
    -3.2728  -3.2292  -2.9373  -2.8518   0.3273   0.4752   2.2484   2.5106
     2.6883   2.7177   7.4477   7.6515   7.6910

          k = 0.1650 0.7071 0.0000 ( 10860 PWs)   bands (ev):

    -6.0049  -5.9887  -3.9736  -3.9522  -3.8578  -3.6964  -3.3135  -3.2864
    -3.2733  -3.2293  -2.9373  -2.8530   0.3270   0.4724   2.2549   2.5127
     2.6931   2.7229   7.4336   7.6339   7.6714

          k = 0.1620 0.7071 0.0000 ( 10860 PWs)   bands (ev):

    -6.0048  -5.9888  -3.9736  -3.9525  -3.8564  -3.6974  -3.3133  -3.2858
    -3.2738  -3.2294  -2.9373  -2.8542   0.3267   0.4696   2.2614   2.5147
     2.6979   2.7280   7.4196   7.6164   7.6531

          k = 0.1591 0.7071 0.0000 ( 10860 PWs)   bands (ev):

    -6.0047  -5.9889  -3.9737  -3.9528  -3.8550  -3.6985  -3.3132  -3.2851
    -3.2743  -3.2295  -2.9372  -2.8554   0.3264   0.4668   2.2679   2.5168
     2.7027   2.7330   7.4058   7.5991   7.6332

          k = 0.1562 0.7071 0.0000 ( 10860 PWs)   bands (ev):

    -6.0045  -5.9890  -3.9738  -3.9530  -3.8536  -3.6996  -3.3130  -3.2844
    -3.2748  -3.2296  -2.9372  -2.8566   0.3262   0.4640   2.2744   2.5188
     2.7075   2.7381   7.3922   7.5820   7.6146

          k = 0.1532 0.7071 0.0000 ( 10864 PWs)   bands (ev):

    -6.0044  -5.9891  -3.9738  -3.9533  -3.8522  -3.7006  -3.3128  -3.2838
    -3.2753  -3.2297  -2.9372  -2.8578   0.3259   0.4612   2.2808   2.5208
     2.7123   2.7431   7.3787   7.5650   7.5963

          k = 0.1503 0.7071 0.0000 ( 10864 PWs)   bands (ev):

    -6.0043  -5.9892  -3.9738  -3.9536  -3.8508  -3.7017  -3.3127  -3.2831
    -3.2758  -3.2299  -2.9371  -2.8590   0.3257   0.4584   2.2873   2.5228
     2.7172   2.7481   7.3654   7.5482   7.5783

          k = 0.1473 0.7071 0.0000 ( 10860 PWs)   bands (ev):

    -6.0041  -5.9893  -3.9739  -3.9539  -3.8493  -3.7029  -3.3125  -3.2824
    -3.2764  -3.2300  -2.9371  -2.8602   0.3255   0.4556   2.2938   2.5247
     2.7220   2.7530   7.3523   7.5316   7.5611

          k = 0.1444 0.7071 0.0000 ( 10860 PWs)   bands (ev):

    -6.0040  -5.9894  -3.9739  -3.9542  -3.8479  -3.7040  -3.3123  -3.2817
    -3.2769  -3.2301  -2.9370  -2.8614   0.3253   0.4529   2.3002   2.5267
     2.7268   2.7580   7.3393   7.5151   7.5430

          k = 0.1414 0.7071 0.0000 ( 10860 PWs)   bands (ev):

    -6.0038  -5.9895  -3.9739  -3.9544  -3.8464  -3.7051  -3.3121  -3.2810
    -3.2774  -3.2303  -2.9369  -2.8627   0.3251   0.4501   2.3066   2.5286
     2.7316   2.7628   7.3266   7.4989   7.5261

          k = 0.1385 0.7071-0.0000 ( 10860 PWs)   bands (ev):

    -6.0037  -5.9896  -3.9739  -3.9547  -3.8450  -3.7063  -3.3120  -3.2803
    -3.2779  -3.2304  -2.9369  -2.8639   0.3250   0.4474   2.3130   2.5305
     2.7364   2.7676   7.3141   7.4828   7.5089

          k = 0.1355 0.7071-0.0000 ( 10864 PWs)   bands (ev):

    -6.0035  -5.9898  -3.9739  -3.9550  -3.8435  -3.7074  -3.3118  -3.2796
    -3.2784  -3.2306  -2.9367  -2.8651   0.3249   0.4447   2.3193   2.5323
     2.7412   2.7724   7.3017   7.4670   7.4922

          k = 0.1326 0.7071 0.0000 ( 10862 PWs)   bands (ev):

    -6.0034  -5.9899  -3.9739  -3.9553  -3.8421  -3.7086  -3.3116  -3.2789
    -3.2788  -3.2308  -2.9366  -2.8663   0.3248   0.4420   2.3257   2.5341
     2.7459   2.7771   7.2896   7.4513   7.4765

          k = 0.1296 0.7071 0.0000 ( 10870 PWs)   bands (ev):

    -6.0032  -5.9900  -3.9739  -3.9556  -3.8406  -3.7098  -3.3114  -3.2794
    -3.2781  -3.2310  -2.9365  -2.8676   0.3247   0.4394   2.3320   2.5359
     2.7507   2.7818   7.2777   7.4359   7.4605

          k = 0.1267 0.7071 0.0000 ( 10870 PWs)   bands (ev):

    -6.0031  -5.9901  -3.9739  -3.9559  -3.8391  -3.7110  -3.3112  -3.2799
    -3.2774  -3.2312  -2.9364  -2.8688   0.3246   0.4367   2.3382   2.5376
     2.7554   2.7863   7.2661   7.4207   7.4463

          k = 0.1237 0.7071-0.0000 ( 10870 PWs)   bands (ev):

    -6.0030  -5.9902  -3.9739  -3.9562  -3.8376  -3.7122  -3.3110  -3.2804
    -3.2767  -3.2314  -2.9362  -2.8700   0.3246   0.4341   2.3445   2.5393
     2.7600   2.7909   7.2546   7.4057   7.4291

          k = 0.1208 0.7071 0.0000 ( 10874 PWs)   bands (ev):

    -6.0028  -5.9904  -3.9739  -3.9565  -3.8361  -3.7135  -3.3108  -3.2809
    -3.2759  -3.2316  -2.9361  -2.8713   0.3246   0.4315   2.3506   2.5409
     2.7647   2.7953   7.2434   7.3909   7.4142

          k = 0.1179 0.7071 0.0000 ( 10874 PWs)   bands (ev):

    -6.0027  -5.9905  -3.9738  -3.9568  -3.8346  -3.7147  -3.3106  -3.2814
    -3.2752  -3.2318  -2.9359  -2.8725   0.3246   0.4289   2.3568   2.5425
     2.7693   2.7997   7.2324   7.3764   7.3995

          k = 0.1149 0.7071-0.0000 ( 10874 PWs)   bands (ev):

    -6.0025  -5.9906  -3.9738  -3.9570  -3.8331  -3.7160  -3.3104  -3.2819
    -3.2745  -3.2320  -2.9357  -2.8737   0.3246   0.4263   2.3629   2.5440
     2.7738   2.8040   7.2217   7.3621   7.3850

          k = 0.1120 0.7071-0.0000 ( 10870 PWs)   bands (ev):

    -6.0023  -5.9907  -3.9737  -3.9573  -3.8316  -3.7172  -3.3102  -3.2824
    -3.2738  -3.2322  -2.9355  -2.8749   0.3247   0.4238   2.3689   2.5455
     2.7783   2.8083   7.2113   7.3481   7.3710

          k = 0.1090 0.7071 0.0000 ( 10874 PWs)   bands (ev):

    -6.0022  -5.9909  -3.9737  -3.9576  -3.8301  -3.7185  -3.3100  -3.2829
    -3.2730  -3.2325  -2.9353  -2.8762   0.3248   0.4212   2.3749   2.5469
     2.7828   2.8124   7.2011   7.3343   7.3576

          k = 0.1061 0.7071 0.0000 ( 10874 PWs)   bands (ev):

    -6.0020  -5.9910  -3.9736  -3.9579  -3.8285  -3.7198  -3.3098  -3.2834
    -3.2723  -3.2327  -2.9350  -2.8774   0.3249   0.4188   2.3808   2.5482
     2.7872   2.8165   7.1911   7.3208   7.3446

          k = 0.1031 0.7071-0.0000 ( 10874 PWs)   bands (ev):

    -6.0019  -5.9911  -3.9736  -3.9582  -3.8270  -3.7211  -3.3096  -3.2839
    -3.2715  -3.2330  -2.9348  -2.8786   0.3250   0.4163   2.3867   2.5495
     2.7916   2.8205   7.1814   7.3075   7.3312

          k = 0.1002 0.7071 0.0000 ( 10872 PWs)   bands (ev):

    -6.0017  -5.9913  -3.9735  -3.9585  -3.8255  -3.7224  -3.3094  -3.2844
    -3.2708  -3.2333  -2.9345  -2.8798   0.3252   0.4138   2.3924   2.5507
     2.7959   2.8244   7.1720   7.2945   7.3184

          k = 0.0972 0.7071 0.0000 ( 10872 PWs)   bands (ev):

    -6.0016  -5.9914  -3.9734  -3.9588  -3.8239  -3.7237  -3.3092  -3.2849
    -3.2701  -3.2336  -2.9342  -2.8810   0.3254   0.4114   2.3982   2.5518
     2.8001   2.8282   7.1629   7.2818   7.3061

          k = 0.0943 0.7071-0.0000 ( 10866 PWs)   bands (ev):

    -6.0014  -5.9915  -3.9733  -3.9591  -3.8224  -3.7250  -3.3090  -3.2854
    -3.2693  -3.2338  -2.9339  -2.8822   0.3256   0.4090   2.4038   2.5529
     2.8043   2.8319   7.1540   7.2694   7.2942

          k = 0.0913 0.7071-0.0000 ( 10866 PWs)   bands (ev):

    -6.0013  -5.9917  -3.9732  -3.9594  -3.8208  -3.7264  -3.3087  -3.2859
    -3.2686  -3.2341  -2.9336  -2.8834   0.3258   0.4067   2.4094   2.5539
     2.8084   2.8355   7.1454   7.2572   7.2830

          k = 0.0884 0.7071 0.0000 ( 10866 PWs)   bands (ev):

    -6.0011  -5.9918  -3.9731  -3.9597  -3.8193  -3.7277  -3.3085  -3.2863
    -3.2679  -3.2344  -2.9333  -2.8846   0.3261   0.4044   2.4150   2.5548
     2.8125   2.8390   7.1371   7.2453   7.2713

          k = 0.0854 0.7071 0.0000 ( 10862 PWs)   bands (ev):

    -6.0009  -5.9919  -3.9730  -3.9600  -3.8177  -3.7291  -3.3083  -3.2868
    -3.2672  -3.2348  -2.9329  -2.8858   0.3264   0.4021   2.4204   2.5556
     2.8164   2.8424   7.1291   7.2337   7.2605

          k = 0.0825 0.7071 0.0000 ( 10866 PWs)   bands (ev):

    -6.0008  -5.9921  -3.9729  -3.9603  -3.8161  -3.7305  -3.3080  -3.2873
    -3.2664  -3.2351  -2.9326  -2.8870   0.3268   0.3998   2.4258   2.5564
     2.8203   2.8457   7.1214   7.2224   7.2503

          k = 0.0795 0.7071-0.0000 ( 10866 PWs)   bands (ev):

    -6.0006  -5.9922  -3.9728  -3.9606  -3.8146  -3.7318  -3.3078  -3.2878
    -3.2657  -3.2354  -2.9322  -2.8881   0.3271   0.3975   2.4310   2.5570
     2.8241   2.8488   7.1140   7.2114   7.2399

          k = 0.0766 0.7071 0.0000 ( 10864 PWs)   bands (ev):

    -6.0005  -5.9923  -3.9727  -3.9609  -3.8130  -3.7332  -3.3075  -3.2883
    -3.2650  -3.2358  -2.9318  -2.8893   0.3275   0.3953   2.4362   2.5576
     2.8278   2.8519   7.1069   7.2007   7.2434

          k = 0.0737 0.7071 0.0000 ( 10864 PWs)   bands (ev):

    -6.0003  -5.9925  -3.9726  -3.9612  -3.8114  -3.7346  -3.3073  -3.2887
    -3.2643  -3.2361  -2.9314  -2.8905   0.3280   0.3931   2.4413   2.5581
     2.8315   2.8549   7.1001   7.1903   7.2208

          k = 0.0707 0.7071-0.0000 ( 10876 PWs)   bands (ev):

    -6.0002  -5.9926  -3.9725  -3.9615  -3.8099  -3.7360  -3.3070  -3.2892
    -3.2635  -3.2365  -2.9310  -2.8916   0.3284   0.3910   2.4464   2.5584
     2.8350   2.8577   7.0936   7.1802   7.2123

          k = 0.0678 0.7071 0.0000 ( 10876 PWs)   bands (ev):

    -6.0000  -5.9928  -3.9723  -3.9617  -3.8083  -3.7375  -3.3067  -3.2897
    -3.2628  -3.2368  -2.9306  -2.8927   0.3289   0.3889   2.4513   2.5587
     2.8385   2.8604   7.0874   7.1704   7.2029

          k = 0.0648 0.7071 0.0000 ( 10876 PWs)   bands (ev):

    -5.9998  -5.9929  -3.9722  -3.9620  -3.8067  -3.7389  -3.3065  -3.2901
    -3.2621  -3.2372  -2.9301  -2.8939   0.3295   0.3868   2.4561   2.5589
     2.8418   2.8630   7.0815   7.1609   7.1946

          k = 0.0619 0.7071 0.0000 ( 10880 PWs)   bands (ev):

    -5.9997  -5.9931  -3.9720  -3.9623  -3.8051  -3.7403  -3.3062  -3.2906
    -3.2614  -3.2376  -2.9296  -2.8950   0.3300   0.3847   2.4609   2.5590
     2.8451   2.8655   7.0760   7.1518   7.1874

          k = 0.0589 0.7071 0.0000 ( 10880 PWs)   bands (ev):

    -5.9995  -5.9932  -3.9719  -3.9626  -3.8036  -3.7418  -3.3059  -3.2910
    -3.2607  -3.2380  -2.9291  -2.8961   0.3306   0.3827   2.4655   2.5590
     2.8482   2.8678   7.0708   7.1429   7.1792

          k = 0.0560 0.7071 0.0000 ( 10880 PWs)   bands (ev):

    -5.9993  -5.9934  -3.9717  -3.9629  -3.8020  -3.7432  -3.3056  -3.2915
    -3.2600  -3.2384  -2.9286  -2.8972   0.3312   0.3807   2.4701   2.5589
     2.8513   2.8700   7.0659   7.1344   7.1764

          k = 0.0530 0.7071 0.0000 ( 10884 PWs)   bands (ev):

    -5.9992  -5.9935  -3.9716  -3.9632  -3.8004  -3.7447  -3.3053  -3.2919
    -3.2593  -3.2388  -2.9281  -2.8983   0.3319   0.3788   2.4745   2.5587
     2.8542   2.8721   7.0613   7.1263   7.1657

          k = 0.0501 0.7071-0.0000 ( 10884 PWs)   bands (ev):

    -5.9990  -5.9937  -3.9714  -3.9635  -3.7988  -3.7461  -3.3051  -3.2924
    -3.2586  -3.2392  -2.9276  -2.8994   0.3326   0.3769   2.4789   2.5584
     2.8570   2.8740   7.0571   7.1184   7.1590

          k = 0.0471 0.7071-0.0000 ( 10888 PWs)   bands (ev):

    -5.9989  -5.9938  -3.9712  -3.9637  -3.7972  -3.7476  -3.3048  -3.2928
    -3.2579  -3.2397  -2.9270  -2.9004   0.3333   0.3750   2.4831   2.5580
     2.8597   2.8758   7.0532   7.1109   7.1531

          k = 0.0442 0.7071 0.0000 ( 10888 PWs)   bands (ev):

    -5.9987  -5.9940  -3.9711  -3.9640  -3.7956  -3.7491  -3.3045  -3.2933
    -3.2572  -3.2401  -2.9264  -2.9015   0.3340   0.3731   2.4872   2.5574
     2.8623   2.8775   7.0496   7.1037   7.1483

          k = 0.0412 0.7071 0.0000 ( 10888 PWs)   bands (ev):

    -5.9985  -5.9941  -3.9709  -3.9643  -3.7941  -3.7506  -3.3042  -3.2937
    -3.2566  -3.2406  -2.9258  -2.9025   0.3348   0.3713   2.4913   2.5568
     2.8648   2.8790   7.0463   7.0969   7.1437

          k = 0.0383 0.7071 0.0000 ( 10888 PWs)   bands (ev):

    -5.9984  -5.9943  -3.9707  -3.9646  -3.7925  -3.7521  -3.3038  -3.2941
    -3.2559  -3.2410  -2.9252  -2.9036   0.3357   0.3695   2.4952   2.5560
     2.8671   2.8805   7.0434   7.0903   7.1390

          k = 0.0354 0.7071 0.0000 ( 10888 PWs)   bands (ev):

    -5.9982  -5.9944  -3.9705  -3.9648  -3.7909  -3.7536  -3.3035  -3.2946
    -3.2552  -3.2415  -2.9246  -2.9046   0.3365   0.3678   2.4990   2.5552
     2.8693   2.8817   7.0409   7.0842   7.1341

          k = 0.0324 0.7071 0.0000 ( 10884 PWs)   bands (ev):

    -5.9981  -5.9946  -3.9703  -3.9651  -3.7893  -3.7551  -3.3032  -3.2950
    -3.2546  -3.2420  -2.9239  -2.9056   0.3374   0.3661   2.5027   2.5542
     2.8714   2.8828   7.0387   7.0783   7.1293

          k = 0.0295 0.7071 0.0000 ( 10884 PWs)   bands (ev):

    -5.9979  -5.9947  -3.9701  -3.9654  -3.7877  -3.7566  -3.3029  -3.2954
    -3.2539  -3.2425  -2.9233  -2.9066   0.3383   0.3644   2.5063   2.5531
     2.8734   2.8838   7.0368   7.0729   7.1256

          k = 0.0265 0.7071-0.0000 ( 10884 PWs)   bands (ev):

    -5.9977  -5.9949  -3.9699  -3.9657  -3.7861  -3.7581  -3.3026  -3.2958
    -3.2533  -3.2430  -2.9226  -2.9076   0.3393   0.3627   2.5097   2.5519
     2.8753   2.8846   7.0353   7.0677   7.1226

          k = 0.0236 0.7071 0.0000 ( 10880 PWs)   bands (ev):

    -5.9976  -5.9950  -3.9697  -3.9659  -3.7846  -3.7596  -3.3022  -3.2962
    -3.2527  -3.2435  -2.9219  -2.9085   0.3403   0.3611   2.5131   2.5506
     2.8770   2.8853   7.0341   7.0629   7.1193

          k = 0.0206 0.7071 0.0000 ( 10874 PWs)   bands (ev):

    -5.9974  -5.9952  -3.9695  -3.9662  -3.7830  -3.7611  -3.3019  -3.2966
    -3.2520  -3.2440  -2.9212  -2.9095   0.3413   0.3596   2.5163   2.5491
     2.8785   2.8859   7.0333   7.0585   7.1170

          k = 0.0177 0.7071 0.0000 ( 10874 PWs)   bands (ev):

    -5.9972  -5.9953  -3.9693  -3.9664  -3.7814  -3.7627  -3.3015  -3.2970
    -3.2514  -3.2445  -2.9204  -2.9104   0.3424   0.3580   2.5194   2.5475
     2.8800   2.8863   7.0328   7.0544   7.1159

          k = 0.0147 0.7071 0.0000 ( 10874 PWs)   bands (ev):

    -5.9971  -5.9955  -3.9691  -3.9667  -3.7798  -3.7642  -3.3012  -3.2974
    -3.2508  -3.2450  -2.9197  -2.9113   0.3435   0.3565   2.5224   2.5459
     2.8813   2.8866   7.0326   7.0507   7.1138

          k = 0.0118 0.7071 0.0000 ( 10866 PWs)   bands (ev):

    -5.9969  -5.9956  -3.9688  -3.9669  -3.7782  -3.7658  -3.3008  -3.2978
    -3.2502  -3.2456  -2.9189  -2.9122   0.3446   0.3551   2.5253   2.5441
     2.8824   2.8867   7.0329   7.0473   7.1133

          k = 0.0088 0.7071 0.0000 ( 10858 PWs)   bands (ev):

    -5.9968  -5.9958  -3.9686  -3.9672  -3.7767  -3.7673  -3.3005  -3.2982
    -3.2496  -3.2461  -2.9182  -2.9131   0.3458   0.3536   2.5281   2.5421
     2.8835   2.8866   7.0334   7.0442   7.1122

          k = 0.0059 0.7071-0.0000 ( 10846 PWs)   bands (ev):

    -5.9966  -5.9960  -3.9684  -3.9674  -3.7751  -3.7689  -3.3001  -3.2986
    -3.2490  -3.2467  -2.9174  -2.9140   0.3470   0.3522   2.5307   2.5401
     2.8844   2.8865   7.0343   7.0416   7.1114

          k = 0.0029 0.7071 0.0000 ( 10846 PWs)   bands (ev):

    -5.9964  -5.9961  -3.9682  -3.9677  -3.7735  -3.7704  -3.2997  -3.2990
    -3.2484  -3.2472  -2.9165  -2.9149   0.3483   0.3509   2.5332   2.5379
     2.8851   2.8862   7.0356   7.0392   7.1103

          k = 0.0000 0.7071 0.0000 ( 10846 PWs)   bands (ev):

    -5.9963  -5.9963  -3.9679  -3.9679  -3.7720  -3.7720  -3.2994  -3.2994
    -3.2478  -3.2478  -2.9157  -2.9157   0.3496   0.3496   2.5356   2.5356
     2.8857   2.8857   7.0372   7.0372   7.1106

     Writing all to output data dir /home/User/opencode_workspace/DFT/calculations/cdte/production_bands_soc/out/pwscf.save/ :
     XML data file, pseudopotentials, collected wavefunctions

     init_run     :      1.46s CPU      1.83s WALL (       1 calls)
     electrons    :   2731.22s CPU   3021.02s WALL (       1 calls)

     Called by init_run:
     wfcinit      :      0.00s CPU      0.00s WALL (       1 calls)
     wfcinit:atom :      0.82s CPU      0.86s WALL (    1401 calls)
     wfcinit:wfcr :     57.34s CPU     64.53s WALL (    1401 calls)
     potinit      :      0.17s CPU      0.19s WALL (       1 calls)
     hinit0       :      0.39s CPU      0.42s WALL (       1 calls)

     Called by electrons:
     c_bands      :   2731.21s CPU   3020.95s WALL (       1 calls)
     v_of_rho     :      0.03s CPU      0.04s WALL (       1 calls)
     v_h          :      0.00s CPU      0.00s WALL (       1 calls)
     v_xc         :      0.03s CPU      0.04s WALL (       1 calls)
     newd         :      0.69s CPU      1.01s WALL (       1 calls)

     Called by c_bands:
     init_us_2    :      1.00s CPU      1.11s WALL (    1401 calls)
     cegterg      :   2646.61s CPU   2926.81s WALL (    7766 calls)

     Called by sum_band:

     Called by *egterg:
     cdiaghg      :     66.64s CPU     67.71s WALL (  150085 calls)
     cegterg:over :    178.58s CPU    183.61s WALL (  148684 calls)
     cegterg:upda :     82.04s CPU     83.08s WALL (  148684 calls)
     cegterg:last :    144.59s CPU    145.26s WALL (   63724 calls)
     h_psi        :   2059.38s CPU   2336.65s WALL (  157851 calls)
     s_psi        :     83.82s CPU     85.46s WALL (  157851 calls)
     g_psi        :     24.73s CPU     25.02s WALL (  148684 calls)

     Called by h_psi:
     h_psi:calbec :    122.96s CPU    134.92s WALL (  157851 calls)
     vloc_psi     :   1840.01s CPU   2103.21s WALL (  157851 calls)
                                        0.00s GPU  (  157851 calls)
     add_vuspsi   :     86.60s CPU     88.66s WALL (  157851 calls)

     General routines
     calbec       :    122.28s CPU    134.30s WALL (  157851 calls)
     fft          :      0.10s CPU      0.10s WALL (      19 calls)
     ffts         :      0.13s CPU      0.13s WALL (       4 calls)
     fftw         :   1688.68s CPU   1931.43s WALL ( 5809380 calls)
     interpolate  :      0.13s CPU      0.14s WALL (       4 calls)
     davcio       :      0.47s CPU      2.56s WALL (    2802 calls)

     Parallel routines

     PWSCF        :  45m38.32s CPU  50m41.78s WALL


   This run was terminated on:  23:46:24  22Sep2026            

=------------------------------------------------------------------------------=
   JOB DONE.
=------------------------------------------------------------------------------=
