
     Program PWSCF v.7.5 starts on 22Sep2026 at 19: 4: 8 

     This program is part of the open-source Quantum ESPRESSO suite
     for quantum simulation of materials; please cite
         "P. Giannozzi et al., J. Phys.:Condens. Matter 21 395502 (2009);
         "P. Giannozzi et al., J. Phys.:Condens. Matter 29 465901 (2017);
         "P. Giannozzi et al., J. Chem. Phys. 152 154105 (2020);
          URL http://www.quantum-espresso.org", 
     in publications or presentations arising from this work. More details at
     http://www.quantum-espresso.org/quote

     Parallel version (MPI & OpenMP), running on       6 processor cores
     Number of MPI processes:                 6
     Threads/MPI process:                     1

     MPI processes distributed on     1 nodes
     2641 MiB available memory on the printing compute node when the environment starts

     Reading input from pw.in

     Current dimensions of program PWSCF are:
     Max number of different atomic species (ntypx) = 10
     Max number of k-points (npk) =  40000
     Max angular momentum in pseudopotentials (lmaxx) =  4
     file Cd.pbe-n-rrkjus_psl.1.0.0.UPF: wavefunction(s)  4D renormalized
     file Te.pbe-n-rrkjus_psl.1.0.0.UPF: wavefunction(s)  5S renormalized
     Message from routine setup:
     using ibrav=0 with symmetry is DISCOURAGED, use correct ibrav instead

     R & G space division:  proc/nbgrp/npool/nimage =       6
     Subspace diagonalization in iterative solution of the eigenvalue problem:
     a serial algorithm will be used


     Parallelization info
     --------------------
     sticks:   dense  smooth     PW     G-vecs:    dense   smooth      PW
     Min         414     275     79                13591     7399    1142
     Max         417     276     80                13592     7402    1145
     Sum        2491    1651    475                81547    44399    6855

     Using Slab Decomposition



     bravais-lattice index     =            0
     lattice parameter (alat)  =       8.6615  a.u.
     unit-cell volume          =     459.4769 (a.u.)^3
     number of atoms/cell      =            2
     number of atomic types    =            2
     number of electrons       =        18.00
     number of Kohn-Sham states=            9
     kinetic-energy cutoff     =      80.0000  Ry
     charge density cutoff     =     480.0000  Ry
     scf convergence threshold =      1.0E-10
     mixing beta               =       0.3000
     number of iterations used =            8  plain     mixing
     Exchange-correlation= PBE
                           (   1   4   3   4   0   0   0)

     celldm(1)=   8.661496  celldm(2)=   0.000000  celldm(3)=   0.000000
     celldm(4)=   0.000000  celldm(5)=   0.000000  celldm(6)=   0.000000

     crystal axes: (cart. coord. in units of alat)
               a(1) = (   0.000000   0.707107   0.707107 )  
               a(2) = (   0.707107   0.000000   0.707107 )  
               a(3) = (   0.707107   0.707107   0.000000 )  

     reciprocal axes: (cart. coord. in units 2 pi/alat)
               b(1) = ( -0.707107  0.707107  0.707107 )  
               b(2) = (  0.707107 -0.707107  0.707107 )  
               b(3) = (  0.707107  0.707107 -0.707107 )  


     PseudoPot. # 1 for Cd read from file:
     /home/User/opencode_workspace/DFT/pseudopotentials/Cd.pbe-n-rrkjus_psl.1.0.0.UPF
     MD5 check sum: a744746c89d2344a134ead0d8ab94e7a
     Pseudo is Ultrasoft + core correction, Zval = 12.0
     Generated using &quot;atomic&quot; code by A. Dal Corso  v.6.3
     Using radial grid of 1239 points,  6 beta functions with: 
                l(1) =   0
                l(2) =   0
                l(3) =   1
                l(4) =   1
                l(5) =   2
                l(6) =   2
     Q(r) pseudized with 0 coefficients 


     PseudoPot. # 2 for Te read from file:
     /home/User/opencode_workspace/DFT/pseudopotentials/Te.pbe-n-rrkjus_psl.1.0.0.UPF
     MD5 check sum: 203a1e86ef55f0cd9de2762a27c58f54
     Pseudo is Ultrasoft + core correction, Zval =  6.0
     Generated using &quot;atomic&quot; code by A. Dal Corso  v.6.3
     Using radial grid of 1245 points,  6 beta functions with: 
                l(1) =   0
                l(2) =   0
                l(3) =   1
                l(4) =   1
                l(5) =   2
                l(6) =   2
     Q(r) pseudized with 0 coefficients 


     atomic species   valence    mass     pseudopotential
     Cd               12.00   112.41400     Cd( 1.00)
     Te                6.00   127.60000     Te( 1.00)

     24 Sym. Ops. (no inversion) found


                                    s                        frac. trans.

      isym =  1     identity                                     

 cryst.   s( 1) = (     1          0          0      )
                  (     0          1          0      )
                  (     0          0          1      )

 cart.    s( 1) = (  1.0000000  0.0000000  0.0000000 )
                  (  0.0000000  1.0000000  0.0000000 )
                  (  0.0000000  0.0000000  1.0000000 )


      isym =  2     180 deg rotation - cart. axis [0,0,1]        

 cryst.   s( 2) = (     0          1         -1      )
                  (     1          0         -1      )
                  (     0          0         -1      )

 cart.    s( 2) = ( -1.0000000  0.0000000  0.0000000 )
                  (  0.0000000 -1.0000000  0.0000000 )
                  (  0.0000000  0.0000000  1.0000000 )


      isym =  3     180 deg rotation - cart. axis [0,1,0]        

 cryst.   s( 3) = (     0         -1          1      )
                  (     0         -1          0      )
                  (     1         -1          0      )

 cart.    s( 3) = ( -1.0000000  0.0000000  0.0000000 )
                  (  0.0000000  1.0000000  0.0000000 )
                  (  0.0000000  0.0000000 -1.0000000 )


      isym =  4     180 deg rotation - cart. axis [1,0,0]        

 cryst.   s( 4) = (    -1          0          0      )
                  (    -1          0          1      )
                  (    -1          1          0      )

 cart.    s( 4) = (  1.0000000  0.0000000  0.0000000 )
                  (  0.0000000 -1.0000000  0.0000000 )
                  (  0.0000000  0.0000000 -1.0000000 )


      isym =  5     120 deg rotation - cart. axis [-1,-1,-1]     

 cryst.   s( 5) = (     0          0          1      )
                  (     1          0          0      )
                  (     0          1          0      )

 cart.    s( 5) = (  0.0000000  1.0000000  0.0000000 )
                  (  0.0000000  0.0000000  1.0000000 )
                  (  1.0000000  0.0000000  0.0000000 )


      isym =  6     120 deg rotation - cart. axis [-1,1,1]       

 cryst.   s( 6) = (     1         -1          0      )
                  (     0         -1          1      )
                  (     0         -1          0      )

 cart.    s( 6) = (  0.0000000 -1.0000000  0.0000000 )
                  (  0.0000000  0.0000000  1.0000000 )
                  ( -1.0000000  0.0000000  0.0000000 )


      isym =  7     120 deg rotation - cart. axis [1,1,-1]       

 cryst.   s( 7) = (    -1          1          0      )
                  (    -1          0          0      )
                  (    -1          0          1      )

 cart.    s( 7) = (  0.0000000  1.0000000  0.0000000 )
                  (  0.0000000  0.0000000 -1.0000000 )
                  ( -1.0000000  0.0000000  0.0000000 )


      isym =  8     120 deg rotation - cart. axis [1,-1,1]       

 cryst.   s( 8) = (     0          0         -1      )
                  (     0          1         -1      )
                  (     1          0         -1      )

 cart.    s( 8) = (  0.0000000 -1.0000000  0.0000000 )
                  (  0.0000000  0.0000000 -1.0000000 )
                  (  1.0000000  0.0000000  0.0000000 )


      isym =  9     120 deg rotation - cart. axis [1,1,1]        

 cryst.   s( 9) = (     0          1          0      )
                  (     0          0          1      )
                  (     1          0          0      )

 cart.    s( 9) = (  0.0000000  0.0000000  1.0000000 )
                  (  1.0000000  0.0000000  0.0000000 )
                  (  0.0000000  1.0000000  0.0000000 )


      isym = 10     120 deg rotation - cart. axis [-1,1,-1]      

 cryst.   s(10) = (    -1          0          1      )
                  (    -1          1          0      )
                  (    -1          0          0      )

 cart.    s(10) = (  0.0000000  0.0000000  1.0000000 )
                  ( -1.0000000  0.0000000  0.0000000 )
                  (  0.0000000 -1.0000000  0.0000000 )


      isym = 11     120 deg rotation - cart. axis [1,-1,-1]      

 cryst.   s(11) = (     1          0         -1      )
                  (     0          0         -1      )
                  (     0          1         -1      )

 cart.    s(11) = (  0.0000000  0.0000000 -1.0000000 )
                  ( -1.0000000  0.0000000  0.0000000 )
                  (  0.0000000  1.0000000  0.0000000 )


      isym = 12     120 deg rotation - cart. axis [-1,-1,1]      

 cryst.   s(12) = (     0         -1          0      )
                  (     1         -1          0      )
                  (     0         -1          1      )

 cart.    s(12) = (  0.0000000  0.0000000 -1.0000000 )
                  (  1.0000000  0.0000000  0.0000000 )
                  (  0.0000000 -1.0000000  0.0000000 )


      isym = 13     inv. 180 deg rotation - cart. axis [1,1,0]   

 cryst.   s(13) = (     1          0         -1      )
                  (     0          1         -1      )
                  (     0          0         -1      )

 cart.    s(13) = (  0.0000000 -1.0000000  0.0000000 )
                  ( -1.0000000  0.0000000  0.0000000 )
                  (  0.0000000  0.0000000  1.0000000 )


      isym = 14     inv. 180 deg rotation - cart. axis [1,-1,0]  

 cryst.   s(14) = (     0          1          0      )
                  (     1          0          0      )
                  (     0          0          1      )

 cart.    s(14) = (  0.0000000  1.0000000  0.0000000 )
                  (  1.0000000  0.0000000  0.0000000 )
                  (  0.0000000  0.0000000  1.0000000 )


      isym = 15     inv.  90 deg rotation - cart. axis [0,0,-1]  

 cryst.   s(15) = (     0         -1          0      )
                  (     0         -1          1      )
                  (     1         -1          0      )

 cart.    s(15) = (  0.0000000 -1.0000000  0.0000000 )
                  (  1.0000000  0.0000000  0.0000000 )
                  (  0.0000000  0.0000000 -1.0000000 )


      isym = 16     inv.  90 deg rotation - cart. axis [0,0,1]   

 cryst.   s(16) = (    -1          0          1      )
                  (    -1          0          0      )
                  (    -1          1          0      )

 cart.    s(16) = (  0.0000000  1.0000000  0.0000000 )
                  ( -1.0000000  0.0000000  0.0000000 )
                  (  0.0000000  0.0000000 -1.0000000 )


      isym = 17     inv. 180 deg rotation - cart. axis [1,0,1]   

 cryst.   s(17) = (     1         -1          0      )
                  (     0         -1          0      )
                  (     0         -1          1      )

 cart.    s(17) = (  0.0000000  0.0000000 -1.0000000 )
                  (  0.0000000  1.0000000  0.0000000 )
                  ( -1.0000000  0.0000000  0.0000000 )


      isym = 18     inv. 180 deg rotation - cart. axis [-1,0,1]  

 cryst.   s(18) = (     0          0          1      )
                  (     0          1          0      )
                  (     1          0          0      )

 cart.    s(18) = (  0.0000000  0.0000000  1.0000000 )
                  (  0.0000000  1.0000000  0.0000000 )
                  (  1.0000000  0.0000000  0.0000000 )


      isym = 19     inv.  90 deg rotation - cart. axis [0,1,0]   

 cryst.   s(19) = (     0          0         -1      )
                  (     1          0         -1      )
                  (     0          1         -1      )

 cart.    s(19) = (  0.0000000  0.0000000 -1.0000000 )
                  (  0.0000000 -1.0000000  0.0000000 )
                  (  1.0000000  0.0000000  0.0000000 )


      isym = 20     inv.  90 deg rotation - cart. axis [0,-1,0]  

 cryst.   s(20) = (    -1          1          0      )
                  (    -1          0          1      )
                  (    -1          0          0      )

 cart.    s(20) = (  0.0000000  0.0000000  1.0000000 )
                  (  0.0000000 -1.0000000  0.0000000 )
                  ( -1.0000000  0.0000000  0.0000000 )


      isym = 21     inv. 180 deg rotation - cart. axis [0,1,1]   

 cryst.   s(21) = (    -1          0          0      )
                  (    -1          1          0      )
                  (    -1          0          1      )

 cart.    s(21) = (  1.0000000  0.0000000  0.0000000 )
                  (  0.0000000  0.0000000 -1.0000000 )
                  (  0.0000000 -1.0000000  0.0000000 )


      isym = 22     inv. 180 deg rotation - cart. axis [0,1,-1]  

 cryst.   s(22) = (     1          0          0      )
                  (     0          0          1      )
                  (     0          1          0      )

 cart.    s(22) = (  1.0000000  0.0000000  0.0000000 )
                  (  0.0000000  0.0000000  1.0000000 )
                  (  0.0000000  1.0000000  0.0000000 )


      isym = 23     inv.  90 deg rotation - cart. axis [-1,0,0]  

 cryst.   s(23) = (     0          1         -1      )
                  (     0          0         -1      )
                  (     1          0         -1      )

 cart.    s(23) = ( -1.0000000  0.0000000  0.0000000 )
                  (  0.0000000  0.0000000 -1.0000000 )
                  (  0.0000000  1.0000000  0.0000000 )


      isym = 24     inv.  90 deg rotation - cart. axis [1,0,0]   

 cryst.   s(24) = (     0         -1          1      )
                  (     1         -1          0      )
                  (     0         -1          0      )

 cart.    s(24) = ( -1.0000000  0.0000000  0.0000000 )
                  (  0.0000000  0.0000000  1.0000000 )
                  (  0.0000000 -1.0000000  0.0000000 )


   Cartesian axes

     site n.     atom                  positions (alat units)
         1        Cd     tau(   1) = (   0.0000000   0.0000000   0.0000000  )
         2        Te     tau(   2) = (   0.3535534   0.3535534   0.3535534  )

   Crystallographic axes

     site n.     atom                  positions (cryst. coord.)
         1        Cd     tau(   1) = (  0.0000000  0.0000000  0.0000000  )
         2        Te     tau(   2) = (  0.2500000  0.2500000  0.2500000  )

     number of k points=    16
                       cart. coord. in units 2pi/alat
        k(    1) = (   0.0000000   0.0000000   0.0000000), wk =   0.0092593
        k(    2) = (   0.1178511   0.1178511  -0.1178511), wk =   0.0740741
        k(    3) = (   0.2357023   0.2357023  -0.2357023), wk =   0.0740741
        k(    4) = (  -0.3535534  -0.3535534   0.3535534), wk =   0.0370370
        k(    5) = (   0.2357023   0.0000000   0.0000000), wk =   0.0555556
        k(    6) = (   0.3535534   0.1178511  -0.1178511), wk =   0.2222222
        k(    7) = (  -0.2357023  -0.4714045   0.4714045), wk =   0.2222222
        k(    8) = (  -0.1178511  -0.3535534   0.3535534), wk =   0.2222222
        k(    9) = (   0.0000000  -0.2357023   0.2357023), wk =   0.1111111
        k(   10) = (   0.4714045   0.0000000   0.0000000), wk =   0.0555556
        k(   11) = (  -0.1178511  -0.5892557   0.5892557), wk =   0.2222222
        k(   12) = (  -0.0000000  -0.4714045   0.4714045), wk =   0.1111111
        k(   13) = (  -0.7071068   0.0000000   0.0000000), wk =   0.0277778
        k(   14) = (  -0.2357023  -0.4714045   0.7071068), wk =   0.2222222
        k(   15) = (  -0.1178511  -0.3535534   0.5892557), wk =   0.2222222
        k(   16) = (  -0.7071068   0.2357023   0.0000000), wk =   0.1111111

                       cryst. coord.
        k(    1) = (   0.0000000   0.0000000   0.0000000), wk =   0.0092593
        k(    2) = (   0.0000000   0.0000000   0.1666667), wk =   0.0740741
        k(    3) = (   0.0000000   0.0000000   0.3333333), wk =   0.0740741
        k(    4) = (   0.0000000   0.0000000  -0.5000000), wk =   0.0370370
        k(    5) = (   0.0000000   0.1666667   0.1666667), wk =   0.0555556
        k(    6) = (   0.0000000   0.1666667   0.3333333), wk =   0.2222222
        k(    7) = (   0.0000000   0.1666667  -0.5000000), wk =   0.2222222
        k(    8) = (   0.0000000   0.1666667  -0.3333333), wk =   0.2222222
        k(    9) = (   0.0000000   0.1666667  -0.1666667), wk =   0.1111111
        k(   10) = (   0.0000000   0.3333333   0.3333333), wk =   0.0555556
        k(   11) = (   0.0000000   0.3333333  -0.5000000), wk =   0.2222222
        k(   12) = (   0.0000000   0.3333333  -0.3333333), wk =   0.1111111
        k(   13) = (   0.0000000  -0.5000000  -0.5000000), wk =   0.0277778
        k(   14) = (   0.1666667   0.3333333  -0.5000000), wk =   0.2222222
        k(   15) = (   0.1666667   0.3333333  -0.3333333), wk =   0.2222222
        k(   16) = (   0.1666667  -0.5000000  -0.3333333), wk =   0.1111111

     Dense  grid:    81547 G-vectors     FFT dimensions: (  64,  64,  64)

     Smooth grid:    44399 G-vectors     FFT dimensions: (  50,  50,  50)

     Dynamical RAM for                 wfc:       0.13 MB

     Dynamical RAM for     wfc (w. buffer):       2.16 MB

     Dynamical RAM for           str. fact:       0.41 MB

     Dynamical RAM for           local pot:       0.00 MB

     Dynamical RAM for          nlocal pot:       0.51 MB

     Dynamical RAM for                qrad:       3.52 MB

     Dynamical RAM for          rho,v,vnew:       1.65 MB

     Dynamical RAM for               rhoin:       0.55 MB

     Dynamical RAM for            rho*nmix:       3.32 MB

     Dynamical RAM for           G-vectors:       0.83 MB

     Dynamical RAM for          h,s,v(r/c):       0.01 MB

     Dynamical RAM for          <psi|beta>:       0.00 MB

     Dynamical RAM for                 psi:       0.25 MB

     Dynamical RAM for                hpsi:       0.25 MB

     Dynamical RAM for                spsi:       0.25 MB

     Dynamical RAM for      wfcinit/wfcrot:       0.26 MB

     Dynamical RAM for           addusdens:      38.78 MB

     Estimated static dynamical RAM per process >      11.98 MB

     Estimated max dynamical RAM per process >      54.08 MB

     Estimated total dynamical RAM >     324.45 MB

     Initial potential from superposition of free atoms

     starting charge      17.9949, renormalised to      18.0000
     Starting wfcs are   13 randomized atomic wfcs

     total cpu time spent up to now is        0.9 secs

     per-process dynamical memory:    22.6 Mb

     Self-consistent Calculation

     iteration #  1     ecut=    80.00 Ry     beta= 0.30
     Davidson diagonalization with overlap

---- Real-time Memory Report at c_bands before calling an iterative solver
            99 MiB given to the printing process from OS
            22 MiB allocation reported by mallinfo(arena+hblkhd)
          2438 MiB available memory on the node where the printing process lives
------------------
     ethr =  1.00E-02,  avg # of iterations =  1.1

     Threshold (ethr) on eigenvalues was too large:
     Diagonalizing with lowered threshold

     Davidson diagonalization with overlap

---- Real-time Memory Report at c_bands before calling an iterative solver
           102 MiB given to the printing process from OS
            25 MiB allocation reported by mallinfo(arena+hblkhd)
          2437 MiB available memory on the node where the printing process lives
------------------
     ethr =  2.04E-04,  avg # of iterations =  5.1

     total cpu time spent up to now is        1.9 secs

     total energy              =    -128.97450309 Ry
     estimated scf accuracy    <       0.04149945 Ry

     iteration #  2     ecut=    80.00 Ry     beta= 0.30
     Davidson diagonalization with overlap

---- Real-time Memory Report at c_bands before calling an iterative solver
           104 MiB given to the printing process from OS
            26 MiB allocation reported by mallinfo(arena+hblkhd)
          2432 MiB available memory on the node where the printing process lives
------------------
     ethr =  2.31E-04,  avg # of iterations =  1.7

     total cpu time spent up to now is        2.4 secs

     total energy              =    -128.97265942 Ry
     estimated scf accuracy    <       0.01255207 Ry

     iteration #  3     ecut=    80.00 Ry     beta= 0.30
     Davidson diagonalization with overlap

---- Real-time Memory Report at c_bands before calling an iterative solver
           104 MiB given to the printing process from OS
            26 MiB allocation reported by mallinfo(arena+hblkhd)
          2432 MiB available memory on the node where the printing process lives
------------------
     ethr =  6.97E-05,  avg # of iterations =  2.3

     total cpu time spent up to now is        2.9 secs

     total energy              =    -128.97612085 Ry
     estimated scf accuracy    <       0.00136198 Ry

     iteration #  4     ecut=    80.00 Ry     beta= 0.30
     Davidson diagonalization with overlap

---- Real-time Memory Report at c_bands before calling an iterative solver
           105 MiB given to the printing process from OS
            27 MiB allocation reported by mallinfo(arena+hblkhd)
          2432 MiB available memory on the node where the printing process lives
------------------
     ethr =  7.57E-06,  avg # of iterations =  4.9

     total cpu time spent up to now is        3.5 secs

     total energy              =    -128.97679918 Ry
     estimated scf accuracy    <       0.00021774 Ry

     iteration #  5     ecut=    80.00 Ry     beta= 0.30
     Davidson diagonalization with overlap

---- Real-time Memory Report at c_bands before calling an iterative solver
           105 MiB given to the printing process from OS
            27 MiB allocation reported by mallinfo(arena+hblkhd)
          2426 MiB available memory on the node where the printing process lives
------------------
     ethr =  1.21E-06,  avg # of iterations =  4.6

     total cpu time spent up to now is        4.1 secs

     total energy              =    -128.97687522 Ry
     estimated scf accuracy    <       0.00006918 Ry

     iteration #  6     ecut=    80.00 Ry     beta= 0.30
     Davidson diagonalization with overlap

---- Real-time Memory Report at c_bands before calling an iterative solver
           105 MiB given to the printing process from OS
            27 MiB allocation reported by mallinfo(arena+hblkhd)
          2424 MiB available memory on the node where the printing process lives
------------------
     ethr =  3.84E-07,  avg # of iterations =  5.4

     total cpu time spent up to now is        4.8 secs

     total energy              =    -128.97690410 Ry
     estimated scf accuracy    <       0.00005829 Ry

     iteration #  7     ecut=    80.00 Ry     beta= 0.30
     Davidson diagonalization with overlap

---- Real-time Memory Report at c_bands before calling an iterative solver
           105 MiB given to the printing process from OS
            27 MiB allocation reported by mallinfo(arena+hblkhd)
          2433 MiB available memory on the node where the printing process lives
------------------
     ethr =  3.24E-07,  avg # of iterations =  1.1

     total cpu time spent up to now is        5.3 secs

     total energy              =    -128.97688551 Ry
     estimated scf accuracy    <       0.00003002 Ry

     iteration #  8     ecut=    80.00 Ry     beta= 0.30
     Davidson diagonalization with overlap

---- Real-time Memory Report at c_bands before calling an iterative solver
           105 MiB given to the printing process from OS
            28 MiB allocation reported by mallinfo(arena+hblkhd)
          2433 MiB available memory on the node where the printing process lives
------------------
     ethr =  1.67E-07,  avg # of iterations =  3.2

     total cpu time spent up to now is        5.9 secs

     total energy              =    -128.97689770 Ry
     estimated scf accuracy    <       0.00000186 Ry

     iteration #  9     ecut=    80.00 Ry     beta= 0.30
     Davidson diagonalization with overlap

---- Real-time Memory Report at c_bands before calling an iterative solver
           106 MiB given to the printing process from OS
            28 MiB allocation reported by mallinfo(arena+hblkhd)
          2441 MiB available memory on the node where the printing process lives
------------------
     c_bands:  1 eigenvalues not converged
     ethr =  1.03E-08,  avg # of iterations = 10.0

     total cpu time spent up to now is        6.7 secs

     total energy              =    -128.97690204 Ry
     estimated scf accuracy    <       0.00001491 Ry

     iteration # 10     ecut=    80.00 Ry     beta= 0.30
     Davidson diagonalization with overlap

---- Real-time Memory Report at c_bands before calling an iterative solver
           106 MiB given to the printing process from OS
            28 MiB allocation reported by mallinfo(arena+hblkhd)
          2445 MiB available memory on the node where the printing process lives
------------------
     ethr =  1.03E-08,  avg # of iterations =  2.0

     total cpu time spent up to now is        7.2 secs

     total energy              =    -128.97690951 Ry
     estimated scf accuracy    <       0.00001172 Ry

     iteration # 11     ecut=    80.00 Ry     beta= 0.30
     Davidson diagonalization with overlap

---- Real-time Memory Report at c_bands before calling an iterative solver
           106 MiB given to the printing process from OS
            28 MiB allocation reported by mallinfo(arena+hblkhd)
          2445 MiB available memory on the node where the printing process lives
------------------
     ethr =  1.03E-08,  avg # of iterations =  4.0

     total cpu time spent up to now is        7.8 secs

     total energy              =    -128.97689141 Ry
     estimated scf accuracy    <       0.00002929 Ry

     iteration # 12     ecut=    80.00 Ry     beta= 0.30
     Davidson diagonalization with overlap

---- Real-time Memory Report at c_bands before calling an iterative solver
           106 MiB given to the printing process from OS
            28 MiB allocation reported by mallinfo(arena+hblkhd)
          2438 MiB available memory on the node where the printing process lives
------------------
     ethr =  1.03E-08,  avg # of iterations =  9.1

     total cpu time spent up to now is        8.7 secs

     total energy              =    -128.97689890 Ry
     estimated scf accuracy    <       0.00000072 Ry

     iteration # 13     ecut=    80.00 Ry     beta= 0.30
     Davidson diagonalization with overlap

---- Real-time Memory Report at c_bands before calling an iterative solver
           106 MiB given to the printing process from OS
            28 MiB allocation reported by mallinfo(arena+hblkhd)
          2440 MiB available memory on the node where the printing process lives
------------------
     ethr =  3.98E-09,  avg # of iterations =  5.7

     total cpu time spent up to now is        9.4 secs

     total energy              =    -128.97689759 Ry
     estimated scf accuracy    <       0.00000341 Ry

     iteration # 14     ecut=    80.00 Ry     beta= 0.30
     Davidson diagonalization with overlap

---- Real-time Memory Report at c_bands before calling an iterative solver
           106 MiB given to the printing process from OS
            28 MiB allocation reported by mallinfo(arena+hblkhd)
          2440 MiB available memory on the node where the printing process lives
------------------
     ethr =  3.98E-09,  avg # of iterations =  5.6

     total cpu time spent up to now is       10.1 secs

     total energy              =    -128.97689796 Ry
     estimated scf accuracy    <       0.00000020 Ry

     iteration # 15     ecut=    80.00 Ry     beta= 0.30
     Davidson diagonalization with overlap

---- Real-time Memory Report at c_bands before calling an iterative solver
           106 MiB given to the printing process from OS
            28 MiB allocation reported by mallinfo(arena+hblkhd)
          2446 MiB available memory on the node where the printing process lives
------------------
     ethr =  1.10E-09,  avg # of iterations =  5.9

     total cpu time spent up to now is       10.9 secs

     total energy              =    -128.97689806 Ry
     estimated scf accuracy    <       0.00000010 Ry

     iteration # 16     ecut=    80.00 Ry     beta= 0.30
     Davidson diagonalization with overlap

---- Real-time Memory Report at c_bands before calling an iterative solver
           106 MiB given to the printing process from OS
            28 MiB allocation reported by mallinfo(arena+hblkhd)
          2447 MiB available memory on the node where the printing process lives
------------------
     ethr =  5.55E-10,  avg # of iterations =  6.3

     total cpu time spent up to now is       11.6 secs

     total energy              =    -128.97689810 Ry
     estimated scf accuracy    <       0.00000013 Ry

     iteration # 17     ecut=    80.00 Ry     beta= 0.30
     Davidson diagonalization with overlap

---- Real-time Memory Report at c_bands before calling an iterative solver
           106 MiB given to the printing process from OS
            28 MiB allocation reported by mallinfo(arena+hblkhd)
          2446 MiB available memory on the node where the printing process lives
------------------
     ethr =  5.55E-10,  avg # of iterations =  1.3

     total cpu time spent up to now is       12.1 secs

     total energy              =    -128.97689806 Ry
     estimated scf accuracy    <       0.00000005 Ry

     iteration # 18     ecut=    80.00 Ry     beta= 0.30
     Davidson diagonalization with overlap

---- Real-time Memory Report at c_bands before calling an iterative solver
           106 MiB given to the printing process from OS
            28 MiB allocation reported by mallinfo(arena+hblkhd)
          2446 MiB available memory on the node where the printing process lives
------------------
     ethr =  2.98E-10,  avg # of iterations =  5.8

     total cpu time spent up to now is       12.7 secs

     total energy              =    -128.97689808 Ry
     estimated scf accuracy    <       0.00000006 Ry

     iteration # 19     ecut=    80.00 Ry     beta= 0.30
     Davidson diagonalization with overlap

---- Real-time Memory Report at c_bands before calling an iterative solver
           106 MiB given to the printing process from OS
            28 MiB allocation reported by mallinfo(arena+hblkhd)
          2446 MiB available memory on the node where the printing process lives
------------------
     ethr =  2.98E-10,  avg # of iterations =  3.1

     total cpu time spent up to now is       13.2 secs

     total energy              =    -128.97689809 Ry
     estimated scf accuracy    <          2.6E-09 Ry

     iteration # 20     ecut=    80.00 Ry     beta= 0.30
     Davidson diagonalization with overlap

---- Real-time Memory Report at c_bands before calling an iterative solver
           106 MiB given to the printing process from OS
            28 MiB allocation reported by mallinfo(arena+hblkhd)
          2446 MiB available memory on the node where the printing process lives
------------------
     ethr =  1.43E-11,  avg # of iterations =  6.2

     total cpu time spent up to now is       13.9 secs

     total energy              =    -128.97689809 Ry
     estimated scf accuracy    <          2.6E-10 Ry

     iteration # 21     ecut=    80.00 Ry     beta= 0.30
     Davidson diagonalization with overlap

---- Real-time Memory Report at c_bands before calling an iterative solver
           106 MiB given to the printing process from OS
            28 MiB allocation reported by mallinfo(arena+hblkhd)
          2444 MiB available memory on the node where the printing process lives
------------------
     ethr =  1.45E-12,  avg # of iterations =  6.2

     total cpu time spent up to now is       14.5 secs

     total energy              =    -128.97689809 Ry
     estimated scf accuracy    <          3.5E-10 Ry

     iteration # 22     ecut=    80.00 Ry     beta= 0.30
     Davidson diagonalization with overlap

---- Real-time Memory Report at c_bands before calling an iterative solver
           106 MiB given to the printing process from OS
            28 MiB allocation reported by mallinfo(arena+hblkhd)
          2451 MiB available memory on the node where the printing process lives
------------------
     ethr =  1.45E-12,  avg # of iterations =  1.9

     total cpu time spent up to now is       15.0 secs

     total energy              =    -128.97689809 Ry
     estimated scf accuracy    <          1.1E-10 Ry

     iteration # 23     ecut=    80.00 Ry     beta= 0.30
     Davidson diagonalization with overlap

---- Real-time Memory Report at c_bands before calling an iterative solver
           106 MiB given to the printing process from OS
            28 MiB allocation reported by mallinfo(arena+hblkhd)
          2451 MiB available memory on the node where the printing process lives
------------------
     ethr =  6.28E-13,  avg # of iterations =  5.8

     total cpu time spent up to now is       15.7 secs

     total energy              =    -128.97689809 Ry
     estimated scf accuracy    <          3.2E-10 Ry

     iteration # 24     ecut=    80.00 Ry     beta= 0.30
     Davidson diagonalization with overlap

---- Real-time Memory Report at c_bands before calling an iterative solver
           106 MiB given to the printing process from OS
            28 MiB allocation reported by mallinfo(arena+hblkhd)
          2445 MiB available memory on the node where the printing process lives
------------------
     ethr =  6.28E-13,  avg # of iterations =  1.1

     total cpu time spent up to now is       16.2 secs

     total energy              =    -128.97689809 Ry
     estimated scf accuracy    <          2.1E-10 Ry

     iteration # 25     ecut=    80.00 Ry     beta= 0.30
     Davidson diagonalization with overlap

---- Real-time Memory Report at c_bands before calling an iterative solver
           106 MiB given to the printing process from OS
            28 MiB allocation reported by mallinfo(arena+hblkhd)
          2445 MiB available memory on the node where the printing process lives
------------------
     ethr =  6.28E-13,  avg # of iterations =  5.2

     total cpu time spent up to now is       16.8 secs

     End of self-consistent calculation

          k = 0.0000 0.0000 0.0000 (  5601 PWs)   bands (ev):

    -6.0497  -3.1535  -3.1535  -3.1535  -2.8931  -2.8931   5.1271   5.1271
     5.1271

     occupation numbers 
     1.0000   1.0000   1.0000   1.0000   1.0000   1.0000   1.0000   1.0000
     1.0000

          k = 0.1179 0.1179-0.1179 (  5564 PWs)   bands (ev):

    -5.9499  -3.1348  -3.1348  -3.0701  -2.8941  -2.8941   3.3866   4.8986
     4.8986

     occupation numbers 
     1.0000   1.0000   1.0000   1.0000   1.0000   1.0000   1.0000   1.0000
     1.0000

          k = 0.2357 0.2357-0.2357 (  5546 PWs)   bands (ev):

    -5.7502  -3.1026  -3.1026  -2.8896  -2.8896  -2.7907   1.5414   4.5167
     4.5167

     occupation numbers 
     1.0000   1.0000   1.0000   1.0000   1.0000   1.0000   1.0000   1.0000
     1.0000

          k =-0.3536-0.3536 0.3536 (  5564 PWs)   bands (ev):

    -5.6524  -3.0902  -3.0902  -2.8831  -2.8831  -2.5412   0.6976   4.3510
     4.3510

     occupation numbers 
     1.0000   1.0000   1.0000   1.0000   1.0000   1.0000   1.0000   1.0000
     1.0000

          k = 0.2357 0.0000 0.0000 (  5569 PWs)   bands (ev):

    -5.9170  -3.1157  -3.1157  -3.0710  -2.9012  -2.8850   3.3835   4.5204
     4.5204

     occupation numbers 
     1.0000   1.0000   1.0000   1.0000   1.0000   1.0000   1.0000   1.0000
     1.0000

          k = 0.3536 0.1179-0.1179 (  5539 PWs)   bands (ev):

    -5.7517  -3.0905  -3.0793  -2.9432  -2.8787  -2.8168   1.9974   4.0003
     4.1116

     occupation numbers 
     1.0000   1.0000   1.0000   1.0000   1.0000   1.0000   1.0000   1.0000
     1.0000

          k =-0.2357-0.4714 0.4714 (  5550 PWs)   bands (ev):

    -5.6228  -3.0758  -3.0638  -2.9085  -2.8800  -2.5167   0.9089   3.4745
     4.0295

     occupation numbers 
     1.0000   1.0000   1.0000   1.0000   1.0000   1.0000   1.0000   1.0000
     1.0000

          k =-0.1179-0.3536 0.3536 (  5554 PWs)   bands (ev):

    -5.6545  -3.0778  -3.0768  -2.8958  -2.8946  -2.6003   1.1738   3.3392
     4.3272

     occupation numbers 
     1.0000   1.0000   1.0000   1.0000   1.0000   1.0000   1.0000   1.0000
     1.0000

          k = 0.0000-0.2357 0.2357 (  5558 PWs)   bands (ev):

    -5.8171  -3.1134  -3.0989  -2.9426  -2.9025  -2.8687   2.4058   3.8729
     4.7777

     occupation numbers 
     1.0000   1.0000   1.0000   1.0000   1.0000   1.0000   1.0000   1.0000
     1.0000

          k = 0.4714 0.0000 0.0000 (  5558 PWs)   bands (ev):

    -5.6557  -3.0338  -3.0338  -2.9835  -2.8687  -2.7011   1.6468   3.6270
     3.6270

     occupation numbers 
     1.0000   1.0000   1.0000   1.0000   1.0000   1.0000   1.0000   1.0000
     1.0000

          k =-0.1179-0.5893 0.5893 (  5542 PWs)   bands (ev):

    -5.5623  -3.0323  -3.0125  -2.9584  -2.8695  -2.4504   1.0218   2.9667
     3.4937

     occupation numbers 
     1.0000   1.0000   1.0000   1.0000   1.0000   1.0000   1.0000   1.0000
     1.0000

          k =-0.0000-0.4714 0.4714 (  5526 PWs)   bands (ev):

    -5.5627  -3.0517  -3.0318  -2.9198  -2.8871  -2.3892   0.9855   2.5111
     3.8028

     occupation numbers 
     1.0000   1.0000   1.0000   1.0000   1.0000   1.0000   1.0000   1.0000
     1.0000

          k =-0.7071 0.0000 0.0000 (  5514 PWs)   bands (ev):

    -5.5315  -2.9976  -2.9891  -2.9891  -2.8605  -2.4031   0.8158   3.2605
     3.2605

     occupation numbers 
     1.0000   1.0000   1.0000   1.0000   1.0000   1.0000   1.0000   1.0000
     1.0000

          k =-0.2357-0.4714 0.7071 (  5554 PWs)   bands (ev):

    -5.6241  -3.0575  -3.0498  -2.9340  -2.8792  -2.5764   1.3387   3.0513
     3.8078

     occupation numbers 
     1.0000   1.0000   1.0000   1.0000   1.0000   1.0000   1.0000   1.0000
     1.0000

          k =-0.1179-0.3536 0.5893 (  5548 PWs)   bands (ev):

    -5.5627  -3.0497  -3.0351  -2.9169  -2.8888  -2.3884   0.9486   2.7368
     3.5248

     occupation numbers 
     1.0000   1.0000   1.0000   1.0000   1.0000   1.0000   1.0000   1.0000
     1.0000

          k =-0.7071 0.2357 0.0000 (  5542 PWs)   bands (ev):

    -5.5328  -3.0213  -3.0207  -2.9403  -2.8787  -2.3405   0.9039   2.9106
     3.0021

     occupation numbers 
     1.0000   1.0000   1.0000   1.0000   1.0000   1.0000   1.0000   1.0000
     1.0000

     highest occupied level (ev):     5.1271

!    total energy              =    -128.97689809 Ry
     estimated scf accuracy    <          1.1E-11 Ry

     The total energy is the sum of the following terms:
     one-electron contribution =     -48.73575338 Ry
     hartree contribution      =      36.06100248 Ry
     xc contribution           =     -39.50092026 Ry
     ewald contribution        =     -76.80122694 Ry

     convergence has been achieved in  25 iterations

     Writing all to output data dir /home/User/opencode_workspace/DFT/calculations/cdte/conv_scf_k6/out/pwscf.save/ :
     XML data file, charge density, pseudopotentials, collected wavefunctions

     init_run     :      0.62s CPU      0.71s WALL (       1 calls)
     electrons    :     12.20s CPU     15.87s WALL (       1 calls)

     Called by init_run:
     wfcinit      :      0.10s CPU      0.12s WALL (       1 calls)
     wfcinit:atom :      0.00s CPU      0.00s WALL (      16 calls)
     wfcinit:wfcr :      0.09s CPU      0.11s WALL (      16 calls)
     potinit      :      0.11s CPU      0.12s WALL (       1 calls)
     hinit0       :      0.26s CPU      0.27s WALL (       1 calls)

     Called by electrons:
     c_bands      :      7.20s CPU      8.20s WALL (      26 calls)
     sum_band     :      2.89s CPU      4.29s WALL (      26 calls)
     v_of_rho     :      0.42s CPU      0.53s WALL (      26 calls)
     v_h          :      0.02s CPU      0.04s WALL (      26 calls)
     v_xc         :      0.40s CPU      0.49s WALL (      26 calls)
     newd         :      1.67s CPU      2.87s WALL (      26 calls)
     mix_rho      :      0.06s CPU      0.06s WALL (      26 calls)

     Called by c_bands:
     init_us_2    :      0.20s CPU      0.23s WALL (     848 calls)
     cegterg      :      6.80s CPU      7.76s WALL (     416 calls)

     Called by sum_band:
     sum_band:wei :      0.00s CPU      0.00s WALL (      26 calls)
     sum_band:loo :      0.99s CPU      1.16s WALL (      26 calls)
     sum_band:buf :      0.01s CPU      0.01s WALL (     416 calls)
     sum_band:ini :      0.10s CPU      0.11s WALL (     416 calls)
     sum_band:cal :      0.08s CPU      0.09s WALL (     416 calls)
     sum_band:bec :      0.00s CPU      0.01s WALL (     416 calls)
     addusdens    :      1.72s CPU      2.93s WALL (      26 calls)
                                        0.00s GPU  (      26 calls)
     addusd:skk   :      0.00s CPU      0.00s WALL (      52 calls)
                                        0.00s GPU  (      52 calls)

     Called by *egterg:
     cdiaghg      :      0.19s CPU      0.21s WALL (    2233 calls)
     cegterg:over :      0.20s CPU      0.22s WALL (    1833 calls)
     cegterg:upda :      0.07s CPU      0.08s WALL (    1833 calls)
     cegterg:last :      0.13s CPU      0.14s WALL (    1243 calls)
     h_psi        :      5.96s CPU      6.87s WALL (    2265 calls)
     s_psi        :      0.11s CPU      0.13s WALL (    2265 calls)
     g_psi        :      0.05s CPU      0.05s WALL (    1833 calls)

     Called by h_psi:
     h_psi:calbec :      0.31s CPU      0.35s WALL (    2265 calls)
     vloc_psi     :      5.49s CPU      6.33s WALL (    2265 calls)
                                        0.00s GPU  (    2265 calls)
     add_vuspsi   :      0.13s CPU      0.15s WALL (    2265 calls)

     General routines
     calbec       :      0.38s CPU      0.43s WALL (    2681 calls)
     fft          :      0.35s CPU      0.42s WALL (     337 calls)
     ffts         :      0.10s CPU      0.11s WALL (      52 calls)
     fftw         :      5.85s CPU      6.77s WALL (   30322 calls)
     interpolate  :      0.11s CPU      0.11s WALL (      26 calls)

     Parallel routines

     PWSCF        :     13.02s CPU     16.82s WALL


   This run was terminated on:  19: 4:25  22Sep2026            

=------------------------------------------------------------------------------=
   JOB DONE.
=------------------------------------------------------------------------------=
