
     Program PWSCF v.7.5 starts on 23Sep2026 at  6:15:41 

     This program is part of the open-source Quantum ESPRESSO suite
     for quantum simulation of materials; please cite
         "P. Giannozzi et al., J. Phys.:Condens. Matter 21 395502 (2009);
         "P. Giannozzi et al., J. Phys.:Condens. Matter 29 465901 (2017);
         "P. Giannozzi et al., J. Chem. Phys. 152 154105 (2020);
          URL http://www.quantum-espresso.org", 
     in publications or presentations arising from this work. More details at
     http://www.quantum-espresso.org/quote

     Parallel version (MPI & OpenMP), running on       6 processor cores
     Number of MPI processes:                 6
     Threads/MPI process:                     1

     MPI processes distributed on     1 nodes
     13623 MiB available memory on the printing compute node when the environment starts

     Reading input from pw.in

     Current dimensions of program PWSCF are:
     Max number of different atomic species (ntypx) = 10
     Max number of k-points (npk) =  40000
     Max angular momentum in pseudopotentials (lmaxx) =  4
     file Hg.rel-pbe-spn-rrkjus_psl.1.0.0.UPF: wavefunction(s)  5P 5P renormalized
     file Te.rel-pbe-n-rrkjus_psl.1.0.0.UPF: wavefunction(s)  5S renormalized

     Atomic positions and unit cell read from directory:
     /home/User/opencode_workspace/DFT/calculations/hgte/production_dos_soc/out/pwscf.save/

     Message from routine setup:
     using ibrav=0 with symmetry is DISCOURAGED, use correct ibrav instead

     R & G space division:  proc/nbgrp/npool/nimage =       6
     Subspace diagonalization in iterative solution of the eigenvalue problem:
     a serial algorithm will be used


     Parallelization info
     --------------------
     sticks:   dense  smooth     PW     G-vecs:    dense   smooth      PW
     Min         647     431    123                26757    14591    2184
     Max         649     432    125                26759    14596    2185
     Sum        3889    2587    745               160549    87555   13107

     Using Slab Decomposition



     bravais-lattice index     =            0
     lattice parameter (alat)  =       8.8595  a.u.
     unit-cell volume          =     491.7078 (a.u.)^3
     number of atoms/cell      =            2
     number of atomic types    =            2
     number of electrons       =        26.00
     number of Kohn-Sham states=           38
     kinetic-energy cutoff     =     120.0000  Ry
     charge density cutoff     =     720.0000  Ry
     Exchange-correlation= PBE
                           (   1   4   3   4   0   0   0)
     Non magnetic calculation with spin-orbit


     celldm(1)=   8.859462  celldm(2)=   0.000000  celldm(3)=   0.000000
     celldm(4)=   0.000000  celldm(5)=   0.000000  celldm(6)=   0.000000

     crystal axes: (cart. coord. in units of alat)
               a(1) = (   0.000000   0.707107   0.707107 )  
               a(2) = (   0.707107   0.000000   0.707107 )  
               a(3) = (   0.707107   0.707107   0.000000 )  

     reciprocal axes: (cart. coord. in units 2 pi/alat)
               b(1) = ( -0.707107  0.707107  0.707107 )  
               b(2) = (  0.707107 -0.707107  0.707107 )  
               b(3) = (  0.707107  0.707107 -0.707107 )  


     PseudoPot. # 1 for Hg read from file:
     /home/User/opencode_workspace/DFT/pseudopotentials/Hg.rel-pbe-spn-rrkjus_psl.1.0.0.UPF
     MD5 check sum: 5c678cd38c6ece8c2e94bba06b90db03
     Pseudo is Ultrasoft + core correction, Zval = 20.0
     Generated using &quot;atomic&quot; code by A. Dal Corso  v.6.3
     Using radial grid of 1279 points, 10 beta functions with: 
                l(1) =   0
                l(2) =   0
                l(3) =   1
                l(4) =   1
                l(5) =   1
                l(6) =   1
                l(7) =   2
                l(8) =   2
                l(9) =   2
               l(10) =   2
     Q(r) pseudized with 0 coefficients 


     PseudoPot. # 2 for Te read from file:
     /home/User/opencode_workspace/DFT/pseudopotentials/Te.rel-pbe-n-rrkjus_psl.1.0.0.UPF
     MD5 check sum: 7fd30b6833abd190471e4dcc2367351b
     Pseudo is Ultrasoft + core correction, Zval =  6.0
     Generated using &quot;atomic&quot; code by A. Dal Corso  v.6.3
     Using radial grid of 1245 points, 10 beta functions with: 
                l(1) =   0
                l(2) =   0
                l(3) =   1
                l(4) =   1
                l(5) =   1
                l(6) =   1
                l(7) =   2
                l(8) =   2
                l(9) =   2
               l(10) =   2
     Q(r) pseudized with 0 coefficients 


     atomic species   valence    mass     pseudopotential
     Hg               20.00   200.59200     Hg( 1.00)
     Te                6.00   127.60000     Te( 1.00)

     24 Sym. Ops. (no inversion) found


                                    s                        frac. trans.

      isym =  1     identity                                     

 cryst.   s( 1) = (     1          0          0      )
                  (     0          1          0      )
                  (     0          0          1      )

 cart.    s( 1) = (  1.0000000  0.0000000  0.0000000 )
                  (  0.0000000  1.0000000  0.0000000 )
                  (  0.0000000  0.0000000  1.0000000 )


      isym =  2     180 deg rotation - cart. axis [0,0,1]        

 cryst.   s( 2) = (     0          1         -1      )
                  (     1          0         -1      )
                  (     0          0         -1      )

 cart.    s( 2) = ( -1.0000000  0.0000000  0.0000000 )
                  (  0.0000000 -1.0000000  0.0000000 )
                  (  0.0000000  0.0000000  1.0000000 )


      isym =  3     180 deg rotation - cart. axis [0,1,0]        

 cryst.   s( 3) = (     0         -1          1      )
                  (     0         -1          0      )
                  (     1         -1          0      )

 cart.    s( 3) = ( -1.0000000  0.0000000  0.0000000 )
                  (  0.0000000  1.0000000  0.0000000 )
                  (  0.0000000  0.0000000 -1.0000000 )


      isym =  4     180 deg rotation - cart. axis [1,0,0]        

 cryst.   s( 4) = (    -1          0          0      )
                  (    -1          0          1      )
                  (    -1          1          0      )

 cart.    s( 4) = (  1.0000000  0.0000000  0.0000000 )
                  (  0.0000000 -1.0000000  0.0000000 )
                  (  0.0000000  0.0000000 -1.0000000 )


      isym =  5     120 deg rotation - cart. axis [-1,-1,-1]     

 cryst.   s( 5) = (     0          0          1      )
                  (     1          0          0      )
                  (     0          1          0      )

 cart.    s( 5) = (  0.0000000  1.0000000  0.0000000 )
                  (  0.0000000  0.0000000  1.0000000 )
                  (  1.0000000  0.0000000  0.0000000 )


      isym =  6     120 deg rotation - cart. axis [-1,1,1]       

 cryst.   s( 6) = (     1         -1          0      )
                  (     0         -1          1      )
                  (     0         -1          0      )

 cart.    s( 6) = (  0.0000000 -1.0000000  0.0000000 )
                  (  0.0000000  0.0000000  1.0000000 )
                  ( -1.0000000  0.0000000  0.0000000 )


      isym =  7     120 deg rotation - cart. axis [1,1,-1]       

 cryst.   s( 7) = (    -1          1          0      )
                  (    -1          0          0      )
                  (    -1          0          1      )

 cart.    s( 7) = (  0.0000000  1.0000000  0.0000000 )
                  (  0.0000000  0.0000000 -1.0000000 )
                  ( -1.0000000  0.0000000  0.0000000 )


      isym =  8     120 deg rotation - cart. axis [1,-1,1]       

 cryst.   s( 8) = (     0          0         -1      )
                  (     0          1         -1      )
                  (     1          0         -1      )

 cart.    s( 8) = (  0.0000000 -1.0000000  0.0000000 )
                  (  0.0000000  0.0000000 -1.0000000 )
                  (  1.0000000  0.0000000  0.0000000 )


      isym =  9     120 deg rotation - cart. axis [1,1,1]        

 cryst.   s( 9) = (     0          1          0      )
                  (     0          0          1      )
                  (     1          0          0      )

 cart.    s( 9) = (  0.0000000  0.0000000  1.0000000 )
                  (  1.0000000  0.0000000  0.0000000 )
                  (  0.0000000  1.0000000  0.0000000 )


      isym = 10     120 deg rotation - cart. axis [-1,1,-1]      

 cryst.   s(10) = (    -1          0          1      )
                  (    -1          1          0      )
                  (    -1          0          0      )

 cart.    s(10) = (  0.0000000  0.0000000  1.0000000 )
                  ( -1.0000000  0.0000000  0.0000000 )
                  (  0.0000000 -1.0000000  0.0000000 )


      isym = 11     120 deg rotation - cart. axis [1,-1,-1]      

 cryst.   s(11) = (     1          0         -1      )
                  (     0          0         -1      )
                  (     0          1         -1      )

 cart.    s(11) = (  0.0000000  0.0000000 -1.0000000 )
                  ( -1.0000000  0.0000000  0.0000000 )
                  (  0.0000000  1.0000000  0.0000000 )


      isym = 12     120 deg rotation - cart. axis [-1,-1,1]      

 cryst.   s(12) = (     0         -1          0      )
                  (     1         -1          0      )
                  (     0         -1          1      )

 cart.    s(12) = (  0.0000000  0.0000000 -1.0000000 )
                  (  1.0000000  0.0000000  0.0000000 )
                  (  0.0000000 -1.0000000  0.0000000 )


      isym = 13     inv. 180 deg rotation - cart. axis [1,1,0]   

 cryst.   s(13) = (     1          0         -1      )
                  (     0          1         -1      )
                  (     0          0         -1      )

 cart.    s(13) = (  0.0000000 -1.0000000  0.0000000 )
                  ( -1.0000000  0.0000000  0.0000000 )
                  (  0.0000000  0.0000000  1.0000000 )


      isym = 14     inv. 180 deg rotation - cart. axis [1,-1,0]  

 cryst.   s(14) = (     0          1          0      )
                  (     1          0          0      )
                  (     0          0          1      )

 cart.    s(14) = (  0.0000000  1.0000000  0.0000000 )
                  (  1.0000000  0.0000000  0.0000000 )
                  (  0.0000000  0.0000000  1.0000000 )


      isym = 15     inv.  90 deg rotation - cart. axis [0,0,-1]  

 cryst.   s(15) = (     0         -1          0      )
                  (     0         -1          1      )
                  (     1         -1          0      )

 cart.    s(15) = (  0.0000000 -1.0000000  0.0000000 )
                  (  1.0000000  0.0000000  0.0000000 )
                  (  0.0000000  0.0000000 -1.0000000 )


      isym = 16     inv.  90 deg rotation - cart. axis [0,0,1]   

 cryst.   s(16) = (    -1          0          1      )
                  (    -1          0          0      )
                  (    -1          1          0      )

 cart.    s(16) = (  0.0000000  1.0000000  0.0000000 )
                  ( -1.0000000  0.0000000  0.0000000 )
                  (  0.0000000  0.0000000 -1.0000000 )


      isym = 17     inv. 180 deg rotation - cart. axis [1,0,1]   

 cryst.   s(17) = (     1         -1          0      )
                  (     0         -1          0      )
                  (     0         -1          1      )

 cart.    s(17) = (  0.0000000  0.0000000 -1.0000000 )
                  (  0.0000000  1.0000000  0.0000000 )
                  ( -1.0000000  0.0000000  0.0000000 )


      isym = 18     inv. 180 deg rotation - cart. axis [-1,0,1]  

 cryst.   s(18) = (     0          0          1      )
                  (     0          1          0      )
                  (     1          0          0      )

 cart.    s(18) = (  0.0000000  0.0000000  1.0000000 )
                  (  0.0000000  1.0000000  0.0000000 )
                  (  1.0000000  0.0000000  0.0000000 )


      isym = 19     inv.  90 deg rotation - cart. axis [0,1,0]   

 cryst.   s(19) = (     0          0         -1      )
                  (     1          0         -1      )
                  (     0          1         -1      )

 cart.    s(19) = (  0.0000000  0.0000000 -1.0000000 )
                  (  0.0000000 -1.0000000  0.0000000 )
                  (  1.0000000  0.0000000  0.0000000 )


      isym = 20     inv.  90 deg rotation - cart. axis [0,-1,0]  

 cryst.   s(20) = (    -1          1          0      )
                  (    -1          0          1      )
                  (    -1          0          0      )

 cart.    s(20) = (  0.0000000  0.0000000  1.0000000 )
                  (  0.0000000 -1.0000000  0.0000000 )
                  ( -1.0000000  0.0000000  0.0000000 )


      isym = 21     inv. 180 deg rotation - cart. axis [0,1,1]   

 cryst.   s(21) = (    -1          0          0      )
                  (    -1          1          0      )
                  (    -1          0          1      )

 cart.    s(21) = (  1.0000000  0.0000000  0.0000000 )
                  (  0.0000000  0.0000000 -1.0000000 )
                  (  0.0000000 -1.0000000  0.0000000 )


      isym = 22     inv. 180 deg rotation - cart. axis [0,1,-1]  

 cryst.   s(22) = (     1          0          0      )
                  (     0          0          1      )
                  (     0          1          0      )

 cart.    s(22) = (  1.0000000  0.0000000  0.0000000 )
                  (  0.0000000  0.0000000  1.0000000 )
                  (  0.0000000  1.0000000  0.0000000 )


      isym = 23     inv.  90 deg rotation - cart. axis [-1,0,0]  

 cryst.   s(23) = (     0          1         -1      )
                  (     0          0         -1      )
                  (     1          0         -1      )

 cart.    s(23) = ( -1.0000000  0.0000000  0.0000000 )
                  (  0.0000000  0.0000000 -1.0000000 )
                  (  0.0000000  1.0000000  0.0000000 )


      isym = 24     inv.  90 deg rotation - cart. axis [1,0,0]   

 cryst.   s(24) = (     0         -1          1      )
                  (     1         -1          0      )
                  (     0         -1          0      )

 cart.    s(24) = ( -1.0000000  0.0000000  0.0000000 )
                  (  0.0000000  0.0000000  1.0000000 )
                  (  0.0000000 -1.0000000  0.0000000 )


   Cartesian axes

     site n.     atom                  positions (alat units)
         1        Hg     tau(   1) = (   0.0000000   0.0000000   0.0000000  )
         2        Te     tau(   2) = (   0.3535534   0.3535534   0.3535534  )

   Crystallographic axes

     site n.     atom                  positions (cryst. coord.)
         1        Hg     tau(   1) = (  0.0000000  0.0000000  0.0000000  )
         2        Te     tau(   2) = (  0.2500000  0.2500000  0.2500000  )

     number of k points=   104 (tetrahedron method)
                       cart. coord. in units 2pi/alat
        k(    1) = (   0.0000000   0.0000000   0.0000000), wk =   0.0003644
        k(    2) = (   0.0505076   0.0505076  -0.0505076), wk =   0.0029155
        k(    3) = (   0.1010153   0.1010153  -0.1010153), wk =   0.0029155
        k(    4) = (   0.1515229   0.1515229  -0.1515229), wk =   0.0029155
        k(    5) = (   0.2020305   0.2020305  -0.2020305), wk =   0.0029155
        k(    6) = (   0.2525381   0.2525381  -0.2525381), wk =   0.0029155
        k(    7) = (   0.3030458   0.3030458  -0.3030458), wk =   0.0029155
        k(    8) = (  -0.3535534  -0.3535534   0.3535534), wk =   0.0014577
        k(    9) = (   0.1010153   0.0000000   0.0000000), wk =   0.0021866
        k(   10) = (   0.1515229   0.0505076  -0.0505076), wk =   0.0087464
        k(   11) = (   0.2020305   0.1010153  -0.1010153), wk =   0.0087464
        k(   12) = (   0.2525381   0.1515229  -0.1515229), wk =   0.0087464
        k(   13) = (   0.3030458   0.2020305  -0.2020305), wk =   0.0087464
        k(   14) = (   0.3535534   0.2525381  -0.2525381), wk =   0.0087464
        k(   15) = (  -0.3030458  -0.4040610   0.4040610), wk =   0.0087464
        k(   16) = (  -0.2525381  -0.3535534   0.3535534), wk =   0.0087464
        k(   17) = (  -0.2020305  -0.3030458   0.3030458), wk =   0.0087464
        k(   18) = (  -0.1515229  -0.2525381   0.2525381), wk =   0.0087464
        k(   19) = (  -0.1010153  -0.2020305   0.2020305), wk =   0.0087464
        k(   20) = (  -0.0505076  -0.1515229   0.1515229), wk =   0.0087464
        k(   21) = (   0.0000000  -0.1010153   0.1010153), wk =   0.0043732
        k(   22) = (   0.2020305   0.0000000   0.0000000), wk =   0.0021866
        k(   23) = (   0.2525381   0.0505076  -0.0505076), wk =   0.0087464
        k(   24) = (   0.3030458   0.1010153  -0.1010153), wk =   0.0087464
        k(   25) = (   0.3535534   0.1515229  -0.1515229), wk =   0.0087464
        k(   26) = (   0.4040610   0.2020305  -0.2020305), wk =   0.0087464
        k(   27) = (  -0.2525381  -0.4545686   0.4545686), wk =   0.0087464
        k(   28) = (  -0.2020305  -0.4040610   0.4040610), wk =   0.0087464
        k(   29) = (  -0.1515229  -0.3535534   0.3535534), wk =   0.0087464
        k(   30) = (  -0.1010153  -0.3030458   0.3030458), wk =   0.0087464
        k(   31) = (  -0.0505076  -0.2525381   0.2525381), wk =   0.0087464
        k(   32) = (  -0.0000000  -0.2020305   0.2020305), wk =   0.0043732
        k(   33) = (   0.3030458   0.0000000   0.0000000), wk =   0.0021866
        k(   34) = (   0.3535534   0.0505076  -0.0505076), wk =   0.0087464
        k(   35) = (   0.4040610   0.1010153  -0.1010153), wk =   0.0087464
        k(   36) = (   0.4545686   0.1515229  -0.1515229), wk =   0.0087464
        k(   37) = (  -0.2020305  -0.5050763   0.5050763), wk =   0.0087464
        k(   38) = (  -0.1515229  -0.4545686   0.4545686), wk =   0.0087464
        k(   39) = (  -0.1010153  -0.4040610   0.4040610), wk =   0.0087464
        k(   40) = (  -0.0505076  -0.3535534   0.3535534), wk =   0.0087464
        k(   41) = (   0.0000000  -0.3030458   0.3030458), wk =   0.0043732
        k(   42) = (   0.4040610   0.0000000   0.0000000), wk =   0.0021866
        k(   43) = (   0.4545686   0.0505076  -0.0505076), wk =   0.0087464
        k(   44) = (   0.5050763   0.1010153  -0.1010153), wk =   0.0087464
        k(   45) = (  -0.1515229  -0.5555839   0.5555839), wk =   0.0087464
        k(   46) = (  -0.1010153  -0.5050763   0.5050763), wk =   0.0087464
        k(   47) = (  -0.0505076  -0.4545686   0.4545686), wk =   0.0087464
        k(   48) = (   0.0000000  -0.4040610   0.4040610), wk =   0.0043732
        k(   49) = (   0.5050763   0.0000000   0.0000000), wk =   0.0021866
        k(   50) = (   0.5555839   0.0505076  -0.0505076), wk =   0.0087464
        k(   51) = (  -0.1010153  -0.6060915   0.6060915), wk =   0.0087464
        k(   52) = (  -0.0505076  -0.5555839   0.5555839), wk =   0.0087464
        k(   53) = (   0.0000000  -0.5050763   0.5050763), wk =   0.0043732
        k(   54) = (   0.6060915   0.0000000   0.0000000), wk =   0.0021866
        k(   55) = (  -0.0505076  -0.6565992   0.6565992), wk =   0.0087464
        k(   56) = (   0.0000000  -0.6060915   0.6060915), wk =   0.0043732
        k(   57) = (  -0.7071068   0.0000000   0.0000000), wk =   0.0010933
        k(   58) = (   0.2020305   0.1010153   0.0000000), wk =   0.0087464
        k(   59) = (   0.2525381   0.1515229  -0.0505076), wk =   0.0174927
        k(   60) = (   0.3030458   0.2020305  -0.1010153), wk =   0.0174927
        k(   61) = (   0.3535534   0.2525381  -0.1515229), wk =   0.0174927
        k(   62) = (  -0.3030458  -0.4040610   0.5050763), wk =   0.0174927
        k(   63) = (  -0.2525381  -0.3535534   0.4545686), wk =   0.0087464
        k(   64) = (   0.3030458   0.1010153   0.0000000), wk =   0.0087464
        k(   65) = (   0.3535534   0.1515229  -0.0505076), wk =   0.0174927
        k(   66) = (   0.4040610   0.2020305  -0.1010153), wk =   0.0174927
        k(   67) = (  -0.2525381  -0.4545686   0.5555839), wk =   0.0174927
        k(   68) = (  -0.2020305  -0.4040610   0.5050763), wk =   0.0174927
        k(   69) = (  -0.1515229  -0.3535534   0.4545686), wk =   0.0174927
        k(   70) = (  -0.1010153  -0.3030458   0.4040610), wk =   0.0174927
        k(   71) = (  -0.0505076  -0.2525381   0.3535534), wk =   0.0174927
        k(   72) = (  -0.0000000  -0.2020305   0.3030458), wk =   0.0087464
        k(   73) = (   0.4040610   0.1010153   0.0000000), wk =   0.0087464
        k(   74) = (   0.4545686   0.1515229  -0.0505076), wk =   0.0174927
        k(   75) = (  -0.2020305  -0.5050763   0.6060915), wk =   0.0174927
        k(   76) = (  -0.1515229  -0.4545686   0.5555839), wk =   0.0174927
        k(   77) = (  -0.1010153  -0.4040610   0.5050763), wk =   0.0174927
        k(   78) = (  -0.0505076  -0.3535534   0.4545686), wk =   0.0174927
        k(   79) = (   0.0000000  -0.3030458   0.4040610), wk =   0.0087464
        k(   80) = (   0.5050763   0.1010153   0.0000000), wk =   0.0087464
        k(   81) = (  -0.1515229  -0.5555839   0.6565992), wk =   0.0174927
        k(   82) = (  -0.1010153  -0.5050763   0.6060915), wk =   0.0174927
        k(   83) = (  -0.0505076  -0.4545686   0.5555839), wk =   0.0174927
        k(   84) = (   0.0000000  -0.4040610   0.5050763), wk =   0.0087464
        k(   85) = (  -0.1010153  -0.6060915   0.7071068), wk =   0.0087464
        k(   86) = (  -0.0505076  -0.5555839   0.6565992), wk =   0.0174927
        k(   87) = (   0.0000000  -0.5050763   0.6060915), wk =   0.0087464
        k(   88) = (  -0.7071068   0.1010153   0.0000000), wk =   0.0043732
        k(   89) = (   0.4040610   0.2020305   0.0000000), wk =   0.0087464
        k(   90) = (  -0.2525381  -0.4545686   0.6565992), wk =   0.0174927
        k(   91) = (  -0.2020305  -0.4040610   0.6060915), wk =   0.0174927
        k(   92) = (  -0.1515229  -0.3535534   0.5555839), wk =   0.0087464
        k(   93) = (  -0.2020305  -0.5050763   0.7071068), wk =   0.0087464
        k(   94) = (  -0.1515229  -0.4545686   0.6565992), wk =   0.0174927
        k(   95) = (  -0.1010153  -0.4040610   0.6060915), wk =   0.0174927
        k(   96) = (  -0.0505076  -0.3535534   0.5555839), wk =   0.0174927
        k(   97) = (   0.0000000  -0.3030458   0.5050763), wk =   0.0087464
        k(   98) = (  -0.1010153  -0.5050763   0.7071068), wk =   0.0087464
        k(   99) = (  -0.0505076  -0.4545686   0.6565992), wk =   0.0174927
        k(  100) = (   0.0000000  -0.4040610   0.6060915), wk =   0.0087464
        k(  101) = (  -0.7071068   0.2020305  -0.0000000), wk =   0.0043732
        k(  102) = (  -0.1010153  -0.4040610   0.7071068), wk =   0.0087464
        k(  103) = (  -0.0505076  -0.3535534   0.6565992), wk =   0.0087464
        k(  104) = (  -0.7071068   0.3030458   0.0000000), wk =   0.0043732

                       cryst. coord.
        k(    1) = (   0.0000000   0.0000000   0.0000000), wk =   0.0003644
        k(    2) = (   0.0000000   0.0000000   0.0714286), wk =   0.0029155
        k(    3) = (   0.0000000   0.0000000   0.1428571), wk =   0.0029155
        k(    4) = (   0.0000000   0.0000000   0.2142857), wk =   0.0029155
        k(    5) = (   0.0000000   0.0000000   0.2857143), wk =   0.0029155
        k(    6) = (   0.0000000   0.0000000   0.3571429), wk =   0.0029155
        k(    7) = (   0.0000000   0.0000000   0.4285714), wk =   0.0029155
        k(    8) = (   0.0000000   0.0000000  -0.5000000), wk =   0.0014577
        k(    9) = (   0.0000000   0.0714286   0.0714286), wk =   0.0021866
        k(   10) = (   0.0000000   0.0714286   0.1428571), wk =   0.0087464
        k(   11) = (   0.0000000   0.0714286   0.2142857), wk =   0.0087464
        k(   12) = (   0.0000000   0.0714286   0.2857143), wk =   0.0087464
        k(   13) = (   0.0000000   0.0714286   0.3571429), wk =   0.0087464
        k(   14) = (   0.0000000   0.0714286   0.4285714), wk =   0.0087464
        k(   15) = (   0.0000000   0.0714286  -0.5000000), wk =   0.0087464
        k(   16) = (   0.0000000   0.0714286  -0.4285714), wk =   0.0087464
        k(   17) = (   0.0000000   0.0714286  -0.3571429), wk =   0.0087464
        k(   18) = (   0.0000000   0.0714286  -0.2857143), wk =   0.0087464
        k(   19) = (   0.0000000   0.0714286  -0.2142857), wk =   0.0087464
        k(   20) = (   0.0000000   0.0714286  -0.1428571), wk =   0.0087464
        k(   21) = (   0.0000000   0.0714286  -0.0714286), wk =   0.0043732
        k(   22) = (   0.0000000   0.1428571   0.1428571), wk =   0.0021866
        k(   23) = (   0.0000000   0.1428571   0.2142857), wk =   0.0087464
        k(   24) = (   0.0000000   0.1428571   0.2857143), wk =   0.0087464
        k(   25) = (   0.0000000   0.1428571   0.3571429), wk =   0.0087464
        k(   26) = (   0.0000000   0.1428571   0.4285714), wk =   0.0087464
        k(   27) = (   0.0000000   0.1428571  -0.5000000), wk =   0.0087464
        k(   28) = (   0.0000000   0.1428571  -0.4285714), wk =   0.0087464
        k(   29) = (   0.0000000   0.1428571  -0.3571429), wk =   0.0087464
        k(   30) = (   0.0000000   0.1428571  -0.2857143), wk =   0.0087464
        k(   31) = (   0.0000000   0.1428571  -0.2142857), wk =   0.0087464
        k(   32) = (   0.0000000   0.1428571  -0.1428571), wk =   0.0043732
        k(   33) = (   0.0000000   0.2142857   0.2142857), wk =   0.0021866
        k(   34) = (   0.0000000   0.2142857   0.2857143), wk =   0.0087464
        k(   35) = (   0.0000000   0.2142857   0.3571429), wk =   0.0087464
        k(   36) = (   0.0000000   0.2142857   0.4285714), wk =   0.0087464
        k(   37) = (   0.0000000   0.2142857  -0.5000000), wk =   0.0087464
        k(   38) = (   0.0000000   0.2142857  -0.4285714), wk =   0.0087464
        k(   39) = (   0.0000000   0.2142857  -0.3571429), wk =   0.0087464
        k(   40) = (   0.0000000   0.2142857  -0.2857143), wk =   0.0087464
        k(   41) = (   0.0000000   0.2142857  -0.2142857), wk =   0.0043732
        k(   42) = (   0.0000000   0.2857143   0.2857143), wk =   0.0021866
        k(   43) = (   0.0000000   0.2857143   0.3571429), wk =   0.0087464
        k(   44) = (   0.0000000   0.2857143   0.4285714), wk =   0.0087464
        k(   45) = (   0.0000000   0.2857143  -0.5000000), wk =   0.0087464
        k(   46) = (   0.0000000   0.2857143  -0.4285714), wk =   0.0087464
        k(   47) = (   0.0000000   0.2857143  -0.3571429), wk =   0.0087464
        k(   48) = (   0.0000000   0.2857143  -0.2857143), wk =   0.0043732
        k(   49) = (   0.0000000   0.3571429   0.3571429), wk =   0.0021866
        k(   50) = (   0.0000000   0.3571429   0.4285714), wk =   0.0087464
        k(   51) = (   0.0000000   0.3571429  -0.5000000), wk =   0.0087464
        k(   52) = (   0.0000000   0.3571429  -0.4285714), wk =   0.0087464
        k(   53) = (   0.0000000   0.3571429  -0.3571429), wk =   0.0043732
        k(   54) = (   0.0000000   0.4285714   0.4285714), wk =   0.0021866
        k(   55) = (   0.0000000   0.4285714  -0.5000000), wk =   0.0087464
        k(   56) = (   0.0000000   0.4285714  -0.4285714), wk =   0.0043732
        k(   57) = (   0.0000000  -0.5000000  -0.5000000), wk =   0.0010933
        k(   58) = (   0.0714286   0.1428571   0.2142857), wk =   0.0087464
        k(   59) = (   0.0714286   0.1428571   0.2857143), wk =   0.0174927
        k(   60) = (   0.0714286   0.1428571   0.3571429), wk =   0.0174927
        k(   61) = (   0.0714286   0.1428571   0.4285714), wk =   0.0174927
        k(   62) = (   0.0714286   0.1428571  -0.5000000), wk =   0.0174927
        k(   63) = (   0.0714286   0.1428571  -0.4285714), wk =   0.0087464
        k(   64) = (   0.0714286   0.2142857   0.2857143), wk =   0.0087464
        k(   65) = (   0.0714286   0.2142857   0.3571429), wk =   0.0174927
        k(   66) = (   0.0714286   0.2142857   0.4285714), wk =   0.0174927
        k(   67) = (   0.0714286   0.2142857  -0.5000000), wk =   0.0174927
        k(   68) = (   0.0714286   0.2142857  -0.4285714), wk =   0.0174927
        k(   69) = (   0.0714286   0.2142857  -0.3571429), wk =   0.0174927
        k(   70) = (   0.0714286   0.2142857  -0.2857143), wk =   0.0174927
        k(   71) = (   0.0714286   0.2142857  -0.2142857), wk =   0.0174927
        k(   72) = (   0.0714286   0.2142857  -0.1428571), wk =   0.0087464
        k(   73) = (   0.0714286   0.2857143   0.3571429), wk =   0.0087464
        k(   74) = (   0.0714286   0.2857143   0.4285714), wk =   0.0174927
        k(   75) = (   0.0714286   0.2857143  -0.5000000), wk =   0.0174927
        k(   76) = (   0.0714286   0.2857143  -0.4285714), wk =   0.0174927
        k(   77) = (   0.0714286   0.2857143  -0.3571429), wk =   0.0174927
        k(   78) = (   0.0714286   0.2857143  -0.2857143), wk =   0.0174927
        k(   79) = (   0.0714286   0.2857143  -0.2142857), wk =   0.0087464
        k(   80) = (   0.0714286   0.3571429   0.4285714), wk =   0.0087464
        k(   81) = (   0.0714286   0.3571429  -0.5000000), wk =   0.0174927
        k(   82) = (   0.0714286   0.3571429  -0.4285714), wk =   0.0174927
        k(   83) = (   0.0714286   0.3571429  -0.3571429), wk =   0.0174927
        k(   84) = (   0.0714286   0.3571429  -0.2857143), wk =   0.0087464
        k(   85) = (   0.0714286   0.4285714  -0.5000000), wk =   0.0087464
        k(   86) = (   0.0714286   0.4285714  -0.4285714), wk =   0.0174927
        k(   87) = (   0.0714286   0.4285714  -0.3571429), wk =   0.0087464
        k(   88) = (   0.0714286  -0.5000000  -0.4285714), wk =   0.0043732
        k(   89) = (   0.1428571   0.2857143   0.4285714), wk =   0.0087464
        k(   90) = (   0.1428571   0.2857143  -0.5000000), wk =   0.0174927
        k(   91) = (   0.1428571   0.2857143  -0.4285714), wk =   0.0174927
        k(   92) = (   0.1428571   0.2857143  -0.3571429), wk =   0.0087464
        k(   93) = (   0.1428571   0.3571429  -0.5000000), wk =   0.0087464
        k(   94) = (   0.1428571   0.3571429  -0.4285714), wk =   0.0174927
        k(   95) = (   0.1428571   0.3571429  -0.3571429), wk =   0.0174927
        k(   96) = (   0.1428571   0.3571429  -0.2857143), wk =   0.0174927
        k(   97) = (   0.1428571   0.3571429  -0.2142857), wk =   0.0087464
        k(   98) = (   0.1428571   0.4285714  -0.4285714), wk =   0.0087464
        k(   99) = (   0.1428571   0.4285714  -0.3571429), wk =   0.0174927
        k(  100) = (   0.1428571   0.4285714  -0.2857143), wk =   0.0087464
        k(  101) = (   0.1428571  -0.5000000  -0.3571429), wk =   0.0043732
        k(  102) = (   0.2142857   0.4285714  -0.3571429), wk =   0.0087464
        k(  103) = (   0.2142857   0.4285714  -0.2857143), wk =   0.0087464
        k(  104) = (   0.2142857  -0.5000000  -0.2857143), wk =   0.0043732

     Dense  grid:   160549 G-vectors     FFT dimensions: (  75,  75,  75)

     Smooth grid:    87555 G-vectors     FFT dimensions: (  64,  64,  64)

     Dynamical RAM for                 wfc:       2.11 MB

     Dynamical RAM for     wfc (w. buffer):       2.11 MB

     Dynamical RAM for           str. fact:       0.82 MB

     Dynamical RAM for           local pot:       0.00 MB

     Dynamical RAM for          nlocal pot:       1.89 MB

     Dynamical RAM for                qrad:      11.28 MB

     Dynamical RAM for          rho,v,vnew:      11.59 MB

     Dynamical RAM for           G-vectors:       1.64 MB

     Dynamical RAM for          h,s,v(r/c):       0.26 MB

     Dynamical RAM for          <psi|beta>:       0.08 MB

     Dynamical RAM for                 psi:       4.22 MB

     Dynamical RAM for                hpsi:       4.22 MB

     Dynamical RAM for                spsi:       4.22 MB

     Dynamical RAM for      wfcinit/wfcrot:       3.20 MB

     Dynamical RAM for           addusdens:     249.47 MB

     Estimated static dynamical RAM per process >      35.01 MB

     Estimated max dynamical RAM per process >     284.48 MB

     Estimated total dynamical RAM >       1.67 GB

     The potential is recalculated from file :
     /home/User/opencode_workspace/DFT/calculations/hgte/production_dos_soc/out/pwscf.save/charge-density

     Starting wfcs are   28 randomized atomic wfcs +   10 random wfcs

     Band Structure Calculation
     Davidson diagonalization with overlap

     Computing kpt #:     1  of   104
     total cpu time spent up to now is       15.8 secs

     Computing kpt #:     2  of   104
     total cpu time spent up to now is       27.5 secs

     Computing kpt #:     3  of   104
     total cpu time spent up to now is       38.2 secs

     Computing kpt #:     4  of   104
     total cpu time spent up to now is       48.6 secs

     Computing kpt #:     5  of   104
     total cpu time spent up to now is       59.4 secs

     Computing kpt #:     6  of   104
     total cpu time spent up to now is       69.2 secs

     Computing kpt #:     7  of   104
     total cpu time spent up to now is       80.2 secs

     Computing kpt #:     8  of   104
     total cpu time spent up to now is       89.3 secs

     Computing kpt #:     9  of   104
     total cpu time spent up to now is       98.4 secs

     Computing kpt #:    10  of   104
     total cpu time spent up to now is      107.2 secs

     Computing kpt #:    11  of   104
     total cpu time spent up to now is      116.1 secs

     Computing kpt #:    12  of   104
     total cpu time spent up to now is      125.1 secs

     Computing kpt #:    13  of   104
     total cpu time spent up to now is      133.8 secs

     Computing kpt #:    14  of   104
     total cpu time spent up to now is      143.2 secs

     Computing kpt #:    15  of   104
     total cpu time spent up to now is      153.2 secs

     Computing kpt #:    16  of   104
     total cpu time spent up to now is      162.6 secs

     Computing kpt #:    17  of   104
     total cpu time spent up to now is      171.3 secs

     Computing kpt #:    18  of   104
     total cpu time spent up to now is      180.2 secs

     Computing kpt #:    19  of   104
     total cpu time spent up to now is      189.4 secs

     Computing kpt #:    20  of   104
     total cpu time spent up to now is      198.9 secs

     Computing kpt #:    21  of   104
     total cpu time spent up to now is      208.2 secs

     Computing kpt #:    22  of   104
     total cpu time spent up to now is      215.5 secs

     Computing kpt #:    23  of   104
     total cpu time spent up to now is      224.0 secs

     Computing kpt #:    24  of   104
     total cpu time spent up to now is      232.9 secs

     Computing kpt #:    25  of   104
     total cpu time spent up to now is      241.8 secs

     Computing kpt #:    26  of   104
     total cpu time spent up to now is      250.7 secs

     Computing kpt #:    27  of   104
     total cpu time spent up to now is      261.5 secs

     Computing kpt #:    28  of   104
     total cpu time spent up to now is      272.9 secs

     Computing kpt #:    29  of   104
     total cpu time spent up to now is      283.1 secs

     Computing kpt #:    30  of   104
     total cpu time spent up to now is      292.9 secs

     Computing kpt #:    31  of   104
     total cpu time spent up to now is      302.8 secs

     Computing kpt #:    32  of   104
     total cpu time spent up to now is      312.2 secs

     Computing kpt #:    33  of   104
     total cpu time spent up to now is      321.6 secs

     Computing kpt #:    34  of   104
     total cpu time spent up to now is      331.8 secs

     Computing kpt #:    35  of   104
     total cpu time spent up to now is      341.9 secs

     Computing kpt #:    36  of   104
     total cpu time spent up to now is      351.7 secs

     Computing kpt #:    37  of   104
     total cpu time spent up to now is      362.8 secs

     Computing kpt #:    38  of   104
     total cpu time spent up to now is      372.8 secs

     Computing kpt #:    39  of   104
     total cpu time spent up to now is      382.7 secs

     Computing kpt #:    40  of   104
     total cpu time spent up to now is      393.2 secs

     Computing kpt #:    41  of   104
     total cpu time spent up to now is      404.3 secs

     Computing kpt #:    42  of   104
     total cpu time spent up to now is      413.6 secs

     Computing kpt #:    43  of   104
     total cpu time spent up to now is      423.6 secs

     Computing kpt #:    44  of   104
     total cpu time spent up to now is      433.6 secs

     Computing kpt #:    45  of   104
     total cpu time spent up to now is      444.6 secs

     Computing kpt #:    46  of   104
     total cpu time spent up to now is      454.9 secs

     Computing kpt #:    47  of   104
     total cpu time spent up to now is      463.9 secs

     Computing kpt #:    48  of   104
     total cpu time spent up to now is      472.4 secs

     Computing kpt #:    49  of   104
     total cpu time spent up to now is      482.1 secs

     Computing kpt #:    50  of   104
     total cpu time spent up to now is      492.9 secs

     Computing kpt #:    51  of   104
     total cpu time spent up to now is      504.0 secs

     Computing kpt #:    52  of   104
     total cpu time spent up to now is      514.2 secs

     Computing kpt #:    53  of   104
     total cpu time spent up to now is      523.9 secs

     Computing kpt #:    54  of   104
     total cpu time spent up to now is      534.0 secs

     Computing kpt #:    55  of   104
     total cpu time spent up to now is      544.4 secs

     Computing kpt #:    56  of   104
     total cpu time spent up to now is      554.4 secs

     Computing kpt #:    57  of   104
     total cpu time spent up to now is      566.2 secs

     Computing kpt #:    58  of   104
     total cpu time spent up to now is      576.2 secs

     Computing kpt #:    59  of   104
     total cpu time spent up to now is      586.2 secs

     Computing kpt #:    60  of   104
     total cpu time spent up to now is      596.0 secs

     Computing kpt #:    61  of   104
     total cpu time spent up to now is      605.3 secs

     Computing kpt #:    62  of   104
     total cpu time spent up to now is      615.2 secs

     Computing kpt #:    63  of   104
     total cpu time spent up to now is      625.6 secs

     Computing kpt #:    64  of   104
     total cpu time spent up to now is      635.5 secs

     Computing kpt #:    65  of   104
     total cpu time spent up to now is      646.1 secs

     Computing kpt #:    66  of   104
     total cpu time spent up to now is      656.7 secs

     Computing kpt #:    67  of   104
     total cpu time spent up to now is      667.8 secs

     Computing kpt #:    68  of   104
     total cpu time spent up to now is      677.6 secs

     Computing kpt #:    69  of   104
     total cpu time spent up to now is      687.9 secs

     Computing kpt #:    70  of   104
     total cpu time spent up to now is      697.9 secs

     Computing kpt #:    71  of   104
     total cpu time spent up to now is      708.2 secs

     Computing kpt #:    72  of   104
     total cpu time spent up to now is      718.7 secs

     Computing kpt #:    73  of   104
     total cpu time spent up to now is      729.4 secs

     Computing kpt #:    74  of   104
     total cpu time spent up to now is      742.3 secs

     Computing kpt #:    75  of   104
     total cpu time spent up to now is      754.2 secs

     Computing kpt #:    76  of   104
     total cpu time spent up to now is      765.5 secs

     Computing kpt #:    77  of   104
     total cpu time spent up to now is      777.3 secs

     Computing kpt #:    78  of   104
     total cpu time spent up to now is      786.9 secs

     Computing kpt #:    79  of   104
     total cpu time spent up to now is      797.1 secs

     Computing kpt #:    80  of   104
     total cpu time spent up to now is      807.8 secs

     Computing kpt #:    81  of   104
     total cpu time spent up to now is      818.9 secs

     Computing kpt #:    82  of   104
     total cpu time spent up to now is      829.7 secs

     Computing kpt #:    83  of   104
     total cpu time spent up to now is      839.4 secs

     Computing kpt #:    84  of   104
     total cpu time spent up to now is      848.2 secs

     Computing kpt #:    85  of   104
     total cpu time spent up to now is      861.3 secs

     Computing kpt #:    86  of   104
     total cpu time spent up to now is      874.1 secs

     Computing kpt #:    87  of   104
     total cpu time spent up to now is      883.8 secs

     Computing kpt #:    88  of   104
     total cpu time spent up to now is      894.2 secs

     Computing kpt #:    89  of   104
     total cpu time spent up to now is      905.2 secs

     Computing kpt #:    90  of   104
     total cpu time spent up to now is      916.1 secs

     Computing kpt #:    91  of   104
     total cpu time spent up to now is      927.1 secs

     Computing kpt #:    92  of   104
     total cpu time spent up to now is      936.9 secs

     Computing kpt #:    93  of   104
     total cpu time spent up to now is      947.9 secs

     Computing kpt #:    94  of   104
     total cpu time spent up to now is      958.8 secs

     Computing kpt #:    95  of   104
     total cpu time spent up to now is      968.5 secs

     Computing kpt #:    96  of   104
     total cpu time spent up to now is      977.8 secs

     Computing kpt #:    97  of   104
     total cpu time spent up to now is      988.4 secs

     Computing kpt #:    98  of   104
     total cpu time spent up to now is      999.8 secs

     Computing kpt #:    99  of   104
     total cpu time spent up to now is     1010.8 secs

     Computing kpt #:   100  of   104
     total cpu time spent up to now is     1020.2 secs

     Computing kpt #:   101  of   104
     total cpu time spent up to now is     1031.0 secs

     Computing kpt #:   102  of   104
     total cpu time spent up to now is     1042.3 secs

     Computing kpt #:   103  of   104
     total cpu time spent up to now is     1052.2 secs

     Computing kpt #:   104  of   104
     total cpu time spent up to now is     1062.2 secs

     ethr =  3.85E-13,  avg # of iterations = 55.0

     total cpu time spent up to now is     1063.0 secs

     End of band structure calculation

          k = 0.0000 0.0000 0.0000 ( 10969 PWs)   bands (ev):

  -108.1515-108.1515 -70.1406 -70.1406 -51.8692 -51.8692 -51.8692 -51.8692
    -5.1669  -5.1669  -1.4757  -1.4757  -1.4757  -1.4757  -0.0475  -0.0475
     0.3686   0.3686   0.3686   0.3686   5.4175   5.4175   5.7860   5.7860
     6.5577   6.5577   6.5577   6.5577   9.8033   9.8033  10.9983  10.9983
    10.9983  10.9983  12.8557  12.8557  15.8811  15.8811

     occupation numbers 
     1.0000   1.0000   1.0000   1.0000   1.0000   1.0000   1.0000   1.0000
     1.0000   1.0000   1.0000   1.0000   1.0000   1.0000   1.0000   1.0000
     1.0000   1.0000   1.0000   1.0000   1.0000   1.0000   1.0000   1.0000
     1.0000   1.0000   0.0000   0.0000   0.0000   0.0000   0.0000   0.0000
     0.0000   0.0000   0.0000   0.0000   0.0000   0.0000

          k = 0.0505 0.0505-0.0505 ( 10945 PWs)   bands (ev):

  -108.1515-108.1515 -70.1406 -70.1406 -51.8692 -51.8692 -51.8692 -51.8692
    -5.1452  -5.1452  -1.4835  -1.4669  -1.4669  -1.4653  -0.0404  -0.0404
     0.3564   0.3655   0.3655   0.3914   4.9844   4.9844   5.8788   5.8788
     6.4861   6.5262   6.7190   6.7190   9.8804   9.8804  10.9174  10.9174
    11.0695  11.0726  13.2071  13.2071  15.3976  15.4472

     occupation numbers 
     1.0000   1.0000   1.0000   1.0000   1.0000   1.0000   1.0000   1.0000
     1.0000   1.0000   1.0000   1.0000   1.0000   1.0000   1.0000   1.0000
     1.0000   1.0000   1.0000   1.0000   1.0000   1.0000   1.0000   1.0000
     1.0000   1.0000   0.0000   0.0000   0.0000   0.0000   0.0000   0.0000
     0.0000   0.0000   0.0000   0.0000   0.0000   0.0000

          k = 0.1010 0.1010-0.1010 ( 10948 PWs)   bands (ev):

  -108.1515-108.1515 -70.1406 -70.1406 -51.8692 -51.8692 -51.8692 -51.8692
    -5.0834  -5.0834  -1.4873  -1.4545  -1.4397  -1.4397  -0.0185  -0.0185
     0.3575   0.3583   0.3583   0.4211   4.2744   4.2744   5.8047   5.8047
     6.3341   6.4041   6.9773   6.9773  10.1149  10.1149  10.8910  10.8910
    11.2540  11.2551  13.9115  13.9115  14.9740  15.0406

     occupation numbers 
     1.0000   1.0000   1.0000   1.0000   1.0000   1.0000   1.0000   1.0000
     1.0000   1.0000   1.0000   1.0000   1.0000   1.0000   1.0000   1.0000
     1.0000   1.0000   1.0000   1.0000   1.0000   1.0000   1.0000   1.0000
     1.0000   1.0000   0.0000   0.0000   0.0000   0.0000   0.0000   0.0000
     0.0000   0.0000   0.0000   0.0000   0.0000   0.0000

          k = 0.1515 0.1515-0.1515 ( 10918 PWs)   bands (ev):

  -108.1515-108.1515 -70.1406 -70.1406 -51.8693 -51.8693 -51.8692 -51.8692
    -4.9918  -4.9918  -1.4867  -1.4457  -1.3924  -1.3924   0.0182   0.0182
     0.3541   0.3541   0.3725   0.4528   3.5132   3.5132   5.6383   5.6383
     6.1441   6.2286   7.1008   7.1008  10.4913  10.4913  11.0802  11.0802
    11.4581  11.4623  14.2597  14.2597  14.8013  14.8493

     occupation numbers 
     1.0000   1.0000   1.0000   1.0000   1.0000   1.0000   1.0000   1.0000
     1.0000   1.0000   1.0000   1.0000   1.0000   1.0000   1.0000   1.0000
     1.0000   1.0000   1.0000   1.0000   1.0000   1.0000   1.0000   1.0000
     1.0000   1.0000   0.0000   0.0000   0.0000   0.0000   0.0000   0.0000
     0.0000   0.0000   0.0000   0.0000   0.0000   0.0000

          k = 0.2020 0.2020-0.2020 ( 10936 PWs)   bands (ev):

  -108.1515-108.1515 -70.1406 -70.1406 -51.8693 -51.8693 -51.8692 -51.8692
    -4.8866  -4.8866  -1.4819  -1.4410  -1.3254  -1.3254   0.0653   0.0653
     0.3691   0.3691   0.3993   0.4809   2.7712   2.7712   5.4575   5.4575
     5.9585   6.0410   7.0982   7.0982  10.8314  10.8314  11.5528  11.5528
    11.5927  11.5991  14.1313  14.1313  14.9269  14.9269

     occupation numbers 
     1.0000   1.0000   1.0000   1.0000   1.0000   1.0000   1.0000   1.0000
     1.0000   1.0000   1.0000   1.0000   1.0000   1.0000   1.0000   1.0000
     1.0000   1.0000   1.0000   1.0000   1.0000   1.0000   1.0000   1.0000
     1.0000   1.0000   0.0000   0.0000   0.0000   0.0000   0.0000   0.0000
     0.0000   0.0000   0.0000   0.0000   0.0000   0.0000

          k = 0.2525 0.2525-0.2525 ( 10915 PWs)   bands (ev):

  -108.1515-108.1515 -70.1406 -70.1406 -51.8694 -51.8694 -51.8692 -51.8692
    -4.7886  -4.7886  -1.4740  -1.4412  -1.2471  -1.2471   0.1066   0.1066
     0.4331   0.4355   0.4355   0.4994   2.1005   2.1005   5.3035   5.3035
     5.8102   5.8755   7.0474   7.0474  11.0006  11.0006  11.6355  11.6394
    12.2568  12.2568  13.9671  13.9671  15.2690  15.2690

     occupation numbers 
     1.0000   1.0000   1.0000   1.0000   1.0000   1.0000   1.0000   1.0000
     1.0000   1.0000   1.0000   1.0000   1.0000   1.0000   1.0000   1.0000
     1.0000   1.0000   1.0000   1.0000   1.0000   1.0000   1.0000   1.0000
     1.0000   1.0000   0.0000   0.0000   0.0000   0.0000   0.0000   0.0000
     0.0000   0.0000   0.0000   0.0000   0.0000   0.0000

          k = 0.3030 0.3030-0.3030 ( 10922 PWs)   bands (ev):

  -108.1515-108.1515 -70.1406 -70.1406 -51.8694 -51.8694 -51.8693 -51.8693
    -4.7190  -4.7190  -1.4643  -1.4461  -1.1793  -1.1793   0.1271   0.1271
     0.4666   0.5038   0.5791   0.5791   1.5583   1.5583   5.2014   5.2014
     5.7212   5.7572   7.0015   7.0015  11.0671  11.0671  11.6291  11.6304
    12.8869  12.8869  13.9652  13.9652  15.7547  15.7547

     occupation numbers 
     1.0000   1.0000   1.0000   1.0000   1.0000   1.0000   1.0000   1.0000
     1.0000   1.0000   1.0000   1.0000   1.0000   1.0000   1.0000   1.0000
     1.0000   1.0000   1.0000   1.0000   1.0000   1.0000   1.0000   1.0000
     1.0000   1.0000   0.0000   0.0000   0.0000   0.0000   0.0000   0.0000
     0.0000   0.0000   0.0000   0.0000   0.0000   0.0000

          k =-0.3536-0.3536 0.3536 ( 10958 PWs)   bands (ev):

  -108.1515-108.1515 -70.1406 -70.1406 -51.8694 -51.8694 -51.8693 -51.8693
    -4.6939  -4.6939  -1.4544  -1.4544  -1.1518  -1.1518   0.1319   0.1319
     0.4922   0.4922   0.7031   0.7031   1.2951   1.2951   5.1658   5.1658
     5.7031   5.7031   6.9841   6.9841  11.0835  11.0835  11.6214  11.6214
    13.1055  13.1055  14.0816  14.0816  16.0148  16.0148

     occupation numbers 
     1.0000   1.0000   1.0000   1.0000   1.0000   1.0000   1.0000   1.0000
     1.0000   1.0000   1.0000   1.0000   1.0000   1.0000   1.0000   1.0000
     1.0000   1.0000   1.0000   1.0000   1.0000   1.0000   1.0000   1.0000
     1.0000   1.0000   0.0000   0.0000   0.0000   0.0000   0.0000   0.0000
     0.0000   0.0000   0.0000   0.0000   0.0000   0.0000

          k = 0.1010 0.0000 0.0000 ( 10925 PWs)   bands (ev):

  -108.1515-108.1515 -70.1406 -70.1406 -51.8692 -51.8692 -51.8692 -51.8692
    -5.1379  -5.1379  -1.4770  -1.4770  -1.4609  -1.4609  -0.0381  -0.0381
     0.3551   0.3551   0.3851   0.3851   4.9115   4.9115   5.8388   5.8388
     6.3857   6.3857   6.8877   6.8877   9.8611   9.8611  10.8759  10.8759
    11.1642  11.1642  13.3102  13.3102  14.9509  14.9509

     occupation numbers 
     1.0000   1.0000   1.0000   1.0000   1.0000   1.0000   1.0000   1.0000
     1.0000   1.0000   1.0000   1.0000   1.0000   1.0000   1.0000   1.0000
     1.0000   1.0000   1.0000   1.0000   1.0000   1.0000   1.0000   1.0000
     1.0000   1.0000   0.0000   0.0000   0.0000   0.0000   0.0000   0.0000
     0.0000   0.0000   0.0000   0.0000   0.0000   0.0000

          k = 0.1515 0.0505-0.0505 ( 10939 PWs)   bands (ev):

  -108.1515-108.1515 -70.1406 -70.1406 -51.8692 -51.8692 -51.8692 -51.8692
    -5.0895  -5.0894  -1.4823  -1.4579  -1.4503  -1.4377  -0.0224  -0.0205
     0.3481   0.3534   0.3784   0.4136   4.3888   4.3923   5.7290   5.7573
     6.1999   6.2507   7.1523   7.1972   9.8657  10.0003  10.8342  10.9789
    11.3436  11.3640  13.8650  13.9120  14.5016  14.5222

     occupation numbers 
     1.0000   1.0000   1.0000   1.0000   1.0000   1.0000   1.0000   1.0000
     1.0000   1.0000   1.0000   1.0000   1.0000   1.0000   1.0000   1.0000
     1.0000   1.0000   1.0000   1.0000   1.0000   1.0000   1.0000   1.0000
     1.0000   1.0000   0.0000   0.0000   0.0000   0.0000   0.0000   0.0000
     0.0000   0.0000   0.0000   0.0000   0.0000   0.0000

          k = 0.2020 0.1010-0.1010 ( 10919 PWs)   bands (ev):

  -108.1515-108.1515 -70.1406 -70.1406 -51.8693 -51.8693 -51.8692 -51.8692
    -5.0077  -5.0075  -1.4830  -1.4426  -1.4197  -1.3933   0.0077   0.0128
     0.3401   0.3647   0.3732   0.4461   3.6984   3.7072   5.5532   5.5946
     6.0026   6.0827   7.3206   7.4051  10.0435  10.3074  10.9403  11.2188
    11.5444  11.5899  14.1202  14.1886  14.6030  14.6630

     occupation numbers 
     1.0000   1.0000   1.0000   1.0000   1.0000   1.0000   1.0000   1.0000
     1.0000   1.0000   1.0000   1.0000   1.0000   1.0000   1.0000   1.0000
     1.0000   1.0000   1.0000   1.0000   1.0000   1.0000   1.0000   1.0000
     1.0000   1.0000   0.0000   0.0000   0.0000   0.0000   0.0000   0.0000
     0.0000   0.0000   0.0000   0.0000   0.0000   0.0000

          k = 0.2525 0.1515-0.1515 ( 10923 PWs)   bands (ev):

  -108.1515-108.1515 -70.1406 -70.1406 -51.8693 -51.8693 -51.8692 -51.8692
    -4.9069  -4.9064  -1.4793  -1.4362  -1.3653  -1.3270   0.0507   0.0591
     0.3430   0.3801   0.3899   0.4775   2.9751   2.9927   5.3590   5.4050
     5.8036   5.8910   7.3637   7.4589  10.4187  10.6805  11.2278  11.5164
    11.6972  11.7724  14.1263  14.2037  14.7631  14.8081

     occupation numbers 
     1.0000   1.0000   1.0000   1.0000   1.0000   1.0000   1.0000   1.0000
     1.0000   1.0000   1.0000   1.0000   1.0000   1.0000   1.0000   1.0000
     1.0000   1.0000   1.0000   1.0000   1.0000   1.0000   1.0000   1.0000
     1.0000   1.0000   0.0000   0.0000   0.0000   0.0000   0.0000   0.0000
     0.0000   0.0000   0.0000   0.0000   0.0000   0.0000

          k = 0.3030 0.2020-0.2020 ( 10923 PWs)   bands (ev):

  -108.1515-108.1515 -70.1406 -70.1406 -51.8694 -51.8693 -51.8692 -51.8692
    -4.8064  -4.8054  -1.4721  -1.4346  -1.2973  -1.2444   0.0953   0.1064
     0.3817   0.4166   0.4332   0.5033   2.2910   2.3197   5.1852   5.2333
     5.6369   5.7135   7.3343   7.4242  10.7940  10.8972  11.5936  11.6742
    12.0053  12.0506  14.1568  14.2639  14.9667  14.9787

     occupation numbers 
     1.0000   1.0000   1.0000   1.0000   1.0000   1.0000   1.0000   1.0000
     1.0000   1.0000   1.0000   1.0000   1.0000   1.0000   1.0000   1.0000
     1.0000   1.0000   1.0000   1.0000   1.0000   1.0000   1.0000   1.0000
     1.0000   1.0000   0.0000   0.0000   0.0000   0.0000   0.0000   0.0000
     0.0000   0.0000   0.0000   0.0000   0.0000   0.0000

          k = 0.3536 0.2525-0.2525 ( 10923 PWs)   bands (ev):

  -108.1515-108.1515 -70.1406 -70.1406 -51.8694 -51.8694 -51.8693 -51.8693
    -4.7272  -4.7258  -1.4627  -1.4380  -1.2310  -1.1640   0.1223   0.1361
     0.4539   0.4715   0.5384   0.5483   1.7056   1.7472   5.0549   5.1033
     5.5326   5.5837   7.2891   7.3719  10.9823  10.9963  11.6509  11.6518
    12.5733  12.6682  14.1397  14.2523  15.4513  15.4715

     occupation numbers 
     1.0000   1.0000   1.0000   1.0000   1.0000   1.0000   1.0000   1.0000
     1.0000   1.0000   1.0000   1.0000   1.0000   1.0000   1.0000   1.0000
     1.0000   1.0000   1.0000   1.0000   1.0000   1.0000   1.0000   1.0000
     1.0000   1.0000   0.0000   0.0000   0.0000   0.0000   0.0000   0.0000
     0.0000   0.0000   0.0000   0.0000   0.0000   0.0000

          k =-0.3030-0.4041 0.4041 ( 10906 PWs)   bands (ev):

  -108.1515-108.1515 -70.1406 -70.1406 -51.8694 -51.8694 -51.8693 -51.8693
    -4.6872  -4.6854  -1.4527  -1.4453  -1.1923  -1.1167   0.1302   0.1467
     0.4825   0.4925   0.6690   0.6997   1.3199   1.3767   4.9814   5.0295
     5.5073   5.5243   7.2607   7.3388  11.0194  11.0746  11.6088  11.6239
    12.9973  13.1184  14.1992  14.3068  15.7507  16.0314

     occupation numbers 
     1.0000   1.0000   1.0000   1.0000   1.0000   1.0000   1.0000   1.0000
     1.0000   1.0000   1.0000   1.0000   1.0000   1.0000   1.0000   1.0000
     1.0000   1.0000   1.0000   1.0000   1.0000   1.0000   1.0000   1.0000
     1.0000   1.0000   0.0000   0.0000   0.0000   0.0000   0.0000   0.0000
     0.0000   0.0000   0.0000   0.0000   0.0000   0.0000

          k =-0.2525-0.3536 0.3536 ( 10919 PWs)   bands (ev):

  -108.1515-108.1515 -70.1406 -70.1406 -51.8694 -51.8694 -51.8693 -51.8693
    -4.6956  -4.6938  -1.4550  -1.4437  -1.2008  -1.1265   0.1280   0.1462
     0.4740   0.4958   0.6217   0.6564   1.4109   1.4680   4.9726   5.0218
     5.5453   5.5627   7.2611   7.3385  11.0373  11.0910  11.5878  11.6032
    12.9125  13.0283  14.1931  14.2966  15.7003  15.7283

     occupation numbers 
     1.0000   1.0000   1.0000   1.0000   1.0000   1.0000   1.0000   1.0000
     1.0000   1.0000   1.0000   1.0000   1.0000   1.0000   1.0000   1.0000
     1.0000   1.0000   1.0000   1.0000   1.0000   1.0000   1.0000   1.0000
     1.0000   1.0000   0.0000   0.0000   0.0000   0.0000   0.0000   0.0000
     0.0000   0.0000   0.0000   0.0000   0.0000   0.0000

          k =-0.2020-0.3030 0.3030 ( 10911 PWs)   bands (ev):

  -108.1515-108.1515 -70.1406 -70.1406 -51.8694 -51.8694 -51.8693 -51.8693
    -4.7504  -4.7490  -1.4652  -1.4376  -1.2518  -1.1880   0.1137   0.1322
     0.4391   0.4664   0.4680   0.5296   1.8821   1.9277   5.0328   5.0851
     5.6428   5.6880   7.2876   7.3682  11.0242  11.0314  11.5873  11.6006
    12.3769  12.4391  14.1878  14.2976  15.1169  15.1661

     occupation numbers 
     1.0000   1.0000   1.0000   1.0000   1.0000   1.0000   1.0000   1.0000
     1.0000   1.0000   1.0000   1.0000   1.0000   1.0000   1.0000   1.0000
     1.0000   1.0000   1.0000   1.0000   1.0000   1.0000   1.0000   1.0000
     1.0000   1.0000   0.0000   0.0000   0.0000   0.0000   0.0000   0.0000
     0.0000   0.0000   0.0000   0.0000   0.0000   0.0000

          k =-0.1515-0.2525 0.2525 ( 10912 PWs)   bands (ev):

  -108.1515-108.1515 -70.1406 -70.1406 -51.8693 -51.8693 -51.8692 -51.8692
    -4.8391  -4.8382  -1.4743  -1.4360  -1.3210  -1.2718   0.0793   0.0958
     0.3713   0.3921   0.4124   0.4972   2.5061   2.5404   5.1612   5.2166
     5.8005   5.8628   7.3207   7.4075  10.8187  10.9447  11.5009  11.5155
    11.7756  11.8612  14.2816  14.3947  14.6597  14.7203

     occupation numbers 
     1.0000   1.0000   1.0000   1.0000   1.0000   1.0000   1.0000   1.0000
     1.0000   1.0000   1.0000   1.0000   1.0000   1.0000   1.0000   1.0000
     1.0000   1.0000   1.0000   1.0000   1.0000   1.0000   1.0000   1.0000
     1.0000   1.0000   0.0000   0.0000   0.0000   0.0000   0.0000   0.0000
     0.0000   0.0000   0.0000   0.0000   0.0000   0.0000

          k =-0.1010-0.2020 0.2020 ( 10930 PWs)   bands (ev):

  -108.1515-108.1515 -70.1406 -70.1406 -51.8693 -51.8693 -51.8692 -51.8692
    -4.9420  -4.9416  -1.4809  -1.4394  -1.3849  -1.3502   0.0339   0.0455
     0.3458   0.3654   0.3815   0.4691   3.2067   3.2304   5.3485   5.4051
     5.9918   6.0589   7.3163   7.4061  10.4235  10.7351  11.0289  11.2127
    11.5960  11.6834  14.3850  14.4475  14.5025  14.5322

     occupation numbers 
     1.0000   1.0000   1.0000   1.0000   1.0000   1.0000   1.0000   1.0000
     1.0000   1.0000   1.0000   1.0000   1.0000   1.0000   1.0000   1.0000
     1.0000   1.0000   1.0000   1.0000   1.0000   1.0000   1.0000   1.0000
     1.0000   1.0000   0.0000   0.0000   0.0000   0.0000   0.0000   0.0000
     0.0000   0.0000   0.0000   0.0000   0.0000   0.0000

          k =-0.0505-0.1515 0.1515 ( 10931 PWs)   bands (ev):

  -108.1515-108.1515 -70.1406 -70.1406 -51.8693 -51.8693 -51.8692 -51.8692
    -5.0383  -5.0381  -1.4842  -1.4472  -1.4320  -1.4096  -0.0046   0.0016
     0.3468   0.3615   0.3649   0.4375   3.9213   3.9355   5.5721   5.6257
     6.1847   6.2438   7.2076   7.2824  10.0688  10.3418  10.8055  10.9832
    11.4256  11.5023  14.2645  14.3597  14.5553  14.6234

     occupation numbers 
     1.0000   1.0000   1.0000   1.0000   1.0000   1.0000   1.0000   1.0000
     1.0000   1.0000   1.0000   1.0000   1.0000   1.0000   1.0000   1.0000
     1.0000   1.0000   1.0000   1.0000   1.0000   1.0000   1.0000   1.0000
     1.0000   1.0000   0.0000   0.0000   0.0000   0.0000   0.0000   0.0000
     0.0000   0.0000   0.0000   0.0000   0.0000   0.0000

          k = 0.0000-0.1010 0.1010 ( 10955 PWs)   bands (ev):

  -108.1515-108.1515 -70.1406 -70.1406 -51.8692 -51.8692 -51.8692 -51.8692
    -5.1101  -5.1101  -1.4844  -1.4595  -1.4574  -1.4473  -0.0294  -0.0273
     0.3540   0.3555   0.3695   0.4084   4.5652   4.5718   5.7817   5.8199
     6.3546   6.3988   6.9641   6.9985   9.9111  10.0396  10.8019  10.8903
    11.2140  11.2570  13.6471  13.6944  14.8977  14.9631

     occupation numbers 
     1.0000   1.0000   1.0000   1.0000   1.0000   1.0000   1.0000   1.0000
     1.0000   1.0000   1.0000   1.0000   1.0000   1.0000   1.0000   1.0000
     1.0000   1.0000   1.0000   1.0000   1.0000   1.0000   1.0000   1.0000
     1.0000   1.0000   0.0000   0.0000   0.0000   0.0000   0.0000   0.0000
     0.0000   0.0000   0.0000   0.0000   0.0000   0.0000

          k = 0.2020 0.0000 0.0000 ( 10926 PWs)   bands (ev):

  -108.1515-108.1515 -70.1406 -70.1406 -51.8692 -51.8692 -51.8692 -51.8692
    -5.0554  -5.0554  -1.4672  -1.4672  -1.4301  -1.4301  -0.0107  -0.0107
     0.3449   0.3449   0.4075   0.4075   4.1795   4.1795   5.5889   5.5889
     5.9778   5.9778   7.5137   7.5137   9.7164   9.7164  11.0997  11.0997
    11.6161  11.6161  13.8828  13.8828  14.3931  14.3931

     occupation numbers 
     1.0000   1.0000   1.0000   1.0000   1.0000   1.0000   1.0000   1.0000
     1.0000   1.0000   1.0000   1.0000   1.0000   1.0000   1.0000   1.0000
     1.0000   1.0000   1.0000   1.0000   1.0000   1.0000   1.0000   1.0000
     1.0000   1.0000   0.0000   0.0000   0.0000   0.0000   0.0000   0.0000
     0.0000   0.0000   0.0000   0.0000   0.0000   0.0000

          k = 0.2525 0.0505-0.0505 ( 10942 PWs)   bands (ev):

  -108.1515-108.1515 -70.1406 -70.1406 -51.8693 -51.8693 -51.8692 -51.8692
    -4.9869  -4.9866  -1.4704  -1.4417  -1.4183  -1.3887   0.0124   0.0167
     0.3337   0.3548   0.4026   0.4424   3.6938   3.7016   5.3777   5.4225
     5.7213   5.7864   7.7207   7.8142   9.6097   9.7885  11.2846  11.4499
    11.8532  11.8987  13.6451  13.6823  14.9587  15.0108

     occupation numbers 
     1.0000   1.0000   1.0000   1.0000   1.0000   1.0000   1.0000   1.0000
     1.0000   1.0000   1.0000   1.0000   1.0000   1.0000   1.0000   1.0000
     1.0000   1.0000   1.0000   1.0000   1.0000   1.0000   1.0000   1.0000
     1.0000   1.0000   0.0000   0.0000   0.0000   0.0000   0.0000   0.0000
     0.0000   0.0000   0.0000   0.0000   0.0000   0.0000

          k = 0.3030 0.1010-0.1010 ( 10923 PWs)   bands (ev):

  -108.1515-108.1515 -70.1406 -70.1406 -51.8693 -51.8693 -51.8692 -51.8692
    -4.8957  -4.8950  -1.4684  -1.4214  -1.3881  -1.3246   0.0500   0.0584
     0.3268   0.3796   0.4057   0.4785   3.0808   3.1030   5.1487   5.2170
     5.4920   5.5887   7.8206   7.9767   9.8054  10.0665  11.4834  11.7025
    11.9842  12.0750  13.7911  13.8247  15.3269  15.4226

     occupation numbers 
     1.0000   1.0000   1.0000   1.0000   1.0000   1.0000   1.0000   1.0000
     1.0000   1.0000   1.0000   1.0000   1.0000   1.0000   1.0000   1.0000
     1.0000   1.0000   1.0000   1.0000   1.0000   1.0000   1.0000   1.0000
     1.0000   1.0000   0.0000   0.0000   0.0000   0.0000   0.0000   0.0000
     0.0000   0.0000   0.0000   0.0000   0.0000   0.0000

          k = 0.3536 0.1515-0.1515 ( 10907 PWs)   bands (ev):

  -108.1515-108.1515 -70.1406 -70.1406 -51.8694 -51.8693 -51.8693 -51.8693
    -4.7991  -4.7975  -1.4623  -1.4160  -1.3341  -1.2412   0.0968   0.1068
     0.3411   0.4119   0.4402   0.5116   2.4457   2.4889   4.9279   4.9975
     5.3200   5.4079   7.8392   8.0025  10.2291  10.4275  11.6988  11.7975
    12.0733  12.1487  14.2204  14.2762  15.3735  15.4268

     occupation numbers 
     1.0000   1.0000   1.0000   1.0000   1.0000   1.0000   1.0000   1.0000
     1.0000   1.0000   1.0000   1.0000   1.0000   1.0000   1.0000   1.0000
     1.0000   1.0000   1.0000   1.0000   1.0000   1.0000   1.0000   1.0000
     1.0000   1.0000   0.0000   0.0000   0.0000   0.0000   0.0000   0.0000
     0.0000   0.0000   0.0000   0.0000   0.0000   0.0000

          k = 0.4041 0.2020-0.2020 ( 10913 PWs)   bands (ev):

  -108.1515-108.1515 -70.1406 -70.1406 -51.8694 -51.8694 -51.8693 -51.8693
    -4.7167  -4.7142  -1.4536  -1.4172  -1.2756  -1.1531   0.1330   0.1453
     0.4033   0.4433   0.5367   0.5461   1.8638   1.9330   4.7340   4.7965
     5.2327   5.2881   7.8162   7.9681  10.6411  10.6847  11.8612  11.9010
    12.2389  12.3429  14.5329  14.7272  15.5224  15.5554

     occupation numbers 
     1.0000   1.0000   1.0000   1.0000   1.0000   1.0000   1.0000   1.0000
     1.0000   1.0000   1.0000   1.0000   1.0000   1.0000   1.0000   1.0000
     1.0000   1.0000   1.0000   1.0000   1.0000   1.0000   1.0000   1.0000
     1.0000   1.0000   0.0000   0.0000   0.0000   0.0000   0.0000   0.0000
     0.0000   0.0000   0.0000   0.0000   0.0000   0.0000

          k =-0.2525-0.4546 0.4546 ( 10913 PWs)   bands (ev):

  -108.1515-108.1515 -70.1406 -70.1406 -51.8694 -51.8694 -51.8693 -51.8693
    -4.6665  -4.6632  -1.4438  -1.4232  -1.2335  -1.0890   0.1456   0.1651
     0.4717   0.4723   0.6279   0.6806   1.4194   1.5214   4.5851   4.6457
     5.2356   5.2535   7.7871   7.9304  10.8097  10.8700  11.8315  11.8767
    12.6466  12.8384  14.5246  14.8423  15.7067  15.8199

     occupation numbers 
     1.0000   1.0000   1.0000   1.0000   1.0000   1.0000   1.0000   1.0000
     1.0000   1.0000   1.0000   1.0000   1.0000   1.0000   1.0000   1.0000
     1.0000   1.0000   1.0000   1.0000   1.0000   1.0000   1.0000   1.0000
     1.0000   1.0000   0.0000   0.0000   0.0000   0.0000   0.0000   0.0000
     0.0000   0.0000   0.0000   0.0000   0.0000   0.0000

          k =-0.2020-0.4041 0.4041 ( 10920 PWs)   bands (ev):

  -108.1515-108.1515 -70.1406 -70.1406 -51.8694 -51.8694 -51.8693 -51.8693
    -4.6598  -4.6563  -1.4347  -1.4327  -1.2274  -1.0776   0.1445   0.1719
     0.4766   0.4877   0.6557   0.7143   1.3286   1.4550   4.5020   4.5685
     5.3069   5.3221   7.7705   7.9128  10.8940  10.9849  11.7432  11.7880
    12.8169  13.0228  14.5022  14.8713  15.6489  15.6586

     occupation numbers 
     1.0000   1.0000   1.0000   1.0000   1.0000   1.0000   1.0000   1.0000
     1.0000   1.0000   1.0000   1.0000   1.0000   1.0000   1.0000   1.0000
     1.0000   1.0000   1.0000   1.0000   1.0000   1.0000   1.0000   1.0000
     1.0000   1.0000   0.0000   0.0000   0.0000   0.0000   0.0000   0.0000
     0.0000   0.0000   0.0000   0.0000   0.0000   0.0000

          k =-0.1515-0.3536 0.3536 ( 10919 PWs)   bands (ev):

  -108.1515-108.1515 -70.1406 -70.1406 -51.8694 -51.8694 -51.8693 -51.8693
    -4.6981  -4.6950  -1.4439  -1.4283  -1.2600  -1.1241   0.1334   0.1669
     0.4506   0.4707   0.5124   0.5943   1.6832   1.7947   4.5047   4.5808
     5.4364   5.4773   7.7663   7.9155  10.9733  11.0348  11.6459  11.6923
    12.3546  12.5318  14.6962  14.9502  15.0834  15.1408

     occupation numbers 
     1.0000   1.0000   1.0000   1.0000   1.0000   1.0000   1.0000   1.0000
     1.0000   1.0000   1.0000   1.0000   1.0000   1.0000   1.0000   1.0000
     1.0000   1.0000   1.0000   1.0000   1.0000   1.0000   1.0000   1.0000
     1.0000   1.0000   0.0000   0.0000   0.0000   0.0000   0.0000   0.0000
     0.0000   0.0000   0.0000   0.0000   0.0000   0.0000

          k =-0.1010-0.3030 0.3030 ( 10933 PWs)   bands (ev):

  -108.1515-108.1515 -70.1406 -70.1406 -51.8694 -51.8693 -51.8693 -51.8693
    -4.7727  -4.7705  -1.4554  -1.4261  -1.3145  -1.2053   0.1049   0.1400
     0.3869   0.4082   0.4327   0.5305   2.2227   2.3119   4.6102   4.6941
     5.6198   5.6773   7.7533   7.9148  10.8875  11.0129  11.5636  11.5696
    11.8257  11.8594  14.5019  14.5443  14.9740  15.1597

     occupation numbers 
     1.0000   1.0000   1.0000   1.0000   1.0000   1.0000   1.0000   1.0000
     1.0000   1.0000   1.0000   1.0000   1.0000   1.0000   1.0000   1.0000
     1.0000   1.0000   1.0000   1.0000   1.0000   1.0000   1.0000   1.0000
     1.0000   1.0000   0.0000   0.0000   0.0000   0.0000   0.0000   0.0000
     0.0000   0.0000   0.0000   0.0000   0.0000   0.0000

          k =-0.0505-0.2525 0.2525 ( 10926 PWs)   bands (ev):

  -108.1515-108.1515 -70.1406 -70.1406 -51.8693 -51.8693 -51.8692 -51.8692
    -4.8671  -4.8658  -1.4663  -1.4291  -1.3691  -1.2907   0.0619   0.0899
     0.3472   0.3715   0.3981   0.4972   2.8278   2.8923   4.8327   4.9182
     5.8260   5.8902   7.6851   7.8516  10.4845  10.9350  11.0983  11.3510
    11.6597  11.7305  14.2571  14.3209  14.9941  15.1456

     occupation numbers 
     1.0000   1.0000   1.0000   1.0000   1.0000   1.0000   1.0000   1.0000
     1.0000   1.0000   1.0000   1.0000   1.0000   1.0000   1.0000   1.0000
     1.0000   1.0000   1.0000   1.0000   1.0000   1.0000   1.0000   1.0000
     1.0000   1.0000   0.0000   0.0000   0.0000   0.0000   0.0000   0.0000
     0.0000   0.0000   0.0000   0.0000   0.0000   0.0000

          k =-0.0000-0.2020 0.2020 ( 10949 PWs)   bands (ev):

  -108.1515-108.1515 -70.1406 -70.1406 -51.8693 -51.8693 -51.8692 -51.8692
    -4.9617  -4.9611  -1.4763  -1.4369  -1.4096  -1.3608   0.0224   0.0387
     0.3411   0.3650   0.3738   0.4653   3.4186   3.4565   5.1740   5.2515
     6.0197   6.0811   7.5037   7.6426  10.1586  10.6154  10.8504  11.1186
    11.5951  11.7110  14.2864  14.3560  14.8091  14.9797

     occupation numbers 
     1.0000   1.0000   1.0000   1.0000   1.0000   1.0000   1.0000   1.0000
     1.0000   1.0000   1.0000   1.0000   1.0000   1.0000   1.0000   1.0000
     1.0000   1.0000   1.0000   1.0000   1.0000   1.0000   1.0000   1.0000
     1.0000   1.0000   0.0000   0.0000   0.0000   0.0000   0.0000   0.0000
     0.0000   0.0000   0.0000   0.0000   0.0000   0.0000

          k = 0.3030 0.0000 0.0000 ( 10950 PWs)   bands (ev):

  -108.1515-108.1515 -70.1406 -70.1406 -51.8693 -51.8693 -51.8692 -51.8692
    -4.9325  -4.9325  -1.4493  -1.4493  -1.3799  -1.3799   0.0316   0.0316
     0.3418   0.3418   0.4401   0.4401   3.4446   3.4446   5.2112   5.2112
     5.4989   5.4989   8.0256   8.0256   9.4476   9.4476  11.7460  11.7460
    12.2637  12.2637  13.2780  13.2780  15.5694  15.5694

     occupation numbers 
     1.0000   1.0000   1.0000   1.0000   1.0000   1.0000   1.0000   1.0000
     1.0000   1.0000   1.0000   1.0000   1.0000   1.0000   1.0000   1.0000
     1.0000   1.0000   1.0000   1.0000   1.0000   1.0000   1.0000   1.0000
     1.0000   1.0000   0.0000   0.0000   0.0000   0.0000   0.0000   0.0000
     0.0000   0.0000   0.0000   0.0000   0.0000   0.0000

          k = 0.3536 0.0505-0.0505 ( 10938 PWs)   bands (ev):

  -108.1515-108.1515 -70.1406 -70.1406 -51.8693 -51.8693 -51.8693 -51.8693
    -4.8547  -4.8541  -1.4510  -1.4214  -1.3666  -1.3180   0.0609   0.0645
     0.3291   0.3675   0.4432   0.4812   3.0046   3.0207   4.9682   5.0271
     5.2315   5.3066   8.1109   8.2469   9.3845   9.5557  11.9869  12.0456
    12.4665  12.4935  13.4111  13.4193  16.0510  16.0993

     occupation numbers 
     1.0000   1.0000   1.0000   1.0000   1.0000   1.0000   1.0000   1.0000
     1.0000   1.0000   1.0000   1.0000   1.0000   1.0000   1.0000   1.0000
     1.0000   1.0000   1.0000   1.0000   1.0000   1.0000   1.0000   1.0000
     1.0000   1.0000   0.0000   0.0000   0.0000   0.0000   0.0000   0.0000
     0.0000   0.0000   0.0000   0.0000   0.0000   0.0000

          k = 0.4041 0.1010-0.1010 ( 10933 PWs)   bands (ev):

  -108.1515-108.1515 -70.1406 -70.1406 -51.8694 -51.8693 -51.8693 -51.8693
    -4.7677  -4.7660  -1.4474  -1.3968  -1.3424  -1.2356   0.1057   0.1065
     0.3255   0.4082   0.4658   0.5216   2.4840   2.5269   4.7084   4.7823
     5.0377   5.1257   8.1686   8.3734   9.6300   9.8433  11.9864  12.0364
    12.5595  12.5836  14.0388  14.0604  16.1726  16.2394

     occupation numbers 
     1.0000   1.0000   1.0000   1.0000   1.0000   1.0000   1.0000   1.0000
     1.0000   1.0000   1.0000   1.0000   1.0000   1.0000   1.0000   1.0000
     1.0000   1.0000   1.0000   1.0000   1.0000   1.0000   1.0000   1.0000
     1.0000   1.0000   0.0000   0.0000   0.0000   0.0000   0.0000   0.0000
     0.0000   0.0000   0.0000   0.0000   0.0000   0.0000

          k = 0.4546 0.1515-0.1515 ( 10924 PWs)   bands (ev):

  -108.1515-108.1515 -70.1406 -70.1406 -51.8694 -51.8694 -51.8693 -51.8693
    -4.6890  -4.6859  -1.4404  -1.3873  -1.3037  -1.1442   0.1466   0.1538
     0.3532   0.4444   0.5425   0.5614   1.9638   2.0438   4.4468   4.5086
     4.9556   5.0081   8.1942   8.4004  10.1003  10.2185  11.9182  12.1119
    12.5635  12.6112  14.6110  14.7625  16.2953  16.3036

     occupation numbers 
     1.0000   1.0000   1.0000   1.0000   1.0000   1.0000   1.0000   1.0000
     1.0000   1.0000   1.0000   1.0000   1.0000   1.0000   1.0000   1.0000
     1.0000   1.0000   1.0000   1.0000   1.0000   1.0000   1.0000   1.0000
     1.0000   1.0000   0.0000   0.0000   0.0000   0.0000   0.0000   0.0000
     0.0000   0.0000   0.0000   0.0000   0.0000   0.0000

          k =-0.2020-0.5051 0.5051 ( 10909 PWs)   bands (ev):

  -108.1515-108.1515 -70.1406 -70.1406 -51.8694 -51.8694 -51.8693 -51.8693
    -4.6353  -4.6309  -1.4317  -1.3888  -1.2686  -1.0686   0.1747   0.1768
     0.4249   0.4718   0.6179   0.6720   1.5211   1.6498   4.2173   4.2800
     4.9695   4.9843   8.1954   8.3916  10.5306  10.5613  12.0233  12.3126
    12.5877  12.5924  14.6229  15.0232  16.2579  16.3471

     occupation numbers 
     1.0000   1.0000   1.0000   1.0000   1.0000   1.0000   1.0000   1.0000
     1.0000   1.0000   1.0000   1.0000   1.0000   1.0000   1.0000   1.0000
     1.0000   1.0000   1.0000   1.0000   1.0000   1.0000   1.0000   1.0000
     1.0000   1.0000   0.0000   0.0000   0.0000   0.0000   0.0000   0.0000
     0.0000   0.0000   0.0000   0.0000   0.0000   0.0000

          k =-0.1515-0.4546 0.4546 ( 10917 PWs)   bands (ev):

  -108.1515-108.1515 -70.1406 -70.1406 -51.8694 -51.8694 -51.8693 -51.8693
    -4.6183  -4.6132  -1.4235  -1.3970  -1.2560  -1.0372   0.1770   0.1907
     0.4703   0.4891   0.6725   0.7492   1.3038   1.4904   4.0600   4.1368
     5.0535   5.0699   8.1883   8.3836  10.7253  10.8456  12.0926  12.2342
    12.6793  12.9201  14.2386  14.6980  15.7338  15.8488

     occupation numbers 
     1.0000   1.0000   1.0000   1.0000   1.0000   1.0000   1.0000   1.0000
     1.0000   1.0000   1.0000   1.0000   1.0000   1.0000   1.0000   1.0000
     1.0000   1.0000   1.0000   1.0000   1.0000   1.0000   1.0000   1.0000
     1.0000   1.0000   0.0000   0.0000   0.0000   0.0000   0.0000   0.0000
     0.0000   0.0000   0.0000   0.0000   0.0000   0.0000

          k =-0.1010-0.4041 0.4041 ( 10912 PWs)   bands (ev):

  -108.1515-108.1515 -70.1406 -70.1406 -51.8694 -51.8694 -51.8693 -51.8693
    -4.6416  -4.6367  -1.4178  -1.4099  -1.2719  -1.0624   0.1657   0.1964
     0.4681   0.4827   0.5674   0.6632   1.5008   1.6921   4.0111   4.1061
     5.2010   5.2413   8.1712   8.3763  10.8686  11.0112  11.9242  12.0541
    12.4111  12.6869  14.4652  14.9348  15.0662  15.1714

     occupation numbers 
     1.0000   1.0000   1.0000   1.0000   1.0000   1.0000   1.0000   1.0000
     1.0000   1.0000   1.0000   1.0000   1.0000   1.0000   1.0000   1.0000
     1.0000   1.0000   1.0000   1.0000   1.0000   1.0000   1.0000   1.0000
     1.0000   1.0000   0.0000   0.0000   0.0000   0.0000   0.0000   0.0000
     0.0000   0.0000   0.0000   0.0000   0.0000   0.0000

          k =-0.0505-0.3536 0.3536 ( 10918 PWs)   bands (ev):

  -108.1515-108.1515 -70.1406 -70.1406 -51.8694 -51.8693 -51.8693 -51.8693
    -4.7000  -4.6961  -1.4266  -1.4165  -1.3065  -1.1305   0.1409   0.1844
     0.4260   0.4345   0.4586   0.5748   1.9191   2.0797   4.1075   4.2142
     5.4022   5.4587   8.1154   8.3340  10.9982  11.0593  11.6177  11.8241
    11.9386  12.0419  14.5352  14.5821  15.2440  15.6997

     occupation numbers 
     1.0000   1.0000   1.0000   1.0000   1.0000   1.0000   1.0000   1.0000
     1.0000   1.0000   1.0000   1.0000   1.0000   1.0000   1.0000   1.0000
     1.0000   1.0000   1.0000   1.0000   1.0000   1.0000   1.0000   1.0000
     1.0000   1.0000   0.0000   0.0000   0.0000   0.0000   0.0000   0.0000
     0.0000   0.0000   0.0000   0.0000   0.0000   0.0000

          k = 0.0000-0.3030 0.3030 ( 10921 PWs)   bands (ev):

  -108.1515-108.1515 -70.1406 -70.1406 -51.8694 -51.8693 -51.8693 -51.8693
    -4.7808  -4.7783  -1.4464  -1.4205  -1.3426  -1.2141   0.1014   0.1438
     0.3670   0.3873   0.4239   0.5314   2.3879   2.5031   4.3830   4.4860
     5.6234   5.6876   7.9672   8.1814  10.7560  11.0623  11.3984  11.5813
    11.6263  11.7133  14.2697  14.3328  15.5665  15.9682

     occupation numbers 
     1.0000   1.0000   1.0000   1.0000   1.0000   1.0000   1.0000   1.0000
     1.0000   1.0000   1.0000   1.0000   1.0000   1.0000   1.0000   1.0000
     1.0000   1.0000   1.0000   1.0000   1.0000   1.0000   1.0000   1.0000
     1.0000   1.0000   0.0000   0.0000   0.0000   0.0000   0.0000   0.0000
     0.0000   0.0000   0.0000   0.0000   0.0000   0.0000

          k = 0.4041 0.0000 0.0000 ( 10918 PWs)   bands (ev):

  -108.1515-108.1515 -70.1406 -70.1406 -51.8693 -51.8693 -51.8693 -51.8693
    -4.7910  -4.7910  -1.4281  -1.4281  -1.3080  -1.3080   0.0817   0.0817
     0.3539   0.3539   0.4883   0.4883   2.7449   2.7449   4.8232   4.8232
     5.0531   5.0531   8.2415   8.2415   9.2929   9.2929  12.5276  12.5276
    12.9777  12.9777  13.1840  13.1840  16.2497  16.2497

     occupation numbers 
     1.0000   1.0000   1.0000   1.0000   1.0000   1.0000   1.0000   1.0000
     1.0000   1.0000   1.0000   1.0000   1.0000   1.0000   1.0000   1.0000
     1.0000   1.0000   1.0000   1.0000   1.0000   1.0000   1.0000   1.0000
     1.0000   1.0000   0.0000   0.0000   0.0000   0.0000   0.0000   0.0000
     0.0000   0.0000   0.0000   0.0000   0.0000   0.0000

          k = 0.4546 0.0505-0.0505 ( 10934 PWs)   bands (ev):

  -108.1515-108.1515 -70.1406 -70.1406 -51.8694 -51.8694 -51.8693 -51.8693
    -4.7178  -4.7166  -1.4292  -1.4014  -1.2966  -1.2277   0.1104   0.1164
     0.3416   0.3997   0.5093   0.5361   2.3578   2.3854   4.5874   4.6551
     4.8170   4.8929   8.2452   8.3785   9.2696   9.3981  12.5359  12.6698
    13.0575  13.1868  13.8163  13.8617  16.3561  16.3792

     occupation numbers 
     1.0000   1.0000   1.0000   1.0000   1.0000   1.0000   1.0000   1.0000
     1.0000   1.0000   1.0000   1.0000   1.0000   1.0000   1.0000   1.0000
     1.0000   1.0000   1.0000   1.0000   1.0000   1.0000   1.0000   1.0000
     1.0000   1.0000   0.0000   0.0000   0.0000   0.0000   0.0000   0.0000
     0.0000   0.0000   0.0000   0.0000   0.0000   0.0000

          k = 0.5051 0.1010-0.1010 ( 10920 PWs)   bands (ev):

  -108.1515-108.1515 -70.1406 -70.1406 -51.8694 -51.8694 -51.8693 -51.8693
    -4.6491  -4.6462  -1.4258  -1.3754  -1.2861  -1.1366   0.1420   0.1696
     0.3399   0.4493   0.5699   0.5842   1.9390   2.0076   4.3160   4.3830
     4.7039   4.7658   8.3057   8.5060   9.5314   9.6782  12.3590  12.5544
    13.1688  13.2690  14.5146  14.6556  16.5892  16.6065

     occupation numbers 
     1.0000   1.0000   1.0000   1.0000   1.0000   1.0000   1.0000   1.0000
     1.0000   1.0000   1.0000   1.0000   1.0000   1.0000   1.0000   1.0000
     1.0000   1.0000   1.0000   1.0000   1.0000   1.0000   1.0000   1.0000
     1.0000   1.0000   0.0000   0.0000   0.0000   0.0000   0.0000   0.0000
     0.0000   0.0000   0.0000   0.0000   0.0000   0.0000

          k =-0.1515-0.5556 0.5556 ( 10918 PWs)   bands (ev):

  -108.1515-108.1515 -70.1406 -70.1406 -51.8694 -51.8694 -51.8693 -51.8693
    -4.5993  -4.5945  -1.4199  -1.3576  -1.2792  -1.0555   0.1702   0.2141
     0.3762   0.4818   0.6381   0.6854   1.5526   1.6783   4.0313   4.0944
     4.7119   4.7338   8.3548   8.5624  10.0427  10.0932  12.2822  12.5918
    13.0891  13.1773  14.6026  14.9842  16.4704  16.5755

     occupation numbers 
     1.0000   1.0000   1.0000   1.0000   1.0000   1.0000   1.0000   1.0000
     1.0000   1.0000   1.0000   1.0000   1.0000   1.0000   1.0000   1.0000
     1.0000   1.0000   1.0000   1.0000   1.0000   1.0000   1.0000   1.0000
     1.0000   1.0000   0.0000   0.0000   0.0000   0.0000   0.0000   0.0000
     0.0000   0.0000   0.0000   0.0000   0.0000   0.0000

          k =-0.1010-0.5051 0.5051 ( 10894 PWs)   bands (ev):

  -108.1515-108.1515 -70.1406 -70.1406 -51.8694 -51.8694 -51.8693 -51.8693
    -4.5788  -4.5727  -1.4138  -1.3541  -1.2791  -1.0095   0.1922   0.2194
     0.4431   0.5006   0.6946   0.7832   1.2910   1.4972   3.8038   3.8848
     4.8027   4.8125   8.3826   8.5919  10.4892  10.5857  12.3430  12.7717
    12.9822  13.0055  14.0216  14.4272  15.9011  15.9898

     occupation numbers 
     1.0000   1.0000   1.0000   1.0000   1.0000   1.0000   1.0000   1.0000
     1.0000   1.0000   1.0000   1.0000   1.0000   1.0000   1.0000   1.0000
     1.0000   1.0000   1.0000   1.0000   1.0000   1.0000   1.0000   1.0000
     1.0000   1.0000   0.0000   0.0000   0.0000   0.0000   0.0000   0.0000
     0.0000   0.0000   0.0000   0.0000   0.0000   0.0000

          k =-0.0505-0.4546 0.4546 ( 10911 PWs)   bands (ev):

  -108.1515-108.1515 -70.1406 -70.1406 -51.8694 -51.8693 -51.8693 -51.8693
    -4.5918  -4.5855  -1.4101  -1.3669  -1.2865  -1.0129   0.2041   0.2065
     0.4764   0.5027   0.6427   0.7407   1.3289   1.5834   3.7029   3.8089
     4.9559   4.9890   8.3835   8.6044  10.7549  10.9616  12.2657  12.5487
    12.7299  13.0421  13.7874  14.1083  15.2564  15.3351

     occupation numbers 
     1.0000   1.0000   1.0000   1.0000   1.0000   1.0000   1.0000   1.0000
     1.0000   1.0000   1.0000   1.0000   1.0000   1.0000   1.0000   1.0000
     1.0000   1.0000   1.0000   1.0000   1.0000   1.0000   1.0000   1.0000
     1.0000   1.0000   0.0000   0.0000   0.0000   0.0000   0.0000   0.0000
     0.0000   0.0000   0.0000   0.0000   0.0000   0.0000

          k = 0.0000-0.4041 0.4041 ( 10906 PWs)   bands (ev):

  -108.1515-108.1515 -70.1406 -70.1406 -51.8694 -51.8693 -51.8693 -51.8693
    -4.6352  -4.6299  -1.4107  -1.3938  -1.2969  -1.0597   0.1772   0.2075
     0.4729   0.4773   0.5176   0.6402   1.6000   1.8261   3.7920   3.9102
     5.1675   5.2161   8.3168   8.5499  10.9102  11.1415  11.8326  12.1986
    12.2992  12.4815  14.4296  14.7685  14.8689  14.8741

     occupation numbers 
     1.0000   1.0000   1.0000   1.0000   1.0000   1.0000   1.0000   1.0000
     1.0000   1.0000   1.0000   1.0000   1.0000   1.0000   1.0000   1.0000
     1.0000   1.0000   1.0000   1.0000   1.0000   1.0000   1.0000   1.0000
     1.0000   1.0000   0.0000   0.0000   0.0000   0.0000   0.0000   0.0000
     0.0000   0.0000   0.0000   0.0000   0.0000   0.0000

          k = 0.5051 0.0000 0.0000 ( 10914 PWs)   bands (ev):

  -108.1515-108.1515 -70.1406 -70.1406 -51.8694 -51.8694 -51.8693 -51.8693
    -4.6589  -4.6589  -1.4085  -1.4085  -1.2210  -1.2210   0.1277   0.1277
     0.3872   0.3872   0.5630   0.5630   2.1129   2.1129   4.4933   4.4933
     4.6999   4.6999   8.2521   8.2521   9.1646   9.1646  13.2513  13.2513
    13.4939  13.4939  13.9226  13.9226  16.4074  16.4074

     occupation numbers 
     1.0000   1.0000   1.0000   1.0000   1.0000   1.0000   1.0000   1.0000
     1.0000   1.0000   1.0000   1.0000   1.0000   1.0000   1.0000   1.0000
     1.0000   1.0000   1.0000   1.0000   1.0000   1.0000   1.0000   1.0000
     1.0000   1.0000   0.0000   0.0000   0.0000   0.0000   0.0000   0.0000
     0.0000   0.0000   0.0000   0.0000   0.0000   0.0000

          k = 0.5556 0.0505-0.0505 ( 10897 PWs)   bands (ev):

  -108.1515-108.1515 -70.1406 -70.1406 -51.8694 -51.8694 -51.8693 -51.8693
    -4.6047  -4.6028  -1.4109  -1.3855  -1.2216  -1.1337   0.1421   0.1674
     0.3727   0.4448   0.6204   0.6211   1.7936   1.8323   4.2953   4.3646
     4.5240   4.5928   8.2532   8.3690   9.1509   9.2456  13.1320  13.2851
    13.7635  13.9372  14.4068  14.5795  16.5569  16.5730

     occupation numbers 
     1.0000   1.0000   1.0000   1.0000   1.0000   1.0000   1.0000   1.0000
     1.0000   1.0000   1.0000   1.0000   1.0000   1.0000   1.0000   1.0000
     1.0000   1.0000   1.0000   1.0000   1.0000   1.0000   1.0000   1.0000
     1.0000   1.0000   0.0000   0.0000   0.0000   0.0000   0.0000   0.0000
     0.0000   0.0000   0.0000   0.0000   0.0000   0.0000

          k =-0.1010-0.6061 0.6061 ( 10894 PWs)   bands (ev):

  -108.1515-108.1515 -70.1406 -70.1406 -51.8694 -51.8694 -51.8693 -51.8693
    -4.5654  -4.5613  -1.4097  -1.3612  -1.2358  -1.0535   0.1600   0.2256
     0.3655   0.4874   0.6819   0.7241   1.4908   1.5816   4.0452   4.1101
     4.4962   4.5388   8.3306   8.5119   9.4449   9.5529  12.9790  13.1705
    13.7706  13.8849  14.5912  14.9897  16.5863  16.6522

     occupation numbers 
     1.0000   1.0000   1.0000   1.0000   1.0000   1.0000   1.0000   1.0000
     1.0000   1.0000   1.0000   1.0000   1.0000   1.0000   1.0000   1.0000
     1.0000   1.0000   1.0000   1.0000   1.0000   1.0000   1.0000   1.0000
     1.0000   1.0000   0.0000   0.0000   0.0000   0.0000   0.0000   0.0000
     0.0000   0.0000   0.0000   0.0000   0.0000   0.0000

          k =-0.0505-0.5556 0.5556 ( 10902 PWs)   bands (ev):

  -108.1515-108.1515 -70.1406 -70.1406 -51.8694 -51.8694 -51.8693 -51.8693
    -4.5490  -4.5431  -1.4074  -1.3384  -1.2650  -1.0012   0.1798   0.2559
     0.3978   0.5093   0.7371   0.8259   1.2633   1.4314   3.7897   3.8609
     4.5861   4.5929   8.3969   8.5935  10.0093  10.0304  12.8777  13.1881
    13.5078  13.6040  14.0334  14.4966  16.1563  16.2362

     occupation numbers 
     1.0000   1.0000   1.0000   1.0000   1.0000   1.0000   1.0000   1.0000
     1.0000   1.0000   1.0000   1.0000   1.0000   1.0000   1.0000   1.0000
     1.0000   1.0000   1.0000   1.0000   1.0000   1.0000   1.0000   1.0000
     1.0000   1.0000   0.0000   0.0000   0.0000   0.0000   0.0000   0.0000
     0.0000   0.0000   0.0000   0.0000   0.0000   0.0000

          k = 0.0000-0.5051 0.5051 ( 10912 PWs)   bands (ev):

  -108.1515-108.1515 -70.1406 -70.1406 -51.8694 -51.8694 -51.8693 -51.8693
    -4.5586  -4.5519  -1.4069  -1.3303  -1.2944  -0.9886   0.1978   0.2385
     0.4527   0.5143   0.7271   0.8205   1.2086   1.4600   3.6419   3.7358
     4.7414   4.7591   8.4303   8.6390  10.4874  10.6073  12.7031  13.0522
    13.2066  13.4565  13.5096  13.7290  15.6344  15.7079

     occupation numbers 
     1.0000   1.0000   1.0000   1.0000   1.0000   1.0000   1.0000   1.0000
     1.0000   1.0000   1.0000   1.0000   1.0000   1.0000   1.0000   1.0000
     1.0000   1.0000   1.0000   1.0000   1.0000   1.0000   1.0000   1.0000
     1.0000   1.0000   0.0000   0.0000   0.0000   0.0000   0.0000   0.0000
     0.0000   0.0000   0.0000   0.0000   0.0000   0.0000

          k = 0.6061 0.0000 0.0000 ( 10898 PWs)   bands (ev):

  -108.1515-108.1515 -70.1406 -70.1406 -51.8694 -51.8694 -51.8693 -51.8693
    -4.5650  -4.5650  -1.3949  -1.3949  -1.1427  -1.1427   0.1587   0.1587
     0.4284   0.4284   0.6833   0.6833   1.6005   1.6005   4.2715   4.2715
     4.4747   4.4747   8.2315   8.2315   9.0249   9.0249  13.8375  13.8375
    14.1605  14.1605  14.7215  14.7215  16.5356  16.5356

     occupation numbers 
     1.0000   1.0000   1.0000   1.0000   1.0000   1.0000   1.0000   1.0000
     1.0000   1.0000   1.0000   1.0000   1.0000   1.0000   1.0000   1.0000
     1.0000   1.0000   1.0000   1.0000   1.0000   1.0000   1.0000   1.0000
     1.0000   1.0000   0.0000   0.0000   0.0000   0.0000   0.0000   0.0000
     0.0000   0.0000   0.0000   0.0000   0.0000   0.0000

          k =-0.0505-0.6566 0.6566 ( 10892 PWs)   bands (ev):

  -108.1515-108.1515 -70.1406 -70.1406 -51.8694 -51.8694 -51.8693 -51.8693
    -4.5407  -4.5383  -1.4004  -1.3767  -1.1701  -1.0700   0.1568   0.1981
     0.4030   0.4762   0.7420   0.7719   1.3933   1.4362   4.1364   4.2048
     4.3730   4.4353   8.2450   8.3545   9.0512   9.1362  13.7748  13.8069
    14.3398  14.3649  14.7771  15.0770  16.6327  16.6394

     occupation numbers 
     1.0000   1.0000   1.0000   1.0000   1.0000   1.0000   1.0000   1.0000
     1.0000   1.0000   1.0000   1.0000   1.0000   1.0000   1.0000   1.0000
     1.0000   1.0000   1.0000   1.0000   1.0000   1.0000   1.0000   1.0000
     1.0000   1.0000   0.0000   0.0000   0.0000   0.0000   0.0000   0.0000
     0.0000   0.0000   0.0000   0.0000   0.0000   0.0000

          k = 0.0000-0.6061 0.6061 ( 10880 PWs)   bands (ev):

  -108.1515-108.1515 -70.1406 -70.1406 -51.8694 -51.8694 -51.8693 -51.8693
    -4.5352  -4.5306  -1.4037  -1.3563  -1.2151  -1.0202   0.1650   0.2474
     0.3803   0.5029   0.7666   0.8379   1.2741   1.3727   3.9485   4.0137
     4.4251   4.4611   8.3306   8.5049   9.4055   9.5036  13.4698  13.5596
    14.0577  14.0901  14.3745  14.8717  16.4626  16.5371

     occupation numbers 
     1.0000   1.0000   1.0000   1.0000   1.0000   1.0000   1.0000   1.0000
     1.0000   1.0000   1.0000   1.0000   1.0000   1.0000   1.0000   1.0000
     1.0000   1.0000   1.0000   1.0000   1.0000   1.0000   1.0000   1.0000
     1.0000   1.0000   0.0000   0.0000   0.0000   0.0000   0.0000   0.0000
     0.0000   0.0000   0.0000   0.0000   0.0000   0.0000

          k =-0.7071 0.0000 0.0000 ( 10918 PWs)   bands (ev):

  -108.1515-108.1515 -70.1406 -70.1406 -51.8694 -51.8694 -51.8693 -51.8693
    -4.5310  -4.5310  -1.3901  -1.3901  -1.1101  -1.1101   0.1695   0.1695
     0.4465   0.4465   0.7858   0.7858   1.3550   1.3550   4.1931   4.1931
     4.3973   4.3973   8.2261   8.2261   8.9619   8.9619  14.1433  14.1433
    14.4631  14.4631  15.1292  15.1292  16.5862  16.5862

     occupation numbers 
     1.0000   1.0000   1.0000   1.0000   1.0000   1.0000   1.0000   1.0000
     1.0000   1.0000   1.0000   1.0000   1.0000   1.0000   1.0000   1.0000
     1.0000   1.0000   1.0000   1.0000   1.0000   1.0000   1.0000   1.0000
     1.0000   1.0000   0.0000   0.0000   0.0000   0.0000   0.0000   0.0000
     0.0000   0.0000   0.0000   0.0000   0.0000   0.0000

          k = 0.2020 0.1010 0.0000 ( 10937 PWs)   bands (ev):

  -108.1515-108.1515 -70.1406 -70.1406 -51.8693 -51.8693 -51.8692 -51.8692
    -5.0310  -5.0308  -1.4789  -1.4447  -1.4361  -1.4069  -0.0031   0.0030
     0.3396   0.3571   0.3813   0.4355   3.9313   3.9456   5.4928   5.5544
     6.0063   6.0767   7.4278   7.5196   9.8196  10.0662  10.9386  11.1782
    11.5379  11.6423  14.0434  14.1183  14.5325  14.5797

     occupation numbers 
     1.0000   1.0000   1.0000   1.0000   1.0000   1.0000   1.0000   1.0000
     1.0000   1.0000   1.0000   1.0000   1.0000   1.0000   1.0000   1.0000
     1.0000   1.0000   1.0000   1.0000   1.0000   1.0000   1.0000   1.0000
     1.0000   1.0000   0.0000   0.0000   0.0000   0.0000   0.0000   0.0000
     0.0000   0.0000   0.0000   0.0000   0.0000   0.0000

          k = 0.2525 0.1515-0.0505 ( 10938 PWs)   bands (ev):

  -108.1515-108.1515 -70.1406 -70.1406 -51.8693 -51.8693 -51.8692 -51.8692
    -4.9445  -4.9439  -1.4747  -1.4322  -1.4038  -1.3525   0.0296   0.0428
     0.3333   0.3740   0.3815   0.4675   3.3256   3.3560   5.2005   5.2778
     5.8270   5.9097   7.6094   7.7489   9.9826  10.3199  11.1123  11.4565
    11.6784  11.8333  13.9970  14.0636  14.9706  15.0705

     occupation numbers 
     1.0000   1.0000   1.0000   1.0000   1.0000   1.0000   1.0000   1.0000
     1.0000   1.0000   1.0000   1.0000   1.0000   1.0000   1.0000   1.0000
     1.0000   1.0000   1.0000   1.0000   1.0000   1.0000   1.0000   1.0000
     1.0000   1.0000   0.0000   0.0000   0.0000   0.0000   0.0000   0.0000
     0.0000   0.0000   0.0000   0.0000   0.0000   0.0000

          k = 0.3030 0.2020-0.1010 ( 10929 PWs)   bands (ev):

  -108.1515-108.1515 -70.1406 -70.1406 -51.8693 -51.8693 -51.8692 -51.8692
    -4.8456  -4.8443  -1.4680  -1.4264  -1.3517  -1.2765   0.0735   0.0935
     0.3426   0.3960   0.4058   0.4996   2.6734   2.7220   4.9563   5.0354
     5.6380   5.7176   7.6771   7.8256  10.3682  10.6683  11.3651  11.6690
    11.8077  11.9227  14.1806  14.2688  14.9943  15.1090

     occupation numbers 
     1.0000   1.0000   1.0000   1.0000   1.0000   1.0000   1.0000   1.0000
     1.0000   1.0000   1.0000   1.0000   1.0000   1.0000   1.0000   1.0000
     1.0000   1.0000   1.0000   1.0000   1.0000   1.0000   1.0000   1.0000
     1.0000   1.0000   0.0000   0.0000   0.0000   0.0000   0.0000   0.0000
     0.0000   0.0000   0.0000   0.0000   0.0000   0.0000

          k = 0.3536 0.2525-0.1515 ( 10919 PWs)   bands (ev):

  -108.1515-108.1515 -70.1406 -70.1406 -51.8694 -51.8693 -51.8693 -51.8693
    -4.7539  -4.7519  -1.4589  -1.4258  -1.2901  -1.1892   0.1142   0.1376
     0.3944   0.4310   0.4689   0.5327   2.0535   2.1218   4.7851   4.8595
     5.4699   5.5337   7.6754   7.8133  10.7492  10.8847  11.6025  11.7354
    12.0737  12.2404  14.4308  14.6060  15.0484  15.1832

     occupation numbers 
     1.0000   1.0000   1.0000   1.0000   1.0000   1.0000   1.0000   1.0000
     1.0000   1.0000   1.0000   1.0000   1.0000   1.0000   1.0000   1.0000
     1.0000   1.0000   1.0000   1.0000   1.0000   1.0000   1.0000   1.0000
     1.0000   1.0000   0.0000   0.0000   0.0000   0.0000   0.0000   0.0000
     0.0000   0.0000   0.0000   0.0000   0.0000   0.0000

          k =-0.3030-0.4041 0.5051 ( 10910 PWs)   bands (ev):

  -108.1515-108.1515 -70.1406 -70.1406 -51.8694 -51.8694 -51.8693 -51.8693
    -4.6891  -4.6863  -1.4486  -1.4302  -1.2371  -1.1148   0.1351   0.1593
     0.4616   0.4748   0.5751   0.6254   1.5412   1.6308   4.6876   4.7546
     5.3598   5.3961   7.6549   7.7826  10.8931  10.9763  11.6510  11.7501
    12.5899  12.8043  14.4603  14.7004  15.4769  15.5462

     occupation numbers 
     1.0000   1.0000   1.0000   1.0000   1.0000   1.0000   1.0000   1.0000
     1.0000   1.0000   1.0000   1.0000   1.0000   1.0000   1.0000   1.0000
     1.0000   1.0000   1.0000   1.0000   1.0000   1.0000   1.0000   1.0000
     1.0000   1.0000   0.0000   0.0000   0.0000   0.0000   0.0000   0.0000
     0.0000   0.0000   0.0000   0.0000   0.0000   0.0000

          k =-0.2525-0.3536 0.4546 ( 10914 PWs)   bands (ev):

  -108.1515-108.1515 -70.1406 -70.1406 -51.8694 -51.8694 -51.8693 -51.8693
    -4.6657  -4.6626  -1.4397  -1.4372  -1.2157  -1.0848   0.1400   0.1645
     0.4807   0.4869   0.6769   0.7264   1.2946   1.4007   4.6568   4.7197
     5.3306   5.3358   7.6450   7.7691  10.9087  11.0044  11.6612  11.7435
    12.9067  13.1253  14.4149  14.6942  15.5740  15.7874

     occupation numbers 
     1.0000   1.0000   1.0000   1.0000   1.0000   1.0000   1.0000   1.0000
     1.0000   1.0000   1.0000   1.0000   1.0000   1.0000   1.0000   1.0000
     1.0000   1.0000   1.0000   1.0000   1.0000   1.0000   1.0000   1.0000
     1.0000   1.0000   0.0000   0.0000   0.0000   0.0000   0.0000   0.0000
     0.0000   0.0000   0.0000   0.0000   0.0000   0.0000

          k = 0.3030 0.1010 0.0000 ( 10939 PWs)   bands (ev):

  -108.1515-108.1515 -70.1406 -70.1406 -51.8693 -51.8693 -51.8692 -51.8692
    -4.9135  -4.9130  -1.4633  -1.4256  -1.3977  -1.3437   0.0390   0.0480
     0.3270   0.3671   0.4120   0.4692   3.2606   3.2855   5.0884   5.1766
     5.5049   5.6020   7.9266   8.0817   9.5579   9.8080  11.5392  11.7305
    12.0793  12.1401  13.5839  13.6180  15.5439  15.5894

     occupation numbers 
     1.0000   1.0000   1.0000   1.0000   1.0000   1.0000   1.0000   1.0000
     1.0000   1.0000   1.0000   1.0000   1.0000   1.0000   1.0000   1.0000
     1.0000   1.0000   1.0000   1.0000   1.0000   1.0000   1.0000   1.0000
     1.0000   1.0000   0.0000   0.0000   0.0000   0.0000   0.0000   0.0000
     0.0000   0.0000   0.0000   0.0000   0.0000   0.0000

          k = 0.3536 0.1515-0.0505 ( 10935 PWs)   bands (ev):

  -108.1515-108.1515 -70.1406 -70.1406 -51.8693 -51.8693 -51.8693 -51.8693
    -4.8243  -4.8229  -1.4562  -1.4090  -1.3667  -1.2721   0.0787   0.0934
     0.3246   0.3971   0.4256   0.5048   2.7264   2.7777   4.7784   4.8828
     5.3247   5.4290   8.0506   8.2604   9.7646  10.0632  11.6286  11.7902
    12.2149  12.3611  13.8987  13.9499  15.8005  15.8525

     occupation numbers 
     1.0000   1.0000   1.0000   1.0000   1.0000   1.0000   1.0000   1.0000
     1.0000   1.0000   1.0000   1.0000   1.0000   1.0000   1.0000   1.0000
     1.0000   1.0000   1.0000   1.0000   1.0000   1.0000   1.0000   1.0000
     1.0000   1.0000   0.0000   0.0000   0.0000   0.0000   0.0000   0.0000
     0.0000   0.0000   0.0000   0.0000   0.0000   0.0000

          k = 0.4041 0.2020-0.1010 ( 10923 PWs)   bands (ev):

  -108.1515-108.1515 -70.1406 -70.1406 -51.8694 -51.8693 -51.8693 -51.8693
    -4.7364  -4.7338  -1.4474  -1.4027  -1.3200  -1.1844   0.1246   0.1405
     0.3478   0.4294   0.4796   0.5416   2.1708   2.2521   4.5325   4.6314
     5.1692   5.2554   8.1044   8.3139  10.1930  10.4183  11.6050  11.8246
    12.3022  12.5744  14.3521  14.4627  15.8196  15.9600

     occupation numbers 
     1.0000   1.0000   1.0000   1.0000   1.0000   1.0000   1.0000   1.0000
     1.0000   1.0000   1.0000   1.0000   1.0000   1.0000   1.0000   1.0000
     1.0000   1.0000   1.0000   1.0000   1.0000   1.0000   1.0000   1.0000
     1.0000   1.0000   0.0000   0.0000   0.0000   0.0000   0.0000   0.0000
     0.0000   0.0000   0.0000   0.0000   0.0000   0.0000

          k =-0.2525-0.4546 0.5556 ( 10920 PWs)   bands (ev):

  -108.1515-108.1515 -70.1406 -70.1406 -51.8694 -51.8694 -51.8693 -51.8693
    -4.6682  -4.6644  -1.4374  -1.4040  -1.2737  -1.1015   0.1553   0.1713
     0.4164   0.4594   0.5709   0.6122   1.6693   1.7849   4.3578   4.4419
     5.0794   5.1322   8.1133   8.3066  10.5789  10.6960  11.6741  12.0016
    12.4061  12.7849  14.5632  14.8706  15.8994  16.0465

     occupation numbers 
     1.0000   1.0000   1.0000   1.0000   1.0000   1.0000   1.0000   1.0000
     1.0000   1.0000   1.0000   1.0000   1.0000   1.0000   1.0000   1.0000
     1.0000   1.0000   1.0000   1.0000   1.0000   1.0000   1.0000   1.0000
     1.0000   1.0000   0.0000   0.0000   0.0000   0.0000   0.0000   0.0000
     0.0000   0.0000   0.0000   0.0000   0.0000   0.0000

          k =-0.2020-0.4041 0.5051 ( 10910 PWs)   bands (ev):

  -108.1515-108.1515 -70.1406 -70.1406 -51.8694 -51.8694 -51.8693 -51.8693
    -4.6345  -4.6300  -1.4278  -1.4103  -1.2473  -1.0536   0.1641   0.1846
     0.4657   0.4852   0.6608   0.7300   1.3365   1.4916   4.2472   4.3237
     5.0785   5.0999   8.1073   8.2923  10.7335  10.8555  11.7877  12.0371
    12.7147  13.0989  14.3071  14.7528  15.9366  15.9700

     occupation numbers 
     1.0000   1.0000   1.0000   1.0000   1.0000   1.0000   1.0000   1.0000
     1.0000   1.0000   1.0000   1.0000   1.0000   1.0000   1.0000   1.0000
     1.0000   1.0000   1.0000   1.0000   1.0000   1.0000   1.0000   1.0000
     1.0000   1.0000   0.0000   0.0000   0.0000   0.0000   0.0000   0.0000
     0.0000   0.0000   0.0000   0.0000   0.0000   0.0000

          k =-0.1515-0.3536 0.4546 ( 10921 PWs)   bands (ev):

  -108.1515-108.1515 -70.1406 -70.1406 -51.8694 -51.8694 -51.8693 -51.8693
    -4.6429  -4.6384  -1.4238  -1.4166  -1.2537  -1.0623   0.1602   0.1875
     0.4649   0.4841   0.6196   0.6937   1.4099   1.5721   4.2067   4.2911
     5.1492   5.1842   8.1000   8.2884  10.8020  10.9357  11.7258  11.9213
    12.6724  13.0394  14.3356  14.7658  15.6160  15.8338

     occupation numbers 
     1.0000   1.0000   1.0000   1.0000   1.0000   1.0000   1.0000   1.0000
     1.0000   1.0000   1.0000   1.0000   1.0000   1.0000   1.0000   1.0000
     1.0000   1.0000   1.0000   1.0000   1.0000   1.0000   1.0000   1.0000
     1.0000   1.0000   0.0000   0.0000   0.0000   0.0000   0.0000   0.0000
     0.0000   0.0000   0.0000   0.0000   0.0000   0.0000

          k =-0.1010-0.3030 0.4041 ( 10919 PWs)   bands (ev):

  -108.1515-108.1515 -70.1406 -70.1406 -51.8694 -51.8693 -51.8693 -51.8693
    -4.6913  -4.6876  -1.4343  -1.4142  -1.2890  -1.1223   0.1432   0.1768
     0.4167   0.4496   0.5048   0.5842   1.8120   1.9482   4.2617   4.3589
     5.2905   5.3495   8.0822   8.2842  10.7791  10.9662  11.5058  11.6880
    12.2737  12.5827  14.4962  14.7116  15.4223  15.7394

     occupation numbers 
     1.0000   1.0000   1.0000   1.0000   1.0000   1.0000   1.0000   1.0000
     1.0000   1.0000   1.0000   1.0000   1.0000   1.0000   1.0000   1.0000
     1.0000   1.0000   1.0000   1.0000   1.0000   1.0000   1.0000   1.0000
     1.0000   1.0000   0.0000   0.0000   0.0000   0.0000   0.0000   0.0000
     0.0000   0.0000   0.0000   0.0000   0.0000   0.0000

          k =-0.0505-0.2525 0.3536 ( 10913 PWs)   bands (ev):

  -108.1515-108.1515 -70.1406 -70.1406 -51.8694 -51.8693 -51.8693 -51.8693
    -4.7691  -4.7666  -1.4477  -1.4153  -1.3358  -1.2070   0.1073   0.1419
     0.3534   0.4135   0.4322   0.5336   2.3262   2.4299   4.4417   4.5450
     5.4785   5.5533   8.0207   8.2356  10.4633  10.8483  11.3193  11.5566
    12.0140  12.1826  14.2343  14.3513  15.5798  15.8330

     occupation numbers 
     1.0000   1.0000   1.0000   1.0000   1.0000   1.0000   1.0000   1.0000
     1.0000   1.0000   1.0000   1.0000   1.0000   1.0000   1.0000   1.0000
     1.0000   1.0000   1.0000   1.0000   1.0000   1.0000   1.0000   1.0000
     1.0000   1.0000   0.0000   0.0000   0.0000   0.0000   0.0000   0.0000
     0.0000   0.0000   0.0000   0.0000   0.0000   0.0000

          k =-0.0000-0.2020 0.3030 ( 10920 PWs)   bands (ev):

  -108.1515-108.1515 -70.1406 -70.1406 -51.8693 -51.8693 -51.8693 -51.8692
    -4.8596  -4.8582  -1.4618  -1.4218  -1.3767  -1.2889   0.0639   0.0896
     0.3328   0.3892   0.3956   0.4988   2.8532   2.9199   4.7653   4.8622
     5.6705   5.7522   7.8678   8.0659  10.1118  10.5249  11.2435  11.6172
    11.8078  11.9229  14.0448  14.1335  15.4693  15.5637

     occupation numbers 
     1.0000   1.0000   1.0000   1.0000   1.0000   1.0000   1.0000   1.0000
     1.0000   1.0000   1.0000   1.0000   1.0000   1.0000   1.0000   1.0000
     1.0000   1.0000   1.0000   1.0000   1.0000   1.0000   1.0000   1.0000
     1.0000   1.0000   0.0000   0.0000   0.0000   0.0000   0.0000   0.0000
     0.0000   0.0000   0.0000   0.0000   0.0000   0.0000

          k = 0.4041 0.1010 0.0000 ( 10939 PWs)   bands (ev):

  -108.1515-108.1515 -70.1406 -70.1406 -51.8694 -51.8693 -51.8693 -51.8693
    -4.7789  -4.7776  -1.4420  -1.4048  -1.3409  -1.2590   0.0926   0.0976
     0.3271   0.3926   0.4655   0.5141   2.6125   2.6509   4.6881   4.8060
     5.0120   5.1321   8.2175   8.4105   9.3852   9.6041  12.0362  12.2419
    12.6344  12.9180  13.6971  13.7302  16.2208  16.2655

     occupation numbers 
     1.0000   1.0000   1.0000   1.0000   1.0000   1.0000   1.0000   1.0000
     1.0000   1.0000   1.0000   1.0000   1.0000   1.0000   1.0000   1.0000
     1.0000   1.0000   1.0000   1.0000   1.0000   1.0000   1.0000   1.0000
     1.0000   1.0000   0.0000   0.0000   0.0000   0.0000   0.0000   0.0000
     0.0000   0.0000   0.0000   0.0000   0.0000   0.0000

          k = 0.4546 0.1515-0.0505 ( 10911 PWs)   bands (ev):

  -108.1515-108.1515 -70.1406 -70.1406 -51.8694 -51.8693 -51.8693 -51.8693
    -4.7007  -4.6981  -1.4339  -1.3845  -1.3182  -1.1754   0.1329   0.1442
     0.3298   0.4337   0.5082   0.5557   2.1648   2.2399   4.3982   4.5249
     4.8561   4.9702   8.3163   8.5610   9.6255   9.8609  11.8727  12.1383
    12.8686  13.1972  14.2327  14.2864  16.4850  16.5787

     occupation numbers 
     1.0000   1.0000   1.0000   1.0000   1.0000   1.0000   1.0000   1.0000
     1.0000   1.0000   1.0000   1.0000   1.0000   1.0000   1.0000   1.0000
     1.0000   1.0000   1.0000   1.0000   1.0000   1.0000   1.0000   1.0000
     1.0000   1.0000   0.0000   0.0000   0.0000   0.0000   0.0000   0.0000
     0.0000   0.0000   0.0000   0.0000   0.0000   0.0000

          k =-0.2020-0.5051 0.6061 ( 10913 PWs)   bands (ev):

  -108.1515-108.1515 -70.1406 -70.1406 -51.8694 -51.8694 -51.8693 -51.8693
    -4.6363  -4.6320  -1.4250  -1.3728  -1.2933  -1.0897   0.1662   0.1907
     0.3648   0.4661   0.5916   0.6178   1.7278   1.8476   4.1497   4.2530
     4.7819   4.8526   8.3823   8.6232  10.0939  10.2411  11.7728  12.1200
    12.9219  13.2653  14.5245  14.7903  16.5016  16.7994

     occupation numbers 
     1.0000   1.0000   1.0000   1.0000   1.0000   1.0000   1.0000   1.0000
     1.0000   1.0000   1.0000   1.0000   1.0000   1.0000   1.0000   1.0000
     1.0000   1.0000   1.0000   1.0000   1.0000   1.0000   1.0000   1.0000
     1.0000   1.0000   0.0000   0.0000   0.0000   0.0000   0.0000   0.0000
     0.0000   0.0000   0.0000   0.0000   0.0000   0.0000

          k =-0.1515-0.4546 0.5556 ( 10906 PWs)   bands (ev):

  -108.1515-108.1515 -70.1406 -70.1406 -51.8694 -51.8694 -51.8693 -51.8693
    -4.5991  -4.5935  -1.4164  -1.3725  -1.2751  -1.0295   0.1865   0.2085
     0.4320   0.4897   0.6596   0.7378   1.3828   1.5595   3.9545   4.0442
     4.8026   4.8331   8.4133   8.6438  10.5165  10.6289  11.8169  12.2503
    12.8942  13.3054  14.1790  14.5963  16.2993  16.4448

     occupation numbers 
     1.0000   1.0000   1.0000   1.0000   1.0000   1.0000   1.0000   1.0000
     1.0000   1.0000   1.0000   1.0000   1.0000   1.0000   1.0000   1.0000
     1.0000   1.0000   1.0000   1.0000   1.0000   1.0000   1.0000   1.0000
     1.0000   1.0000   0.0000   0.0000   0.0000   0.0000   0.0000   0.0000
     0.0000   0.0000   0.0000   0.0000   0.0000   0.0000

          k =-0.1010-0.4041 0.5051 ( 10917 PWs)   bands (ev):

  -108.1515-108.1515 -70.1406 -70.1406 -51.8694 -51.8694 -51.8693 -51.8693
    -4.5971  -4.5911  -1.4099  -1.3811  -1.2745  -1.0175   0.1916   0.2105
     0.4641   0.4985   0.6667   0.7543   1.3072   1.5328   3.8405   3.9410
     4.8998   4.9322   8.4188   8.6527  10.7357  10.9107  11.8238  12.1517
    12.9820  13.3865  13.8273  14.1584  15.6844  15.8464

     occupation numbers 
     1.0000   1.0000   1.0000   1.0000   1.0000   1.0000   1.0000   1.0000
     1.0000   1.0000   1.0000   1.0000   1.0000   1.0000   1.0000   1.0000
     1.0000   1.0000   1.0000   1.0000   1.0000   1.0000   1.0000   1.0000
     1.0000   1.0000   0.0000   0.0000   0.0000   0.0000   0.0000   0.0000
     0.0000   0.0000   0.0000   0.0000   0.0000   0.0000

          k =-0.0505-0.3536 0.4546 ( 10911 PWs)   bands (ev):

  -108.1515-108.1515 -70.1406 -70.1406 -51.8694 -51.8693 -51.8693 -51.8693
    -4.6306  -4.6252  -1.4088  -1.3961  -1.2912  -1.0562   0.1785   0.2070
     0.4479   0.4778   0.5590   0.6510   1.5655   1.7768   3.8570   3.9743
     5.0637   5.1168   8.3840   8.6317  10.8699  11.0768  11.4902  11.7370
    12.7144  13.0562  14.1876  14.4870  15.2344  15.4502

     occupation numbers 
     1.0000   1.0000   1.0000   1.0000   1.0000   1.0000   1.0000   1.0000
     1.0000   1.0000   1.0000   1.0000   1.0000   1.0000   1.0000   1.0000
     1.0000   1.0000   1.0000   1.0000   1.0000   1.0000   1.0000   1.0000
     1.0000   1.0000   0.0000   0.0000   0.0000   0.0000   0.0000   0.0000
     0.0000   0.0000   0.0000   0.0000   0.0000   0.0000

          k = 0.0000-0.3030 0.4041 ( 10927 PWs)   bands (ev):

  -108.1515-108.1515 -70.1406 -70.1406 -51.8694 -51.8693 -51.8693 -51.8693
    -4.6923  -4.6883  -1.4235  -1.4067  -1.3148  -1.1276   0.1477   0.1858
     0.3895   0.4450   0.4764   0.5762   1.9436   2.1083   4.0527   4.1724
     5.2717   5.3392   8.2654   8.5171  10.7550  11.1415  11.2485  11.3796
    12.3399  12.6099  14.3218  14.4693  15.5351  15.9932

     occupation numbers 
     1.0000   1.0000   1.0000   1.0000   1.0000   1.0000   1.0000   1.0000
     1.0000   1.0000   1.0000   1.0000   1.0000   1.0000   1.0000   1.0000
     1.0000   1.0000   1.0000   1.0000   1.0000   1.0000   1.0000   1.0000
     1.0000   1.0000   0.0000   0.0000   0.0000   0.0000   0.0000   0.0000
     0.0000   0.0000   0.0000   0.0000   0.0000   0.0000

          k = 0.5051 0.1010 0.0000 ( 10918 PWs)   bands (ev):

  -108.1515-108.1515 -70.1406 -70.1406 -51.8694 -51.8694 -51.8693 -51.8693
    -4.6536  -4.6514  -1.4209  -1.3864  -1.2717  -1.1615   0.1341   0.1536
     0.3451   0.4354   0.5573   0.5793   2.0218   2.0741   4.3617   4.5051
     4.6041   4.7421   8.3031   8.4807   9.2799   9.4399  12.4877  12.7767
    13.3714  13.8030  14.1318  14.2690  16.5322  16.6147

     occupation numbers 
     1.0000   1.0000   1.0000   1.0000   1.0000   1.0000   1.0000   1.0000
     1.0000   1.0000   1.0000   1.0000   1.0000   1.0000   1.0000   1.0000
     1.0000   1.0000   1.0000   1.0000   1.0000   1.0000   1.0000   1.0000
     1.0000   1.0000   0.0000   0.0000   0.0000   0.0000   0.0000   0.0000
     0.0000   0.0000   0.0000   0.0000   0.0000   0.0000

          k =-0.1515-0.5556 0.6566 ( 10896 PWs)   bands (ev):

  -108.1515-108.1515 -70.1406 -70.1406 -51.8694 -51.8694 -51.8693 -51.8693
    -4.5993  -4.5953  -1.4140  -1.3656  -1.2666  -1.0807   0.1594   0.2096
     0.3475   0.4751   0.6295   0.6475   1.6744   1.7703   4.1164   4.2414
     4.5159   4.6167   8.4112   8.6420   9.5325   9.7017  12.3332  12.6552
    13.5572  13.9148  14.4784  14.7476  16.6965  16.9072

     occupation numbers 
     1.0000   1.0000   1.0000   1.0000   1.0000   1.0000   1.0000   1.0000
     1.0000   1.0000   1.0000   1.0000   1.0000   1.0000   1.0000   1.0000
     1.0000   1.0000   1.0000   1.0000   1.0000   1.0000   1.0000   1.0000
     1.0000   1.0000   0.0000   0.0000   0.0000   0.0000   0.0000   0.0000
     0.0000   0.0000   0.0000   0.0000   0.0000   0.0000

          k =-0.1010-0.5051 0.6061 ( 10902 PWs)   bands (ev):

  -108.1515-108.1515 -70.1406 -70.1406 -51.8694 -51.8694 -51.8693 -51.8693
    -4.5661  -4.5603  -1.4076  -1.3465  -1.2758  -1.0163   0.1815   0.2484
     0.3847   0.4999   0.6888   0.7676   1.3755   1.5309   3.8743   3.9671
     4.5485   4.5875   8.4952   8.7301  10.0454  10.1359  12.2365  12.6383
    13.3401  13.7122  14.2699  14.7412  16.4655  16.6355

     occupation numbers 
     1.0000   1.0000   1.0000   1.0000   1.0000   1.0000   1.0000   1.0000
     1.0000   1.0000   1.0000   1.0000   1.0000   1.0000   1.0000   1.0000
     1.0000   1.0000   1.0000   1.0000   1.0000   1.0000   1.0000   1.0000
     1.0000   1.0000   0.0000   0.0000   0.0000   0.0000   0.0000   0.0000
     0.0000   0.0000   0.0000   0.0000   0.0000   0.0000

          k =-0.0505-0.4546 0.5556 ( 10910 PWs)   bands (ev):

  -108.1515-108.1515 -70.1406 -70.1406 -51.8694 -51.8694 -51.8693 -51.8693
    -4.5607  -4.5539  -1.4031  -1.3397  -1.2917  -0.9897   0.1975   0.2448
     0.4436   0.5102   0.7194   0.8203   1.2264   1.4608   3.6947   3.7943
     4.6629   4.6837   8.5382   8.7762  10.5193  10.6452  12.1620  12.5727
    13.1175  13.4771  13.7731  14.2362  15.8948  15.9998

     occupation numbers 
     1.0000   1.0000   1.0000   1.0000   1.0000   1.0000   1.0000   1.0000
     1.0000   1.0000   1.0000   1.0000   1.0000   1.0000   1.0000   1.0000
     1.0000   1.0000   1.0000   1.0000   1.0000   1.0000   1.0000   1.0000
     1.0000   1.0000   0.0000   0.0000   0.0000   0.0000   0.0000   0.0000
     0.0000   0.0000   0.0000   0.0000   0.0000   0.0000

          k = 0.0000-0.4041 0.5051 ( 10905 PWs)   bands (ev):

  -108.1515-108.1515 -70.1406 -70.1406 -51.8694 -51.8693 -51.8693 -51.8693
    -4.5839  -4.5773  -1.4026  -1.3610  -1.2950  -1.0063   0.2010   0.2261
     0.4665   0.5022   0.6464   0.7442   1.3340   1.5919   3.6663   3.7843
     4.8393   4.8791   8.5208   8.7712  10.7868  11.0198  11.7906  12.1301
    13.1874  13.4202  13.7685  13.8541  15.4100  15.4938

     occupation numbers 
     1.0000   1.0000   1.0000   1.0000   1.0000   1.0000   1.0000   1.0000
     1.0000   1.0000   1.0000   1.0000   1.0000   1.0000   1.0000   1.0000
     1.0000   1.0000   1.0000   1.0000   1.0000   1.0000   1.0000   1.0000
     1.0000   1.0000   0.0000   0.0000   0.0000   0.0000   0.0000   0.0000
     0.0000   0.0000   0.0000   0.0000   0.0000   0.0000

          k =-0.1010-0.6061 0.7071 ( 10889 PWs)   bands (ev):

  -108.1515-108.1515 -70.1406 -70.1406 -51.8694 -51.8694 -51.8693 -51.8693
    -4.5649  -4.5618  -1.4055  -1.3738  -1.2101  -1.0769   0.1546   0.2026
     0.3752   0.4757   0.6807   0.7049   1.5397   1.6001   4.1532   4.2925
     4.3528   4.4812   8.3110   8.4710   9.1695   9.2979  13.1361  13.3936
    14.0097  14.4090  14.5098  14.8836  16.6590  16.8137

     occupation numbers 
     1.0000   1.0000   1.0000   1.0000   1.0000   1.0000   1.0000   1.0000
     1.0000   1.0000   1.0000   1.0000   1.0000   1.0000   1.0000   1.0000
     1.0000   1.0000   1.0000   1.0000   1.0000   1.0000   1.0000   1.0000
     1.0000   1.0000   0.0000   0.0000   0.0000   0.0000   0.0000   0.0000
     0.0000   0.0000   0.0000   0.0000   0.0000   0.0000

          k =-0.0505-0.5556 0.6566 ( 10889 PWs)   bands (ev):

  -108.1515-108.1515 -70.1406 -70.1406 -51.8694 -51.8694 -51.8693 -51.8693
    -4.5422  -4.5373  -1.4023  -1.3554  -1.2317  -1.0195   0.1694   0.2560
     0.3669   0.5028   0.7368   0.8112   1.3251   1.4277   3.9705   4.0699
     4.3537   4.4190   8.4313   8.6463   9.4639   9.6035  13.0036  13.2958
    13.6561  14.0356  14.6101  15.1029  16.6336  16.7834

     occupation numbers 
     1.0000   1.0000   1.0000   1.0000   1.0000   1.0000   1.0000   1.0000
     1.0000   1.0000   1.0000   1.0000   1.0000   1.0000   1.0000   1.0000
     1.0000   1.0000   1.0000   1.0000   1.0000   1.0000   1.0000   1.0000
     1.0000   1.0000   0.0000   0.0000   0.0000   0.0000   0.0000   0.0000
     0.0000   0.0000   0.0000   0.0000   0.0000   0.0000

          k = 0.0000-0.5051 0.6061 ( 10901 PWs)   bands (ev):

  -108.1515-108.1515 -70.1406 -70.1406 -51.8694 -51.8694 -51.8693 -51.8693
    -4.5409  -4.5345  -1.4010  -1.3358  -1.2699  -0.9884   0.1855   0.2735
     0.3950   0.5139   0.7568   0.8637   1.2109   1.3838   3.7728   3.8583
     4.4780   4.4903   8.5199   8.7477  10.0260  10.0992  12.7775  13.0390
    13.2437  13.4195  14.2832  14.7736  16.2700  16.3313

     occupation numbers 
     1.0000   1.0000   1.0000   1.0000   1.0000   1.0000   1.0000   1.0000
     1.0000   1.0000   1.0000   1.0000   1.0000   1.0000   1.0000   1.0000
     1.0000   1.0000   1.0000   1.0000   1.0000   1.0000   1.0000   1.0000
     1.0000   1.0000   0.0000   0.0000   0.0000   0.0000   0.0000   0.0000
     0.0000   0.0000   0.0000   0.0000   0.0000   0.0000

          k =-0.7071 0.1010 0.0000 ( 10882 PWs)   bands (ev):

  -108.1515-108.1515 -70.1406 -70.1406 -51.8694 -51.8694 -51.8693 -51.8693
    -4.5328  -4.5294  -1.3999  -1.3694  -1.1847  -1.0424   0.1607   0.2213
     0.3915   0.4917   0.7687   0.8219   1.3095   1.3670   4.0834   4.2018
     4.2823   4.3870   8.3097   8.4655   9.1174   9.2391  13.7001  13.7798
    13.9481  14.4132  14.7985  15.2536  16.7345  16.7391

     occupation numbers 
     1.0000   1.0000   1.0000   1.0000   1.0000   1.0000   1.0000   1.0000
     1.0000   1.0000   1.0000   1.0000   1.0000   1.0000   1.0000   1.0000
     1.0000   1.0000   1.0000   1.0000   1.0000   1.0000   1.0000   1.0000
     1.0000   1.0000   0.0000   0.0000   0.0000   0.0000   0.0000   0.0000
     0.0000   0.0000   0.0000   0.0000   0.0000   0.0000

          k = 0.4041 0.2020 0.0000 ( 10926 PWs)   bands (ev):

  -108.1515-108.1515 -70.1406 -70.1406 -51.8694 -51.8693 -51.8693 -51.8693
    -4.7436  -4.7409  -1.4403  -1.3975  -1.3400  -1.1975   0.1191   0.1398
     0.3315   0.4257   0.4575   0.5411   2.3077   2.4052   4.3864   4.5118
     5.1661   5.2671   8.2591   8.5284   9.9284  10.2782  11.4776  11.6834
    12.5186  12.8118  14.0993  14.1916  16.2193  16.3877

     occupation numbers 
     1.0000   1.0000   1.0000   1.0000   1.0000   1.0000   1.0000   1.0000
     1.0000   1.0000   1.0000   1.0000   1.0000   1.0000   1.0000   1.0000
     1.0000   1.0000   1.0000   1.0000   1.0000   1.0000   1.0000   1.0000
     1.0000   1.0000   0.0000   0.0000   0.0000   0.0000   0.0000   0.0000
     0.0000   0.0000   0.0000   0.0000   0.0000   0.0000

          k =-0.2525-0.4546 0.6566 ( 10917 PWs)   bands (ev):

  -108.1515-108.1515 -70.1406 -70.1406 -51.8694 -51.8693 -51.8693 -51.8693
    -4.6695  -4.6654  -1.4247  -1.3905  -1.3086  -1.1140   0.1601   0.1822
     0.3666   0.4544   0.5291   0.5879   1.8695   2.0128   4.1138   4.2415
     4.9937   5.0783   8.3961   8.6755  10.3136  10.6134  11.3456  11.5976
    12.8132  13.1718  14.2871  14.4467  16.0399  16.4299

     occupation numbers 
     1.0000   1.0000   1.0000   1.0000   1.0000   1.0000   1.0000   1.0000
     1.0000   1.0000   1.0000   1.0000   1.0000   1.0000   1.0000   1.0000
     1.0000   1.0000   1.0000   1.0000   1.0000   1.0000   1.0000   1.0000
     1.0000   1.0000   0.0000   0.0000   0.0000   0.0000   0.0000   0.0000
     0.0000   0.0000   0.0000   0.0000   0.0000   0.0000

          k =-0.2020-0.4041 0.6061 ( 10909 PWs)   bands (ev):

  -108.1515-108.1515 -70.1406 -70.1406 -51.8694 -51.8694 -51.8693 -51.8693
    -4.6177  -4.6123  -1.4120  -1.3892  -1.2807  -1.0458   0.1817   0.2064
     0.4292   0.4825   0.6152   0.6858   1.4820   1.6655   3.9715   4.0860
     4.8666   4.9233   8.4596   8.7227  10.6382  10.8422  11.4341  11.7489
    13.0086  13.4180  14.0937  14.4296  15.9539  16.2262

     occupation numbers 
     1.0000   1.0000   1.0000   1.0000   1.0000   1.0000   1.0000   1.0000
     1.0000   1.0000   1.0000   1.0000   1.0000   1.0000   1.0000   1.0000
     1.0000   1.0000   1.0000   1.0000   1.0000   1.0000   1.0000   1.0000
     1.0000   1.0000   0.0000   0.0000   0.0000   0.0000   0.0000   0.0000
     0.0000   0.0000   0.0000   0.0000   0.0000   0.0000

          k =-0.1515-0.3536 0.5556 ( 10914 PWs)   bands (ev):

  -108.1515-108.1515 -70.1406 -70.1406 -51.8694 -51.8694 -51.8693 -51.8693
    -4.5990  -4.5931  -1.4062  -1.3905  -1.2693  -1.0191   0.1871   0.2129
     0.4550   0.4975   0.6796   0.7639   1.2960   1.5034   3.9307   4.0352
     4.8241   4.8595   8.4765   8.7315  10.7036  10.8916  11.6073  11.8992
    13.1675  13.5495  13.8516  14.0716  16.2839  16.3687

     occupation numbers 
     1.0000   1.0000   1.0000   1.0000   1.0000   1.0000   1.0000   1.0000
     1.0000   1.0000   1.0000   1.0000   1.0000   1.0000   1.0000   1.0000
     1.0000   1.0000   1.0000   1.0000   1.0000   1.0000   1.0000   1.0000
     1.0000   1.0000   0.0000   0.0000   0.0000   0.0000   0.0000   0.0000
     0.0000   0.0000   0.0000   0.0000   0.0000   0.0000

          k =-0.2020-0.5051 0.7071 ( 10904 PWs)   bands (ev):

  -108.1515-108.1515 -70.1406 -70.1406 -51.8694 -51.8694 -51.8693 -51.8693
    -4.6367  -4.6325  -1.4178  -1.3718  -1.3011  -1.1002   0.1645   0.1948
     0.3412   0.4650   0.5748   0.6046   1.8170   1.9405   4.1031   4.2585
     4.6787   4.7963   8.5040   8.8133   9.8018  10.0740  11.6674  11.9823
    13.3641  13.7999  14.2698  14.3320  16.5389  16.8400

     occupation numbers 
     1.0000   1.0000   1.0000   1.0000   1.0000   1.0000   1.0000   1.0000
     1.0000   1.0000   1.0000   1.0000   1.0000   1.0000   1.0000   1.0000
     1.0000   1.0000   1.0000   1.0000   1.0000   1.0000   1.0000   1.0000
     1.0000   1.0000   0.0000   0.0000   0.0000   0.0000   0.0000   0.0000
     0.0000   0.0000   0.0000   0.0000   0.0000   0.0000

          k =-0.1515-0.4546 0.6566 ( 10909 PWs)   bands (ev):

  -108.1515-108.1515 -70.1406 -70.1406 -51.8694 -51.8694 -51.8693 -51.8693
    -4.5887  -4.5829  -1.4033  -1.3611  -1.2921  -1.0314   0.1866   0.2401
     0.3788   0.4900   0.6435   0.7038   1.4893   1.6600   3.8984   4.0433
     4.5541   4.6389   8.6476   8.9715  10.2204  10.4332  11.5324  11.9032
    13.4231  13.8596  14.1172  14.5138  16.3250  16.5660

     occupation numbers 
     1.0000   1.0000   1.0000   1.0000   1.0000   1.0000   1.0000   1.0000
     1.0000   1.0000   1.0000   1.0000   1.0000   1.0000   1.0000   1.0000
     1.0000   1.0000   1.0000   1.0000   1.0000   1.0000   1.0000   1.0000
     1.0000   1.0000   0.0000   0.0000   0.0000   0.0000   0.0000   0.0000
     0.0000   0.0000   0.0000   0.0000   0.0000   0.0000

          k =-0.1010-0.4041 0.6061 ( 10907 PWs)   bands (ev):

  -108.1515-108.1515 -70.1406 -70.1406 -51.8694 -51.8694 -51.8693 -51.8693
    -4.5666  -4.5597  -1.3937  -1.3578  -1.2903  -0.9931   0.1972   0.2544
     0.4294   0.5044   0.7004   0.8053   1.2686   1.4840   3.7759   3.9000
     4.5411   4.5824   8.7159   9.0326  10.6257  10.8060  11.5022  11.9185
    13.1023  13.5078  14.0063  14.4777  16.4680  16.6215

     occupation numbers 
     1.0000   1.0000   1.0000   1.0000   1.0000   1.0000   1.0000   1.0000
     1.0000   1.0000   1.0000   1.0000   1.0000   1.0000   1.0000   1.0000
     1.0000   1.0000   1.0000   1.0000   1.0000   1.0000   1.0000   1.0000
     1.0000   1.0000   0.0000   0.0000   0.0000   0.0000   0.0000   0.0000
     0.0000   0.0000   0.0000   0.0000   0.0000   0.0000

          k =-0.0505-0.3536 0.5556 ( 10913 PWs)   bands (ev):

  -108.1515-108.1515 -70.1406 -70.1406 -51.8694 -51.8693 -51.8693 -51.8693
    -4.5749  -4.5681  -1.3912  -1.3661  -1.2935  -0.9991   0.1982   0.2477
     0.4387   0.5014   0.6743   0.7715   1.3104   1.5429   3.7384   3.8685
     4.6247   4.6733   8.7105   9.0315  10.8115  11.0267  11.3062  11.6701
    13.1902  13.6114  13.8352  14.2717  15.9610  16.1271

     occupation numbers 
     1.0000   1.0000   1.0000   1.0000   1.0000   1.0000   1.0000   1.0000
     1.0000   1.0000   1.0000   1.0000   1.0000   1.0000   1.0000   1.0000
     1.0000   1.0000   1.0000   1.0000   1.0000   1.0000   1.0000   1.0000
     1.0000   1.0000   0.0000   0.0000   0.0000   0.0000   0.0000   0.0000
     0.0000   0.0000   0.0000   0.0000   0.0000   0.0000

          k = 0.0000-0.3030 0.5051 ( 10915 PWs)   bands (ev):

  -108.1515-108.1515 -70.1406 -70.1406 -51.8694 -51.8693 -51.8693 -51.8693
    -4.6118  -4.6061  -1.4014  -1.3797  -1.2997  -1.0454   0.1878   0.2224
     0.4034   0.4817   0.5979   0.6616   1.5625   1.7638   3.8382   3.9778
     4.7899   4.8622   8.6117   8.9334  10.6558  10.9198  11.1803  11.4264
    13.3026  13.6762  14.0549  14.1414  15.7517  15.9253

     occupation numbers 
     1.0000   1.0000   1.0000   1.0000   1.0000   1.0000   1.0000   1.0000
     1.0000   1.0000   1.0000   1.0000   1.0000   1.0000   1.0000   1.0000
     1.0000   1.0000   1.0000   1.0000   1.0000   1.0000   1.0000   1.0000
     1.0000   1.0000   0.0000   0.0000   0.0000   0.0000   0.0000   0.0000
     0.0000   0.0000   0.0000   0.0000   0.0000   0.0000

          k =-0.1010-0.5051 0.7071 ( 10911 PWs)   bands (ev):

  -108.1515-108.1515 -70.1406 -70.1406 -51.8694 -51.8694 -51.8693 -51.8693
    -4.5616  -4.5560  -1.4005  -1.3535  -1.2681  -1.0220   0.1790   0.2660
     0.3503   0.4989   0.6856   0.7532   1.4223   1.5538   3.9544   4.1340
     4.3059   4.4371   8.6060   8.9110   9.7137   9.9255  12.1707  12.5369
    13.5646  13.9548  14.5127  14.9414  16.6979  16.8750

     occupation numbers 
     1.0000   1.0000   1.0000   1.0000   1.0000   1.0000   1.0000   1.0000
     1.0000   1.0000   1.0000   1.0000   1.0000   1.0000   1.0000   1.0000
     1.0000   1.0000   1.0000   1.0000   1.0000   1.0000   1.0000   1.0000
     1.0000   1.0000   0.0000   0.0000   0.0000   0.0000   0.0000   0.0000
     0.0000   0.0000   0.0000   0.0000   0.0000   0.0000

          k =-0.0505-0.4546 0.6566 ( 10900 PWs)   bands (ev):

  -108.1515-108.1515 -70.1406 -70.1406 -51.8694 -51.8694 -51.8693 -51.8693
    -4.5435  -4.5365  -1.3901  -1.3388  -1.2874  -0.9822   0.1937   0.2980
     0.3802   0.5110   0.7325   0.8585   1.2379   1.4066   3.8152   3.9498
     4.2993   4.3497   8.7543   9.0845  10.1720  10.3340  12.0147  12.4383
    12.9650  13.2823  14.6868  15.1558  16.6837  16.8644

     occupation numbers 
     1.0000   1.0000   1.0000   1.0000   1.0000   1.0000   1.0000   1.0000
     1.0000   1.0000   1.0000   1.0000   1.0000   1.0000   1.0000   1.0000
     1.0000   1.0000   1.0000   1.0000   1.0000   1.0000   1.0000   1.0000
     1.0000   1.0000   0.0000   0.0000   0.0000   0.0000   0.0000   0.0000
     0.0000   0.0000   0.0000   0.0000   0.0000   0.0000

          k = 0.0000-0.4041 0.6061 ( 10893 PWs)   bands (ev):

  -108.1515-108.1515 -70.1406 -70.1406 -51.8694 -51.8693 -51.8693 -51.8693
    -4.5484  -4.5409  -1.3862  -1.3361  -1.3048  -0.9746   0.2011   0.2822
     0.4270   0.5103   0.7289   0.8605   1.1975   1.4205   3.7058   3.8296
     4.4264   4.4492   8.7993   9.1313  10.6479  10.8079  11.6544  12.0660
    12.8336  13.0553  14.4085  14.8654  16.2575  16.3329

     occupation numbers 
     1.0000   1.0000   1.0000   1.0000   1.0000   1.0000   1.0000   1.0000
     1.0000   1.0000   1.0000   1.0000   1.0000   1.0000   1.0000   1.0000
     1.0000   1.0000   1.0000   1.0000   1.0000   1.0000   1.0000   1.0000
     1.0000   1.0000   0.0000   0.0000   0.0000   0.0000   0.0000   0.0000
     0.0000   0.0000   0.0000   0.0000   0.0000   0.0000

          k =-0.7071 0.2020-0.0000 ( 10890 PWs)   bands (ev):

  -108.1515-108.1515 -70.1406 -70.1406 -51.8694 -51.8694 -51.8693 -51.8693
    -4.5346  -4.5284  -1.3940  -1.3470  -1.2547  -0.9916   0.1826   0.3023
     0.3510   0.5124   0.7572   0.8739   1.2391   1.3563   3.9281   4.1241
     4.1460   4.2788   8.6308   8.9291   9.6762   9.8696  12.7632  13.0142
    13.1767  13.3758  14.9741  15.4209  16.9171  16.9476

     occupation numbers 
     1.0000   1.0000   1.0000   1.0000   1.0000   1.0000   1.0000   1.0000
     1.0000   1.0000   1.0000   1.0000   1.0000   1.0000   1.0000   1.0000
     1.0000   1.0000   1.0000   1.0000   1.0000   1.0000   1.0000   1.0000
     1.0000   1.0000   0.0000   0.0000   0.0000   0.0000   0.0000   0.0000
     0.0000   0.0000   0.0000   0.0000   0.0000   0.0000

          k =-0.1010-0.4041 0.7071 ( 10896 PWs)   bands (ev):

  -108.1515-108.1515 -70.1406 -70.1406 -51.8694 -51.8694 -51.8693 -51.8693
    -4.5557  -4.5486  -1.3825  -1.3503  -1.3003  -0.9861   0.1987   0.2883
     0.3970   0.5047   0.6989   0.8142   1.2852   1.4850   3.7771   3.9352
     4.3474   4.4195   8.8559   9.2478  10.5752  10.7440  11.3396  11.7635
    12.9898  13.3454  14.4890  14.9339  16.4145  16.5365

     occupation numbers 
     1.0000   1.0000   1.0000   1.0000   1.0000   1.0000   1.0000   1.0000
     1.0000   1.0000   1.0000   1.0000   1.0000   1.0000   1.0000   1.0000
     1.0000   1.0000   1.0000   1.0000   1.0000   1.0000   1.0000   1.0000
     1.0000   1.0000   0.0000   0.0000   0.0000   0.0000   0.0000   0.0000
     0.0000   0.0000   0.0000   0.0000   0.0000   0.0000

          k =-0.0505-0.3536 0.6566 ( 10890 PWs)   bands (ev):

  -108.1515-108.1515 -70.1406 -70.1406 -51.8694 -51.8693 -51.8693 -51.8693
    -4.5440  -4.5363  -1.3742  -1.3423  -1.3083  -0.9689   0.2023   0.3066
     0.4101   0.5085   0.7301   0.8809   1.1937   1.3959   3.7551   3.9058
     4.2728   4.3097   8.9283   9.3348  10.8745  11.0170  11.1462  11.7473
    12.6670  12.9259  14.7189  15.1829  16.7072  16.8729

     occupation numbers 
     1.0000   1.0000   1.0000   1.0000   1.0000   1.0000   1.0000   1.0000
     1.0000   1.0000   1.0000   1.0000   1.0000   1.0000   1.0000   1.0000
     1.0000   1.0000   1.0000   1.0000   1.0000   1.0000   1.0000   1.0000
     1.0000   1.0000   0.0000   0.0000   0.0000   0.0000   0.0000   0.0000
     0.0000   0.0000   0.0000   0.0000   0.0000   0.0000

          k =-0.7071 0.3030 0.0000 ( 10878 PWs)   bands (ev):

  -108.1515-108.1515 -70.1406 -70.1406 -51.8694 -51.8694 -51.8693 -51.8693
    -4.5357  -4.5280  -1.3745  -1.3326  -1.3084  -0.9645   0.2011   0.3403
     0.3736   0.5114   0.7455   0.9147   1.1795   1.3436   3.8189   4.0207
     4.1060   4.1743   8.9388   9.3548  10.5375  10.6832  11.6045  12.0920
    12.6338  12.7131  15.0812  15.5194  17.0057  17.1191

     occupation numbers 
     1.0000   1.0000   1.0000   1.0000   1.0000   1.0000   1.0000   1.0000
     1.0000   1.0000   1.0000   1.0000   1.0000   1.0000   1.0000   1.0000
     1.0000   1.0000   1.0000   1.0000   1.0000   1.0000   1.0000   1.0000
     1.0000   1.0000   0.0000   0.0000   0.0000   0.0000   0.0000   0.0000
     0.0000   0.0000   0.0000   0.0000   0.0000   0.0000

     the Fermi energy is     6.5576 ev
     (compare with:     6.5577 eV, computed in scf)

     Writing all to output data dir /home/User/opencode_workspace/DFT/calculations/hgte/production_dos_soc/out/pwscf.save/ :
     XML data file, pseudopotentials, collected wavefunctions

     init_run     :      3.42s CPU      6.12s WALL (       1 calls)
     electrons    :    952.38s CPU   1055.19s WALL (       1 calls)

     Called by init_run:
     wfcinit      :      0.00s CPU      0.00s WALL (       1 calls)
     wfcinit:atom :      0.12s CPU      0.21s WALL (     104 calls)
     wfcinit:wfcr :     25.30s CPU     29.34s WALL (     104 calls)
     potinit      :      0.62s CPU      0.70s WALL (       1 calls)
     hinit0       :      1.34s CPU      1.42s WALL (       1 calls)

     Called by electrons:
     c_bands      :    951.61s CPU   1054.39s WALL (       1 calls)
     v_of_rho     :      0.08s CPU      0.12s WALL (       1 calls)
     v_h          :      0.00s CPU      0.00s WALL (       1 calls)
     v_xc         :      0.08s CPU      0.11s WALL (       1 calls)
     newd         :      1.26s CPU      3.80s WALL (       1 calls)

     Called by c_bands:
     init_us_2    :      0.09s CPU      0.18s WALL (     104 calls)
     cegterg      :    920.22s CPU   1018.00s WALL (     333 calls)

     Called by sum_band:

     Called by *egterg:
     cdiaghg      :     28.31s CPU     29.57s WALL (    5825 calls)
     cegterg:over :     92.07s CPU     96.67s WALL (    5721 calls)
     cegterg:upda :     22.43s CPU     23.79s WALL (    5721 calls)
     cegterg:last :     53.25s CPU     54.84s WALL (    3185 calls)
     h_psi        :    674.99s CPU    761.51s WALL (    6158 calls)
     s_psi        :     13.96s CPU     15.32s WALL (    6158 calls)
     g_psi        :      5.76s CPU      6.11s WALL (    5721 calls)

     Called by h_psi:
     h_psi:calbec :     35.63s CPU     38.89s WALL (    6158 calls)
     vloc_psi     :    623.68s CPU    704.69s WALL (    6158 calls)
                                        0.00s GPU  (    6158 calls)
     add_vuspsi   :     12.42s CPU     13.09s WALL (    6158 calls)

     General routines
     calbec       :     35.60s CPU     38.87s WALL (    6158 calls)
     fft          :      0.29s CPU      0.32s WALL (      19 calls)
     ffts         :      0.41s CPU      0.41s WALL (       4 calls)
     fftw         :    601.11s CPU    678.38s WALL (  483180 calls)
     interpolate  :      0.47s CPU      0.49s WALL (       4 calls)
     davcio       :      0.47s CPU      0.92s WALL (     208 calls)

     Parallel routines

     PWSCF        :  16m 0.64s CPU  17m50.59s WALL


   This run was terminated on:   6:33:32  23Sep2026            

=------------------------------------------------------------------------------=
   JOB DONE.
=------------------------------------------------------------------------------=
