
     Program PWSCF v.7.5 starts on 22Sep2026 at 19: 6: 5 

     This program is part of the open-source Quantum ESPRESSO suite
     for quantum simulation of materials; please cite
         "P. Giannozzi et al., J. Phys.:Condens. Matter 21 395502 (2009);
         "P. Giannozzi et al., J. Phys.:Condens. Matter 29 465901 (2017);
         "P. Giannozzi et al., J. Chem. Phys. 152 154105 (2020);
          URL http://www.quantum-espresso.org", 
     in publications or presentations arising from this work. More details at
     http://www.quantum-espresso.org/quote

     Parallel version (MPI & OpenMP), running on       6 processor cores
     Number of MPI processes:                 6
     Threads/MPI process:                     1

     MPI processes distributed on     1 nodes
     2425 MiB available memory on the printing compute node when the environment starts

     Reading input from pw.in

     Current dimensions of program PWSCF are:
     Max number of different atomic species (ntypx) = 10
     Max number of k-points (npk) =  40000
     Max angular momentum in pseudopotentials (lmaxx) =  4
     file Cd.pbe-n-rrkjus_psl.1.0.0.UPF: wavefunction(s)  4D renormalized
     file Te.pbe-n-rrkjus_psl.1.0.0.UPF: wavefunction(s)  5S renormalized

     Atomic positions and unit cell read from directory:
     /home/User/opencode_workspace/DFT/calculations/cdte/conv_nscf_k10/out/pwscf.save/

     Message from routine setup:
     using ibrav=0 with symmetry is DISCOURAGED, use correct ibrav instead

     R & G space division:  proc/nbgrp/npool/nimage =       6
     Subspace diagonalization in iterative solution of the eigenvalue problem:
     a serial algorithm will be used


     Parallelization info
     --------------------
     sticks:   dense  smooth     PW     G-vecs:    dense   smooth      PW
     Min         414     275     79                13591     7399    1142
     Max         417     276     80                13592     7402    1145
     Sum        2491    1651    475                81547    44399    6855

     Using Slab Decomposition



     bravais-lattice index     =            0
     lattice parameter (alat)  =       8.6615  a.u.
     unit-cell volume          =     459.4769 (a.u.)^3
     number of atoms/cell      =            2
     number of atomic types    =            2
     number of electrons       =        18.00
     number of Kohn-Sham states=           13
     kinetic-energy cutoff     =      80.0000  Ry
     charge density cutoff     =     480.0000  Ry
     Exchange-correlation= PBE
                           (   1   4   3   4   0   0   0)

     celldm(1)=   8.661496  celldm(2)=   0.000000  celldm(3)=   0.000000
     celldm(4)=   0.000000  celldm(5)=   0.000000  celldm(6)=   0.000000

     crystal axes: (cart. coord. in units of alat)
               a(1) = (   0.000000   0.707107   0.707107 )  
               a(2) = (   0.707107   0.000000   0.707107 )  
               a(3) = (   0.707107   0.707107   0.000000 )  

     reciprocal axes: (cart. coord. in units 2 pi/alat)
               b(1) = ( -0.707107  0.707107  0.707107 )  
               b(2) = (  0.707107 -0.707107  0.707107 )  
               b(3) = (  0.707107  0.707107 -0.707107 )  


     PseudoPot. # 1 for Cd read from file:
     /home/User/opencode_workspace/DFT/pseudopotentials/Cd.pbe-n-rrkjus_psl.1.0.0.UPF
     MD5 check sum: a744746c89d2344a134ead0d8ab94e7a
     Pseudo is Ultrasoft + core correction, Zval = 12.0
     Generated using &quot;atomic&quot; code by A. Dal Corso  v.6.3
     Using radial grid of 1239 points,  6 beta functions with: 
                l(1) =   0
                l(2) =   0
                l(3) =   1
                l(4) =   1
                l(5) =   2
                l(6) =   2
     Q(r) pseudized with 0 coefficients 


     PseudoPot. # 2 for Te read from file:
     /home/User/opencode_workspace/DFT/pseudopotentials/Te.pbe-n-rrkjus_psl.1.0.0.UPF
     MD5 check sum: 203a1e86ef55f0cd9de2762a27c58f54
     Pseudo is Ultrasoft + core correction, Zval =  6.0
     Generated using &quot;atomic&quot; code by A. Dal Corso  v.6.3
     Using radial grid of 1245 points,  6 beta functions with: 
                l(1) =   0
                l(2) =   0
                l(3) =   1
                l(4) =   1
                l(5) =   2
                l(6) =   2
     Q(r) pseudized with 0 coefficients 


     atomic species   valence    mass     pseudopotential
     Cd               12.00   112.41400     Cd( 1.00)
     Te                6.00   127.60000     Te( 1.00)

     24 Sym. Ops. (no inversion) found


                                    s                        frac. trans.

      isym =  1     identity                                     

 cryst.   s( 1) = (     1          0          0      )
                  (     0          1          0      )
                  (     0          0          1      )

 cart.    s( 1) = (  1.0000000  0.0000000  0.0000000 )
                  (  0.0000000  1.0000000  0.0000000 )
                  (  0.0000000  0.0000000  1.0000000 )


      isym =  2     180 deg rotation - cart. axis [0,0,1]        

 cryst.   s( 2) = (     0          1         -1      )
                  (     1          0         -1      )
                  (     0          0         -1      )

 cart.    s( 2) = ( -1.0000000  0.0000000  0.0000000 )
                  (  0.0000000 -1.0000000  0.0000000 )
                  (  0.0000000  0.0000000  1.0000000 )


      isym =  3     180 deg rotation - cart. axis [0,1,0]        

 cryst.   s( 3) = (     0         -1          1      )
                  (     0         -1          0      )
                  (     1         -1          0      )

 cart.    s( 3) = ( -1.0000000  0.0000000  0.0000000 )
                  (  0.0000000  1.0000000  0.0000000 )
                  (  0.0000000  0.0000000 -1.0000000 )


      isym =  4     180 deg rotation - cart. axis [1,0,0]        

 cryst.   s( 4) = (    -1          0          0      )
                  (    -1          0          1      )
                  (    -1          1          0      )

 cart.    s( 4) = (  1.0000000  0.0000000  0.0000000 )
                  (  0.0000000 -1.0000000  0.0000000 )
                  (  0.0000000  0.0000000 -1.0000000 )


      isym =  5     120 deg rotation - cart. axis [-1,-1,-1]     

 cryst.   s( 5) = (     0          0          1      )
                  (     1          0          0      )
                  (     0          1          0      )

 cart.    s( 5) = (  0.0000000  1.0000000  0.0000000 )
                  (  0.0000000  0.0000000  1.0000000 )
                  (  1.0000000  0.0000000  0.0000000 )


      isym =  6     120 deg rotation - cart. axis [-1,1,1]       

 cryst.   s( 6) = (     1         -1          0      )
                  (     0         -1          1      )
                  (     0         -1          0      )

 cart.    s( 6) = (  0.0000000 -1.0000000  0.0000000 )
                  (  0.0000000  0.0000000  1.0000000 )
                  ( -1.0000000  0.0000000  0.0000000 )


      isym =  7     120 deg rotation - cart. axis [1,1,-1]       

 cryst.   s( 7) = (    -1          1          0      )
                  (    -1          0          0      )
                  (    -1          0          1      )

 cart.    s( 7) = (  0.0000000  1.0000000  0.0000000 )
                  (  0.0000000  0.0000000 -1.0000000 )
                  ( -1.0000000  0.0000000  0.0000000 )


      isym =  8     120 deg rotation - cart. axis [1,-1,1]       

 cryst.   s( 8) = (     0          0         -1      )
                  (     0          1         -1      )
                  (     1          0         -1      )

 cart.    s( 8) = (  0.0000000 -1.0000000  0.0000000 )
                  (  0.0000000  0.0000000 -1.0000000 )
                  (  1.0000000  0.0000000  0.0000000 )


      isym =  9     120 deg rotation - cart. axis [1,1,1]        

 cryst.   s( 9) = (     0          1          0      )
                  (     0          0          1      )
                  (     1          0          0      )

 cart.    s( 9) = (  0.0000000  0.0000000  1.0000000 )
                  (  1.0000000  0.0000000  0.0000000 )
                  (  0.0000000  1.0000000  0.0000000 )


      isym = 10     120 deg rotation - cart. axis [-1,1,-1]      

 cryst.   s(10) = (    -1          0          1      )
                  (    -1          1          0      )
                  (    -1          0          0      )

 cart.    s(10) = (  0.0000000  0.0000000  1.0000000 )
                  ( -1.0000000  0.0000000  0.0000000 )
                  (  0.0000000 -1.0000000  0.0000000 )


      isym = 11     120 deg rotation - cart. axis [1,-1,-1]      

 cryst.   s(11) = (     1          0         -1      )
                  (     0          0         -1      )
                  (     0          1         -1      )

 cart.    s(11) = (  0.0000000  0.0000000 -1.0000000 )
                  ( -1.0000000  0.0000000  0.0000000 )
                  (  0.0000000  1.0000000  0.0000000 )


      isym = 12     120 deg rotation - cart. axis [-1,-1,1]      

 cryst.   s(12) = (     0         -1          0      )
                  (     1         -1          0      )
                  (     0         -1          1      )

 cart.    s(12) = (  0.0000000  0.0000000 -1.0000000 )
                  (  1.0000000  0.0000000  0.0000000 )
                  (  0.0000000 -1.0000000  0.0000000 )


      isym = 13     inv. 180 deg rotation - cart. axis [1,1,0]   

 cryst.   s(13) = (     1          0         -1      )
                  (     0          1         -1      )
                  (     0          0         -1      )

 cart.    s(13) = (  0.0000000 -1.0000000  0.0000000 )
                  ( -1.0000000  0.0000000  0.0000000 )
                  (  0.0000000  0.0000000  1.0000000 )


      isym = 14     inv. 180 deg rotation - cart. axis [1,-1,0]  

 cryst.   s(14) = (     0          1          0      )
                  (     1          0          0      )
                  (     0          0          1      )

 cart.    s(14) = (  0.0000000  1.0000000  0.0000000 )
                  (  1.0000000  0.0000000  0.0000000 )
                  (  0.0000000  0.0000000  1.0000000 )


      isym = 15     inv.  90 deg rotation - cart. axis [0,0,-1]  

 cryst.   s(15) = (     0         -1          0      )
                  (     0         -1          1      )
                  (     1         -1          0      )

 cart.    s(15) = (  0.0000000 -1.0000000  0.0000000 )
                  (  1.0000000  0.0000000  0.0000000 )
                  (  0.0000000  0.0000000 -1.0000000 )


      isym = 16     inv.  90 deg rotation - cart. axis [0,0,1]   

 cryst.   s(16) = (    -1          0          1      )
                  (    -1          0          0      )
                  (    -1          1          0      )

 cart.    s(16) = (  0.0000000  1.0000000  0.0000000 )
                  ( -1.0000000  0.0000000  0.0000000 )
                  (  0.0000000  0.0000000 -1.0000000 )


      isym = 17     inv. 180 deg rotation - cart. axis [1,0,1]   

 cryst.   s(17) = (     1         -1          0      )
                  (     0         -1          0      )
                  (     0         -1          1      )

 cart.    s(17) = (  0.0000000  0.0000000 -1.0000000 )
                  (  0.0000000  1.0000000  0.0000000 )
                  ( -1.0000000  0.0000000  0.0000000 )


      isym = 18     inv. 180 deg rotation - cart. axis [-1,0,1]  

 cryst.   s(18) = (     0          0          1      )
                  (     0          1          0      )
                  (     1          0          0      )

 cart.    s(18) = (  0.0000000  0.0000000  1.0000000 )
                  (  0.0000000  1.0000000  0.0000000 )
                  (  1.0000000  0.0000000  0.0000000 )


      isym = 19     inv.  90 deg rotation - cart. axis [0,1,0]   

 cryst.   s(19) = (     0          0         -1      )
                  (     1          0         -1      )
                  (     0          1         -1      )

 cart.    s(19) = (  0.0000000  0.0000000 -1.0000000 )
                  (  0.0000000 -1.0000000  0.0000000 )
                  (  1.0000000  0.0000000  0.0000000 )


      isym = 20     inv.  90 deg rotation - cart. axis [0,-1,0]  

 cryst.   s(20) = (    -1          1          0      )
                  (    -1          0          1      )
                  (    -1          0          0      )

 cart.    s(20) = (  0.0000000  0.0000000  1.0000000 )
                  (  0.0000000 -1.0000000  0.0000000 )
                  ( -1.0000000  0.0000000  0.0000000 )


      isym = 21     inv. 180 deg rotation - cart. axis [0,1,1]   

 cryst.   s(21) = (    -1          0          0      )
                  (    -1          1          0      )
                  (    -1          0          1      )

 cart.    s(21) = (  1.0000000  0.0000000  0.0000000 )
                  (  0.0000000  0.0000000 -1.0000000 )
                  (  0.0000000 -1.0000000  0.0000000 )


      isym = 22     inv. 180 deg rotation - cart. axis [0,1,-1]  

 cryst.   s(22) = (     1          0          0      )
                  (     0          0          1      )
                  (     0          1          0      )

 cart.    s(22) = (  1.0000000  0.0000000  0.0000000 )
                  (  0.0000000  0.0000000  1.0000000 )
                  (  0.0000000  1.0000000  0.0000000 )


      isym = 23     inv.  90 deg rotation - cart. axis [-1,0,0]  

 cryst.   s(23) = (     0          1         -1      )
                  (     0          0         -1      )
                  (     1          0         -1      )

 cart.    s(23) = ( -1.0000000  0.0000000  0.0000000 )
                  (  0.0000000  0.0000000 -1.0000000 )
                  (  0.0000000  1.0000000  0.0000000 )


      isym = 24     inv.  90 deg rotation - cart. axis [1,0,0]   

 cryst.   s(24) = (     0         -1          1      )
                  (     1         -1          0      )
                  (     0         -1          0      )

 cart.    s(24) = ( -1.0000000  0.0000000  0.0000000 )
                  (  0.0000000  0.0000000  1.0000000 )
                  (  0.0000000 -1.0000000  0.0000000 )


   Cartesian axes

     site n.     atom                  positions (alat units)
         1        Cd     tau(   1) = (   0.0000000   0.0000000   0.0000000  )
         2        Te     tau(   2) = (   0.3535534   0.3535534   0.3535534  )

   Crystallographic axes

     site n.     atom                  positions (cryst. coord.)
         1        Cd     tau(   1) = (  0.0000000  0.0000000  0.0000000  )
         2        Te     tau(   2) = (  0.2500000  0.2500000  0.2500000  )

     number of k points=    47 (tetrahedron method)
                       cart. coord. in units 2pi/alat
        k(    1) = (   0.0000000   0.0000000   0.0000000), wk =   0.0020000
        k(    2) = (   0.0707107   0.0707107  -0.0707107), wk =   0.0160000
        k(    3) = (   0.1414214   0.1414214  -0.1414214), wk =   0.0160000
        k(    4) = (   0.2121320   0.2121320  -0.2121320), wk =   0.0160000
        k(    5) = (   0.2828427   0.2828427  -0.2828427), wk =   0.0160000
        k(    6) = (  -0.3535534  -0.3535534   0.3535534), wk =   0.0080000
        k(    7) = (   0.1414214   0.0000000   0.0000000), wk =   0.0120000
        k(    8) = (   0.2121320   0.0707107  -0.0707107), wk =   0.0480000
        k(    9) = (   0.2828427   0.1414214  -0.1414214), wk =   0.0480000
        k(   10) = (   0.3535534   0.2121320  -0.2121320), wk =   0.0480000
        k(   11) = (  -0.2828427  -0.4242641   0.4242641), wk =   0.0480000
        k(   12) = (  -0.2121320  -0.3535534   0.3535534), wk =   0.0480000
        k(   13) = (  -0.1414214  -0.2828427   0.2828427), wk =   0.0480000
        k(   14) = (  -0.0707107  -0.2121320   0.2121320), wk =   0.0480000
        k(   15) = (   0.0000000  -0.1414214   0.1414214), wk =   0.0240000
        k(   16) = (   0.2828427   0.0000000   0.0000000), wk =   0.0120000
        k(   17) = (   0.3535534   0.0707107  -0.0707107), wk =   0.0480000
        k(   18) = (   0.4242641   0.1414214  -0.1414214), wk =   0.0480000
        k(   19) = (  -0.2121320  -0.4949747   0.4949747), wk =   0.0480000
        k(   20) = (  -0.1414214  -0.4242641   0.4242641), wk =   0.0480000
        k(   21) = (  -0.0707107  -0.3535534   0.3535534), wk =   0.0480000
        k(   22) = (   0.0000000  -0.2828427   0.2828427), wk =   0.0240000
        k(   23) = (   0.4242641   0.0000000   0.0000000), wk =   0.0120000
        k(   24) = (   0.4949747   0.0707107  -0.0707107), wk =   0.0480000
        k(   25) = (  -0.1414214  -0.5656854   0.5656854), wk =   0.0480000
        k(   26) = (  -0.0707107  -0.4949747   0.4949747), wk =   0.0480000
        k(   27) = (  -0.0000000  -0.4242641   0.4242641), wk =   0.0240000
        k(   28) = (   0.5656854   0.0000000   0.0000000), wk =   0.0120000
        k(   29) = (  -0.0707107  -0.6363961   0.6363961), wk =   0.0480000
        k(   30) = (   0.0000000  -0.5656854   0.5656854), wk =   0.0240000
        k(   31) = (  -0.7071068   0.0000000   0.0000000), wk =   0.0060000
        k(   32) = (   0.2828427   0.1414214   0.0000000), wk =   0.0480000
        k(   33) = (   0.3535534   0.2121320  -0.0707107), wk =   0.0960000
        k(   34) = (  -0.2828427  -0.4242641   0.5656854), wk =   0.0960000
        k(   35) = (  -0.2121320  -0.3535534   0.4949747), wk =   0.0480000
        k(   36) = (   0.4242641   0.1414214  -0.0000000), wk =   0.0480000
        k(   37) = (  -0.2121320  -0.4949747   0.6363961), wk =   0.0960000
        k(   38) = (  -0.1414214  -0.4242641   0.5656854), wk =   0.0960000
        k(   39) = (  -0.0707107  -0.3535534   0.4949747), wk =   0.0960000
        k(   40) = (   0.0000000  -0.2828427   0.4242641), wk =   0.0480000
        k(   41) = (  -0.1414214  -0.5656854   0.7071068), wk =   0.0480000
        k(   42) = (  -0.0707107  -0.4949747   0.6363961), wk =   0.0960000
        k(   43) = (   0.0000000  -0.4242641   0.5656854), wk =   0.0480000
        k(   44) = (  -0.7071068   0.1414214   0.0000000), wk =   0.0240000
        k(   45) = (  -0.1414214  -0.4242641   0.7071068), wk =   0.0480000
        k(   46) = (  -0.0707107  -0.3535534   0.6363961), wk =   0.0480000
        k(   47) = (  -0.7071068   0.2828427   0.0000000), wk =   0.0240000

                       cryst. coord.
        k(    1) = (   0.0000000   0.0000000   0.0000000), wk =   0.0020000
        k(    2) = (   0.0000000   0.0000000   0.1000000), wk =   0.0160000
        k(    3) = (   0.0000000   0.0000000   0.2000000), wk =   0.0160000
        k(    4) = (   0.0000000   0.0000000   0.3000000), wk =   0.0160000
        k(    5) = (   0.0000000   0.0000000   0.4000000), wk =   0.0160000
        k(    6) = (   0.0000000   0.0000000  -0.5000000), wk =   0.0080000
        k(    7) = (   0.0000000   0.1000000   0.1000000), wk =   0.0120000
        k(    8) = (   0.0000000   0.1000000   0.2000000), wk =   0.0480000
        k(    9) = (   0.0000000   0.1000000   0.3000000), wk =   0.0480000
        k(   10) = (   0.0000000   0.1000000   0.4000000), wk =   0.0480000
        k(   11) = (   0.0000000   0.1000000  -0.5000000), wk =   0.0480000
        k(   12) = (   0.0000000   0.1000000  -0.4000000), wk =   0.0480000
        k(   13) = (   0.0000000   0.1000000  -0.3000000), wk =   0.0480000
        k(   14) = (   0.0000000   0.1000000  -0.2000000), wk =   0.0480000
        k(   15) = (   0.0000000   0.1000000  -0.1000000), wk =   0.0240000
        k(   16) = (   0.0000000   0.2000000   0.2000000), wk =   0.0120000
        k(   17) = (   0.0000000   0.2000000   0.3000000), wk =   0.0480000
        k(   18) = (   0.0000000   0.2000000   0.4000000), wk =   0.0480000
        k(   19) = (   0.0000000   0.2000000  -0.5000000), wk =   0.0480000
        k(   20) = (   0.0000000   0.2000000  -0.4000000), wk =   0.0480000
        k(   21) = (   0.0000000   0.2000000  -0.3000000), wk =   0.0480000
        k(   22) = (   0.0000000   0.2000000  -0.2000000), wk =   0.0240000
        k(   23) = (   0.0000000   0.3000000   0.3000000), wk =   0.0120000
        k(   24) = (   0.0000000   0.3000000   0.4000000), wk =   0.0480000
        k(   25) = (   0.0000000   0.3000000  -0.5000000), wk =   0.0480000
        k(   26) = (   0.0000000   0.3000000  -0.4000000), wk =   0.0480000
        k(   27) = (   0.0000000   0.3000000  -0.3000000), wk =   0.0240000
        k(   28) = (   0.0000000   0.4000000   0.4000000), wk =   0.0120000
        k(   29) = (   0.0000000   0.4000000  -0.5000000), wk =   0.0480000
        k(   30) = (   0.0000000   0.4000000  -0.4000000), wk =   0.0240000
        k(   31) = (   0.0000000  -0.5000000  -0.5000000), wk =   0.0060000
        k(   32) = (   0.1000000   0.2000000   0.3000000), wk =   0.0480000
        k(   33) = (   0.1000000   0.2000000   0.4000000), wk =   0.0960000
        k(   34) = (   0.1000000   0.2000000  -0.5000000), wk =   0.0960000
        k(   35) = (   0.1000000   0.2000000  -0.4000000), wk =   0.0480000
        k(   36) = (   0.1000000   0.3000000   0.4000000), wk =   0.0480000
        k(   37) = (   0.1000000   0.3000000  -0.5000000), wk =   0.0960000
        k(   38) = (   0.1000000   0.3000000  -0.4000000), wk =   0.0960000
        k(   39) = (   0.1000000   0.3000000  -0.3000000), wk =   0.0960000
        k(   40) = (   0.1000000   0.3000000  -0.2000000), wk =   0.0480000
        k(   41) = (   0.1000000   0.4000000  -0.5000000), wk =   0.0480000
        k(   42) = (   0.1000000   0.4000000  -0.4000000), wk =   0.0960000
        k(   43) = (   0.1000000   0.4000000  -0.3000000), wk =   0.0480000
        k(   44) = (   0.1000000  -0.5000000  -0.4000000), wk =   0.0240000
        k(   45) = (   0.2000000   0.4000000  -0.4000000), wk =   0.0480000
        k(   46) = (   0.2000000   0.4000000  -0.3000000), wk =   0.0480000
        k(   47) = (   0.2000000  -0.5000000  -0.3000000), wk =   0.0240000

     Dense  grid:    81547 G-vectors     FFT dimensions: (  64,  64,  64)

     Smooth grid:    44399 G-vectors     FFT dimensions: (  50,  50,  50)

     Dynamical RAM for                 wfc:       0.18 MB

     Dynamical RAM for     wfc (w. buffer):       0.18 MB

     Dynamical RAM for           str. fact:       0.41 MB

     Dynamical RAM for           local pot:       0.00 MB

     Dynamical RAM for          nlocal pot:       0.51 MB

     Dynamical RAM for                qrad:       3.52 MB

     Dynamical RAM for          rho,v,vnew:       1.65 MB

     Dynamical RAM for           G-vectors:       0.83 MB

     Dynamical RAM for          h,s,v(r/c):       0.03 MB

     Dynamical RAM for          <psi|beta>:       0.01 MB

     Dynamical RAM for                 psi:       0.37 MB

     Dynamical RAM for                hpsi:       0.37 MB

     Dynamical RAM for                spsi:       0.37 MB

     Dynamical RAM for      wfcinit/wfcrot:       0.37 MB

     Dynamical RAM for           addusdens:      38.78 MB

     Estimated static dynamical RAM per process >       9.45 MB

     Estimated max dynamical RAM per process >      48.23 MB

     Estimated total dynamical RAM >     289.38 MB

     The potential is recalculated from file :
     /home/User/opencode_workspace/DFT/calculations/cdte/conv_nscf_k10/out/pwscf.save/charge-density

     Starting wfcs are   13 randomized atomic wfcs

     Band Structure Calculation
     Davidson diagonalization with overlap

     Computing kpt #:     1  of    47
     total cpu time spent up to now is        1.2 secs

     Computing kpt #:     2  of    47
     total cpu time spent up to now is        1.6 secs

     Computing kpt #:     3  of    47
     total cpu time spent up to now is        1.9 secs

     Computing kpt #:     4  of    47
     total cpu time spent up to now is        2.3 secs

     Computing kpt #:     5  of    47
     total cpu time spent up to now is        2.6 secs

     Computing kpt #:     6  of    47
     total cpu time spent up to now is        3.0 secs

     Computing kpt #:     7  of    47
     total cpu time spent up to now is        3.3 secs

     Computing kpt #:     8  of    47
     total cpu time spent up to now is        3.6 secs

     Computing kpt #:     9  of    47
     total cpu time spent up to now is        4.0 secs

     Computing kpt #:    10  of    47
     total cpu time spent up to now is        4.3 secs

     Computing kpt #:    11  of    47
     total cpu time spent up to now is        4.8 secs

     Computing kpt #:    12  of    47
     total cpu time spent up to now is        5.1 secs

     Computing kpt #:    13  of    47
     total cpu time spent up to now is        5.4 secs

     Computing kpt #:    14  of    47
     total cpu time spent up to now is        5.8 secs

     Computing kpt #:    15  of    47
     total cpu time spent up to now is        6.2 secs

     Computing kpt #:    16  of    47
     total cpu time spent up to now is        6.6 secs

     Computing kpt #:    17  of    47
     total cpu time spent up to now is        7.0 secs

     Computing kpt #:    18  of    47
     total cpu time spent up to now is        7.4 secs

     Computing kpt #:    19  of    47
     total cpu time spent up to now is        7.7 secs

     Computing kpt #:    20  of    47
     total cpu time spent up to now is        8.1 secs

     Computing kpt #:    21  of    47
     total cpu time spent up to now is        8.5 secs

     Computing kpt #:    22  of    47
     total cpu time spent up to now is        8.8 secs

     Computing kpt #:    23  of    47
     total cpu time spent up to now is        9.3 secs

     Computing kpt #:    24  of    47
     total cpu time spent up to now is        9.8 secs

     Computing kpt #:    25  of    47
     total cpu time spent up to now is       10.1 secs

     Computing kpt #:    26  of    47
     total cpu time spent up to now is       10.5 secs

     Computing kpt #:    27  of    47
     total cpu time spent up to now is       10.9 secs

     Computing kpt #:    28  of    47
     total cpu time spent up to now is       11.4 secs

     Computing kpt #:    29  of    47
     total cpu time spent up to now is       11.8 secs

     Computing kpt #:    30  of    47
     total cpu time spent up to now is       12.3 secs

     Computing kpt #:    31  of    47
     total cpu time spent up to now is       12.8 secs

     Computing kpt #:    32  of    47
     total cpu time spent up to now is       13.2 secs

     Computing kpt #:    33  of    47
     total cpu time spent up to now is       13.5 secs

     Computing kpt #:    34  of    47
     total cpu time spent up to now is       14.0 secs

     Computing kpt #:    35  of    47
     total cpu time spent up to now is       14.5 secs

     Computing kpt #:    36  of    47
     total cpu time spent up to now is       14.9 secs

     Computing kpt #:    37  of    47
     total cpu time spent up to now is       15.3 secs

     Computing kpt #:    38  of    47
     total cpu time spent up to now is       15.6 secs

     Computing kpt #:    39  of    47
     total cpu time spent up to now is       16.0 secs

     Computing kpt #:    40  of    47
     total cpu time spent up to now is       16.4 secs

     Computing kpt #:    41  of    47
     total cpu time spent up to now is       16.9 secs

     Computing kpt #:    42  of    47
     total cpu time spent up to now is       17.3 secs

     Computing kpt #:    43  of    47
     total cpu time spent up to now is       17.7 secs

     Computing kpt #:    44  of    47
     total cpu time spent up to now is       18.0 secs

     Computing kpt #:    45  of    47
     total cpu time spent up to now is       18.4 secs

     Computing kpt #:    46  of    47
     total cpu time spent up to now is       18.8 secs

     Computing kpt #:    47  of    47
     total cpu time spent up to now is       19.2 secs

     ethr =  5.56E-13,  avg # of iterations = 67.4

     total cpu time spent up to now is       19.2 secs

     End of band structure calculation

          k = 0.0000 0.0000 0.0000 (  5601 PWs)   bands (ev):

    -6.0544  -3.1526  -3.1526  -3.1526  -2.8918  -2.8918   5.1232   5.1232
     5.1232   5.8897   9.7317   9.7317   9.7317

     occupation numbers 
     1.0000   1.0000   1.0000   1.0000   1.0000   1.0000   1.0000   1.0000
     1.0000   0.0000   0.0000   0.0000   0.0000

          k = 0.0707 0.0707-0.0707 (  5591 PWs)   bands (ev):

    -6.0163  -3.1453  -3.1453  -3.1238  -2.8924  -2.8924   4.2050   5.0320
     5.0320   6.5949   9.6908   9.8756   9.8756

     occupation numbers 
     1.0000   1.0000   1.0000   1.0000   1.0000   1.0000   1.0000   1.0000
     1.0000   0.0000   0.0000   0.0000   0.0000

          k = 0.1414 0.1414-0.1414 (  5549 PWs)   bands (ev):

    -5.9163  -3.1271  -3.1271  -3.0297  -2.8927  -2.8927   2.9783   4.8153
     4.8153   7.0714  10.0597  10.1721  10.1721

     occupation numbers 
     1.0000   1.0000   1.0000   1.0000   1.0000   1.0000   1.0000   1.0000
     1.0000   0.0000   0.0000   0.0000   0.0000

          k = 0.2121 0.2121-0.2121 (  5558 PWs)   bands (ev):

    -5.7928  -3.1071  -3.1071  -2.8900  -2.8900  -2.8600   1.8591   4.5802
     4.5802   7.0812  10.3468  10.3468  11.0286

     occupation numbers 
     1.0000   1.0000   1.0000   1.0000   1.0000   1.0000   1.0000   1.0000
     1.0000   0.0000   0.0000   0.0000   0.0000

          k = 0.2828 0.2828-0.2828 (  5570 PWs)   bands (ev):

    -5.6941  -3.0936  -3.0936  -2.8847  -2.8847  -2.6501   1.0230   4.4092
     4.4092   6.9810  10.3448  10.3448  11.9831

     occupation numbers 
     1.0000   1.0000   1.0000   1.0000   1.0000   1.0000   1.0000   1.0000
     1.0000   0.0000   0.0000   0.0000   0.0000

          k =-0.3536-0.3536 0.3536 (  5564 PWs)   bands (ev):

    -5.6570  -3.0892  -3.0892  -2.8818  -2.8818  -2.5406   0.6955   4.3475
     4.3475   6.9365  10.3201  10.3201  12.2271

     occupation numbers 
     1.0000   1.0000   1.0000   1.0000   1.0000   1.0000   1.0000   1.0000
     1.0000   0.0000   0.0000   0.0000   0.0000

          k = 0.1414 0.0000 0.0000 (  5593 PWs)   bands (ev):

    -6.0037  -3.1384  -3.1384  -3.1233  -2.8963  -2.8887   4.1675   4.8705
     4.8705   6.8690   9.3021  10.1109  10.1109

     occupation numbers 
     1.0000   1.0000   1.0000   1.0000   1.0000   1.0000   1.0000   1.0000
     1.0000   0.0000   0.0000   0.0000   0.0000

          k = 0.2121 0.0707-0.0707 (  5564 PWs)   bands (ev):

    -5.9245  -3.1253  -3.1199  -3.0548  -2.8983  -2.8861   3.2487   4.6142
     4.6755   7.4177   9.2042  10.4784  10.5021

     occupation numbers 
     1.0000   1.0000   1.0000   1.0000   1.0000   1.0000   1.0000   1.0000
     1.0000   0.0000   0.0000   0.0000   0.0000

          k = 0.2828 0.1414-0.1414 (  5563 PWs)   bands (ev):

    -5.8090  -3.1079  -3.0988  -2.9336  -2.8830  -2.8726   2.1798   4.3765
     4.4055   7.5647   9.6452  10.7536  10.7837

     occupation numbers 
     1.0000   1.0000   1.0000   1.0000   1.0000   1.0000   1.0000   1.0000
     1.0000   0.0000   0.0000   0.0000   0.0000

          k = 0.3536 0.2121-0.2121 (  5547 PWs)   bands (ev):

    -5.7026  -3.0925  -3.0840  -2.9028  -2.8799  -2.6909   1.2796   4.1274
     4.2330   7.4866   9.9662  10.7343  11.4390

     occupation numbers 
     1.0000   1.0000   1.0000   1.0000   1.0000   1.0000   1.0000   1.0000
     1.0000   0.0000   0.0000   0.0000   0.0000

          k =-0.2828-0.4243 0.4243 (  5546 PWs)   bands (ev):

    -5.6457  -3.0842  -3.0791  -2.8916  -2.8807  -2.5318   0.7808   3.9308
     4.2190   7.4213  10.0283  10.6065  12.2515

     occupation numbers 
     1.0000   1.0000   1.0000   1.0000   1.0000   1.0000   1.0000   1.0000
     1.0000   0.0000   0.0000   0.0000   0.0000

          k =-0.2121-0.3536 0.3536 (  5546 PWs)   bands (ev):

    -5.6580  -3.0837  -3.0835  -2.8875  -2.8865  -2.5687   0.8892   3.8647
     4.3364   7.4324  10.1328  10.5044  12.1339

     occupation numbers 
     1.0000   1.0000   1.0000   1.0000   1.0000   1.0000   1.0000   1.0000
     1.0000   0.0000   0.0000   0.0000   0.0000

          k =-0.1414-0.2828 0.2828 (  5545 PWs)   bands (ev):

    -5.7352  -3.0976  -3.0907  -2.8956  -2.8910  -2.7585   1.5497   3.9518
     4.5556   7.5039  10.2640  10.4128  11.1805

     occupation numbers 
     1.0000   1.0000   1.0000   1.0000   1.0000   1.0000   1.0000   1.0000
     1.0000   0.0000   0.0000   0.0000   0.0000

          k =-0.0707-0.2121 0.2121 (  5563 PWs)   bands (ev):

    -5.8499  -3.1181  -3.1065  -2.9638  -2.8990  -2.8799   2.5166   4.1976
     4.8123   7.5057   9.9106  10.2127  10.6588

     occupation numbers 
     1.0000   1.0000   1.0000   1.0000   1.0000   1.0000   1.0000   1.0000
     1.0000   0.0000   0.0000   0.0000   0.0000

          k = 0.0000-0.1414 0.1414 (  5563 PWs)   bands (ev):

    -5.9577  -3.1371  -3.1275  -3.0775  -2.8968  -2.8886   3.5220   4.6026
     5.0062   7.1360   9.5629   9.9463  10.3768

     occupation numbers 
     1.0000   1.0000   1.0000   1.0000   1.0000   1.0000   1.0000   1.0000
     1.0000   0.0000   0.0000   0.0000   0.0000

          k = 0.2828 0.0000 0.0000 (  5557 PWs)   bands (ev):

    -5.8711  -3.0998  -3.0998  -3.0358  -2.8964  -2.8806   3.0003   4.3223
     4.3223   7.9006   8.6399  11.0419  11.0419

     occupation numbers 
     1.0000   1.0000   1.0000   1.0000   1.0000   1.0000   1.0000   1.0000
     1.0000   0.0000   0.0000   0.0000   0.0000

          k = 0.3536 0.0707-0.0707 (  5550 PWs)   bands (ev):

    -5.7769  -3.0832  -3.0762  -2.9693  -2.8763  -2.8483   2.2798   4.0021
     4.0629   8.1004   8.7058  11.0939  11.4807

     occupation numbers 
     1.0000   1.0000   1.0000   1.0000   1.0000   1.0000   1.0000   1.0000
     1.0000   0.0000   0.0000   0.0000   0.0000

          k = 0.4243 0.1414-0.1414 (  5555 PWs)   bands (ev):

    -5.6794  -3.0730  -3.0589  -2.9364  -2.8741  -2.6850   1.5088   3.6092
     3.9149   8.0731   9.3214  10.9451  11.5559

     occupation numbers 
     1.0000   1.0000   1.0000   1.0000   1.0000   1.0000   1.0000   1.0000
     1.0000   0.0000   0.0000   0.0000   0.0000

          k =-0.2121-0.4950 0.4950 (  5549 PWs)   bands (ev):

    -5.6160  -3.0680  -3.0527  -2.9168  -2.8772  -2.5057   0.9720   3.2672
     3.9146   8.0426   9.7989  11.3799  11.4405

     occupation numbers 
     1.0000   1.0000   1.0000   1.0000   1.0000   1.0000   1.0000   1.0000
     1.0000   0.0000   0.0000   0.0000   0.0000

          k =-0.1414-0.4243 0.4243 (  5537 PWs)   bands (ev):

    -5.6086  -3.0677  -3.0580  -2.9018  -2.8868  -2.4696   0.8983   3.0790
     4.0615   8.0814   9.9709  11.1527  12.0311

     occupation numbers 
     1.0000   1.0000   1.0000   1.0000   1.0000   1.0000   1.0000   1.0000
     1.0000   0.0000   0.0000   0.0000   0.0000

          k =-0.0707-0.3536 0.3536 (  5543 PWs)   bands (ev):

    -5.6596  -3.0740  -3.0725  -2.8973  -2.8963  -2.6112   1.3091   3.1199
     4.3188   8.1470  10.1679  10.9010  11.1347

     occupation numbers 
     1.0000   1.0000   1.0000   1.0000   1.0000   1.0000   1.0000   1.0000
     1.0000   0.0000   0.0000   0.0000   0.0000

          k = 0.0000-0.2828 0.2828 (  5536 PWs)   bands (ev):

    -5.7514  -3.0972  -3.0851  -2.9045  -2.9017  -2.7945   1.9415   3.4862
     4.6088   8.0359  10.1349  10.5339  10.5479

     occupation numbers 
     1.0000   1.0000   1.0000   1.0000   1.0000   1.0000   1.0000   1.0000
     1.0000   0.0000   0.0000   0.0000   0.0000

          k = 0.4243 0.0000 0.0000 (  5558 PWs)   bands (ev):

    -5.7092  -3.0491  -3.0491  -2.9810  -2.8705  -2.7777   1.9501   3.7747
     3.7747   7.9475   8.3773  12.1847  12.2399

     occupation numbers 
     1.0000   1.0000   1.0000   1.0000   1.0000   1.0000   1.0000   1.0000
     1.0000   0.0000   0.0000   0.0000   0.0000

          k = 0.4950 0.0707-0.0707 (  5548 PWs)   bands (ev):

    -5.6332  -3.0375  -3.0286  -2.9693  -2.8675  -2.6339   1.4448   3.4224
     3.6009   7.9752   8.4616  11.8794  12.6046

     occupation numbers 
     1.0000   1.0000   1.0000   1.0000   1.0000   1.0000   1.0000   1.0000
     1.0000   0.0000   0.0000   0.0000   0.0000

          k =-0.1414-0.5657 0.5657 (  5565 PWs)   bands (ev):

    -5.5786  -3.0411  -3.0209  -2.9477  -2.8709  -2.4652   1.0520   2.9502
     3.5847   8.0162   9.1897  11.7173  12.4639

     occupation numbers 
     1.0000   1.0000   1.0000   1.0000   1.0000   1.0000   1.0000   1.0000
     1.0000   0.0000   0.0000   0.0000   0.0000

          k =-0.0707-0.4950 0.4950 (  5534 PWs)   bands (ev):

    -5.5644  -3.0489  -3.0273  -2.9248  -2.8812  -2.3857   0.9387   2.6074
     3.7299   8.1175  10.0328  11.9392  12.0880

     occupation numbers 
     1.0000   1.0000   1.0000   1.0000   1.0000   1.0000   1.0000   1.0000
     1.0000   0.0000   0.0000   0.0000   0.0000

          k =-0.0000-0.4243 0.4243 (  5550 PWs)   bands (ev):

    -5.5949  -3.0588  -3.0468  -2.9068  -2.8923  -2.4572   1.0909   2.6155
     4.0011   8.2663  10.3401  11.5518  11.5714

     occupation numbers 
     1.0000   1.0000   1.0000   1.0000   1.0000   1.0000   1.0000   1.0000
     1.0000   0.0000   0.0000   0.0000   0.0000

          k = 0.5657 0.0000 0.0000 (  5550 PWs)   bands (ev):

    -5.5827  -3.0054  -3.0054  -2.9901  -2.8624  -2.5362   1.1419   3.3930
     3.3930   7.7209   8.0386  13.2455  13.5141

     occupation numbers 
     1.0000   1.0000   1.0000   1.0000   1.0000   1.0000   1.0000   1.0000
     1.0000   0.0000   0.0000   0.0000   0.0000

          k =-0.0707-0.6364 0.6364 (  5548 PWs)   bands (ev):

    -5.5478  -3.0130  -2.9967  -2.9735  -2.8631  -2.4225   0.9103   3.1006
     3.3443   7.8176   8.2027  13.0741  13.6326

     occupation numbers 
     1.0000   1.0000   1.0000   1.0000   1.0000   1.0000   1.0000   1.0000
     1.0000   0.0000   0.0000   0.0000   0.0000

          k = 0.0000-0.5657 0.5657 (  5554 PWs)   bands (ev):

    -5.5412  -3.0297  -3.0044  -2.9501  -2.8713  -2.3606   0.8835   2.6959
     3.4662   7.9290   9.1175  12.7189  13.0265

     occupation numbers 
     1.0000   1.0000   1.0000   1.0000   1.0000   1.0000   1.0000   1.0000
     1.0000   0.0000   0.0000   0.0000   0.0000

          k =-0.7071 0.0000 0.0000 (  5514 PWs)   bands (ev):

    -5.5360  -2.9964  -2.9880  -2.9880  -2.8592  -2.4029   0.8140   3.2574
     3.2574   7.7239   7.7877  13.9618  14.2982

     occupation numbers 
     1.0000   1.0000   1.0000   1.0000   1.0000   1.0000   1.0000   1.0000
     1.0000   0.0000   0.0000   0.0000   0.0000

          k = 0.2828 0.1414 0.0000 (  5548 PWs)   bands (ev):

    -5.8377  -3.1085  -3.0968  -2.9786  -2.8926  -2.8769   2.5996   4.0423
     4.5683   7.8994   9.1134  10.7091  10.8822

     occupation numbers 
     1.0000   1.0000   1.0000   1.0000   1.0000   1.0000   1.0000   1.0000
     1.0000   0.0000   0.0000   0.0000   0.0000

          k = 0.3536 0.2121-0.0707 (  5552 PWs)   bands (ev):

    -5.7314  -3.0896  -3.0779  -2.9238  -2.8829  -2.7687   1.7931   3.6187
     4.3417   8.0844   9.5515  10.5998  11.2462

     occupation numbers 
     1.0000   1.0000   1.0000   1.0000   1.0000   1.0000   1.0000   1.0000
     1.0000   0.0000   0.0000   0.0000   0.0000

          k =-0.2828-0.4243 0.5657 (  5546 PWs)   bands (ev):

    -5.6471  -3.0760  -3.0668  -2.9083  -2.8817  -2.5764   1.1076   3.4057
     4.1177   8.0509   9.8136  10.8658  11.6413

     occupation numbers 
     1.0000   1.0000   1.0000   1.0000   1.0000   1.0000   1.0000   1.0000
     1.0000   0.0000   0.0000   0.0000   0.0000

          k =-0.2121-0.3536 0.4950 (  5546 PWs)   bands (ev):

    -5.6155  -3.0720  -3.0628  -2.9000  -2.8840  -2.4772   0.8296   3.3448
     4.0258   8.0238   9.7970  10.9887  12.2388

     occupation numbers 
     1.0000   1.0000   1.0000   1.0000   1.0000   1.0000   1.0000   1.0000
     1.0000   0.0000   0.0000   0.0000   0.0000

          k = 0.4243 0.1414-0.0000 (  5546 PWs)   bands (ev):

    -5.6921  -3.0634  -3.0547  -2.9537  -2.8735  -2.7291   1.7582   3.5093
     3.9031   8.3249   8.7028  10.9655  12.1786

     occupation numbers 
     1.0000   1.0000   1.0000   1.0000   1.0000   1.0000   1.0000   1.0000
     1.0000   0.0000   0.0000   0.0000   0.0000

          k =-0.2121-0.4950 0.6364 (  5560 PWs)   bands (ev):

    -5.6167  -3.0537  -3.0417  -2.9372  -2.8749  -2.5508   1.2426   3.1118
     3.7037   8.4218   9.2880  10.7564  12.4478

     occupation numbers 
     1.0000   1.0000   1.0000   1.0000   1.0000   1.0000   1.0000   1.0000
     1.0000   0.0000   0.0000   0.0000   0.0000

          k =-0.1414-0.4243 0.5657 (  5560 PWs)   bands (ev):

    -5.5786  -3.0533  -3.0372  -2.9194  -2.8823  -2.4190   0.9470   2.8408
     3.6607   8.4651   9.8175  11.0136  12.4225

     occupation numbers 
     1.0000   1.0000   1.0000   1.0000   1.0000   1.0000   1.0000   1.0000
     1.0000   0.0000   0.0000   0.0000   0.0000

          k =-0.0707-0.3536 0.4950 (  5558 PWs)   bands (ev):

    -5.5903  -3.0569  -3.0449  -2.9114  -2.8881  -2.4465   1.0276   2.7632
     3.8152   8.5510   9.9503  10.8504  12.4587

     occupation numbers 
     1.0000   1.0000   1.0000   1.0000   1.0000   1.0000   1.0000   1.0000
     1.0000   0.0000   0.0000   0.0000   0.0000

          k = 0.0000-0.2828 0.4243 (  5561 PWs)   bands (ev):

    -5.6479  -3.0677  -3.0608  -2.9179  -2.8848  -2.6026   1.3866   3.0022
     4.0895   8.5266   9.8750  10.2854  11.9335

     occupation numbers 
     1.0000   1.0000   1.0000   1.0000   1.0000   1.0000   1.0000   1.0000
     1.0000   0.0000   0.0000   0.0000   0.0000

          k =-0.1414-0.5657 0.7071 (  5559 PWs)   bands (ev):

    -5.5785  -3.0236  -3.0193  -2.9619  -2.8674  -2.4941   1.1130   3.1695
     3.3691   8.2005   8.4193  11.8714  13.4641

     occupation numbers 
     1.0000   1.0000   1.0000   1.0000   1.0000   1.0000   1.0000   1.0000
     1.0000   0.0000   0.0000   0.0000   0.0000

          k =-0.0707-0.4950 0.6364 (  5551 PWs)   bands (ev):

    -5.5485  -3.0303  -3.0155  -2.9426  -2.8747  -2.3757   0.9368   2.7910
     3.3168   8.3479   9.1723  11.6651  12.8033

     occupation numbers 
     1.0000   1.0000   1.0000   1.0000   1.0000   1.0000   1.0000   1.0000
     1.0000   0.0000   0.0000   0.0000   0.0000

          k = 0.0000-0.4243 0.5657 (  5544 PWs)   bands (ev):

    -5.5532  -3.0425  -3.0240  -2.9229  -2.8854  -2.3584   0.9540   2.5509
     3.5017   8.4956  10.0390  11.3227  12.1380

     occupation numbers 
     1.0000   1.0000   1.0000   1.0000   1.0000   1.0000   1.0000   1.0000
     1.0000   0.0000   0.0000   0.0000   0.0000

          k =-0.7071 0.1414 0.0000 (  5564 PWs)   bands (ev):

    -5.5366  -3.0129  -3.0033  -2.9616  -2.8661  -2.3735   0.8524   3.0914
     3.1326   8.1883   8.2187  13.0291  13.0733

     occupation numbers 
     1.0000   1.0000   1.0000   1.0000   1.0000   1.0000   1.0000   1.0000
     1.0000   0.0000   0.0000   0.0000   0.0000

          k =-0.1414-0.4243 0.7071 (  5562 PWs)   bands (ev):

    -5.5674  -3.0397  -3.0320  -2.9275  -2.8824  -2.4109   1.0378   2.7670
     3.3945   9.0137   9.4987  10.5030  12.7713

     occupation numbers 
     1.0000   1.0000   1.0000   1.0000   1.0000   1.0000   1.0000   1.0000
     1.0000   0.0000   0.0000   0.0000   0.0000

          k =-0.0707-0.3536 0.6364 (  5552 PWs)   bands (ev):

    -5.5489  -3.0379  -3.0258  -2.9194  -2.8891  -2.3477   0.9525   2.6672
     3.2409   9.1245   9.8502  10.6805  11.9073

     occupation numbers 
     1.0000   1.0000   1.0000   1.0000   1.0000   1.0000   1.0000   1.0000
     1.0000   0.0000   0.0000   0.0000   0.0000

          k =-0.7071 0.2828 0.0000 (  5544 PWs)   bands (ev):

    -5.5375  -3.0255  -3.0223  -2.9289  -2.8841  -2.3279   0.9227   2.8392
     2.9511   9.1433   9.3436  11.2536  11.7263

     occupation numbers 
     1.0000   1.0000   1.0000   1.0000   1.0000   1.0000   1.0000   1.0000
     1.0000   0.0000   0.0000   0.0000   0.0000

     the Fermi energy is     5.5728 ev
     (compare with:     5.1232 eV, computed in scf)

     Writing all to output data dir /home/User/opencode_workspace/DFT/calculations/cdte/conv_nscf_k10/out/pwscf.save/ :
     XML data file, pseudopotentials, collected wavefunctions

     init_run     :      0.56s CPU      0.64s WALL (       1 calls)
     electrons    :     16.27s CPU     18.31s WALL (       1 calls)

     Called by init_run:
     wfcinit      :      0.00s CPU      0.00s WALL (       1 calls)
     wfcinit:atom :      0.01s CPU      0.01s WALL (      47 calls)
     wfcinit:wfcr :      0.37s CPU      0.42s WALL (      47 calls)
     potinit      :      0.11s CPU      0.11s WALL (       1 calls)
     hinit0       :      0.29s CPU      0.30s WALL (       1 calls)

     Called by electrons:
     c_bands      :     16.26s CPU     18.30s WALL (       1 calls)
     v_of_rho     :      0.02s CPU      0.02s WALL (       1 calls)
     v_h          :      0.00s CPU      0.00s WALL (       1 calls)
     v_xc         :      0.02s CPU      0.02s WALL (       1 calls)
     newd         :      0.06s CPU      0.12s WALL (       1 calls)

     Called by c_bands:
     init_us_2    :      0.01s CPU      0.01s WALL (      47 calls)
     cegterg      :     15.80s CPU     17.78s WALL (     177 calls)

     Called by sum_band:

     Called by *egterg:
     cdiaghg      :      0.63s CPU      0.67s WALL (    3215 calls)
     cegterg:over :      0.81s CPU      0.87s WALL (    3168 calls)
     cegterg:upda :      0.21s CPU      0.22s WALL (    3168 calls)
     cegterg:last :      0.46s CPU      0.48s WALL (    1808 calls)
     h_psi        :     13.25s CPU     15.10s WALL (    3392 calls)
     s_psi        :      0.21s CPU      0.24s WALL (    3392 calls)
     g_psi        :      0.12s CPU      0.13s WALL (    3168 calls)

     Called by h_psi:
     h_psi:calbec :      0.65s CPU      0.73s WALL (    3392 calls)
     vloc_psi     :     12.29s CPU     14.01s WALL (    3392 calls)
                                        0.00s GPU  (    3392 calls)
     add_vuspsi   :      0.26s CPU      0.29s WALL (    3392 calls)

     General routines
     calbec       :      0.64s CPU      0.72s WALL (    3392 calls)
     fft          :      0.14s CPU      0.15s WALL (      13 calls)
     ffts         :      0.09s CPU      0.09s WALL (       1 calls)
     fftw         :     11.52s CPU     13.14s WALL (   49854 calls)
     interpolate  :      0.09s CPU      0.09s WALL (       1 calls)
     davcio       :      0.01s CPU      0.01s WALL (      94 calls)

     Parallel routines

     PWSCF        :     17.13s CPU     19.34s WALL


   This run was terminated on:  19: 6:24  22Sep2026            

=------------------------------------------------------------------------------=
   JOB DONE.
=------------------------------------------------------------------------------=
