
     Program PWSCF v.7.5 starts on 22Sep2026 at 19: 1:14 

     This program is part of the open-source Quantum ESPRESSO suite
     for quantum simulation of materials; please cite
         "P. Giannozzi et al., J. Phys.:Condens. Matter 21 395502 (2009);
         "P. Giannozzi et al., J. Phys.:Condens. Matter 29 465901 (2017);
         "P. Giannozzi et al., J. Chem. Phys. 152 154105 (2020);
          URL http://www.quantum-espresso.org", 
     in publications or presentations arising from this work. More details at
     http://www.quantum-espresso.org/quote

     Parallel version (MPI & OpenMP), running on       6 processor cores
     Number of MPI processes:                 6
     Threads/MPI process:                     1

     MPI processes distributed on     1 nodes
     3183 MiB available memory on the printing compute node when the environment starts

     Reading input from pw.in

     Current dimensions of program PWSCF are:
     Max number of different atomic species (ntypx) = 10
     Max number of k-points (npk) =  40000
     Max angular momentum in pseudopotentials (lmaxx) =  4
     file Cd.pbe-n-rrkjus_psl.1.0.0.UPF: wavefunction(s)  4D renormalized
     file Te.pbe-n-rrkjus_psl.1.0.0.UPF: wavefunction(s)  5S renormalized

     Atomic positions and unit cell read from directory:
     /home/User/opencode_workspace/DFT/calculations/cdte/conv_nscf_e60/out/pwscf.save/

     Message from routine setup:
     using ibrav=0 with symmetry is DISCOURAGED, use correct ibrav instead

     R & G space division:  proc/nbgrp/npool/nimage =       6
     Subspace diagonalization in iterative solution of the eigenvalue problem:
     a serial algorithm will be used


     Parallelization info
     --------------------
     sticks:   dense  smooth     PW     G-vecs:    dense   smooth      PW
     Min         313     206     61                 8848     4801     773
     Max         314     207     62                 8849     4805     775
     Sum        1879    1237    367                53089    28811    4645

     Using Slab Decomposition



     bravais-lattice index     =            0
     lattice parameter (alat)  =       8.6615  a.u.
     unit-cell volume          =     459.4769 (a.u.)^3
     number of atoms/cell      =            2
     number of atomic types    =            2
     number of electrons       =        18.00
     number of Kohn-Sham states=           13
     kinetic-energy cutoff     =      60.0000  Ry
     charge density cutoff     =     360.0000  Ry
     Exchange-correlation= PBE
                           (   1   4   3   4   0   0   0)

     celldm(1)=   8.661496  celldm(2)=   0.000000  celldm(3)=   0.000000
     celldm(4)=   0.000000  celldm(5)=   0.000000  celldm(6)=   0.000000

     crystal axes: (cart. coord. in units of alat)
               a(1) = (   0.000000   0.707107   0.707107 )  
               a(2) = (   0.707107   0.000000   0.707107 )  
               a(3) = (   0.707107   0.707107   0.000000 )  

     reciprocal axes: (cart. coord. in units 2 pi/alat)
               b(1) = ( -0.707107  0.707107  0.707107 )  
               b(2) = (  0.707107 -0.707107  0.707107 )  
               b(3) = (  0.707107  0.707107 -0.707107 )  


     PseudoPot. # 1 for Cd read from file:
     /home/User/opencode_workspace/DFT/pseudopotentials/Cd.pbe-n-rrkjus_psl.1.0.0.UPF
     MD5 check sum: a744746c89d2344a134ead0d8ab94e7a
     Pseudo is Ultrasoft + core correction, Zval = 12.0
     Generated using &quot;atomic&quot; code by A. Dal Corso  v.6.3
     Using radial grid of 1239 points,  6 beta functions with: 
                l(1) =   0
                l(2) =   0
                l(3) =   1
                l(4) =   1
                l(5) =   2
                l(6) =   2
     Q(r) pseudized with 0 coefficients 


     PseudoPot. # 2 for Te read from file:
     /home/User/opencode_workspace/DFT/pseudopotentials/Te.pbe-n-rrkjus_psl.1.0.0.UPF
     MD5 check sum: 203a1e86ef55f0cd9de2762a27c58f54
     Pseudo is Ultrasoft + core correction, Zval =  6.0
     Generated using &quot;atomic&quot; code by A. Dal Corso  v.6.3
     Using radial grid of 1245 points,  6 beta functions with: 
                l(1) =   0
                l(2) =   0
                l(3) =   1
                l(4) =   1
                l(5) =   2
                l(6) =   2
     Q(r) pseudized with 0 coefficients 


     atomic species   valence    mass     pseudopotential
     Cd               12.00   112.41400     Cd( 1.00)
     Te                6.00   127.60000     Te( 1.00)

     24 Sym. Ops. (no inversion) found


                                    s                        frac. trans.

      isym =  1     identity                                     

 cryst.   s( 1) = (     1          0          0      )
                  (     0          1          0      )
                  (     0          0          1      )

 cart.    s( 1) = (  1.0000000  0.0000000  0.0000000 )
                  (  0.0000000  1.0000000  0.0000000 )
                  (  0.0000000  0.0000000  1.0000000 )


      isym =  2     180 deg rotation - cart. axis [0,0,1]        

 cryst.   s( 2) = (     0          1         -1      )
                  (     1          0         -1      )
                  (     0          0         -1      )

 cart.    s( 2) = ( -1.0000000  0.0000000  0.0000000 )
                  (  0.0000000 -1.0000000  0.0000000 )
                  (  0.0000000  0.0000000  1.0000000 )


      isym =  3     180 deg rotation - cart. axis [0,1,0]        

 cryst.   s( 3) = (     0         -1          1      )
                  (     0         -1          0      )
                  (     1         -1          0      )

 cart.    s( 3) = ( -1.0000000  0.0000000  0.0000000 )
                  (  0.0000000  1.0000000  0.0000000 )
                  (  0.0000000  0.0000000 -1.0000000 )


      isym =  4     180 deg rotation - cart. axis [1,0,0]        

 cryst.   s( 4) = (    -1          0          0      )
                  (    -1          0          1      )
                  (    -1          1          0      )

 cart.    s( 4) = (  1.0000000  0.0000000  0.0000000 )
                  (  0.0000000 -1.0000000  0.0000000 )
                  (  0.0000000  0.0000000 -1.0000000 )


      isym =  5     120 deg rotation - cart. axis [-1,-1,-1]     

 cryst.   s( 5) = (     0          0          1      )
                  (     1          0          0      )
                  (     0          1          0      )

 cart.    s( 5) = (  0.0000000  1.0000000  0.0000000 )
                  (  0.0000000  0.0000000  1.0000000 )
                  (  1.0000000  0.0000000  0.0000000 )


      isym =  6     120 deg rotation - cart. axis [-1,1,1]       

 cryst.   s( 6) = (     1         -1          0      )
                  (     0         -1          1      )
                  (     0         -1          0      )

 cart.    s( 6) = (  0.0000000 -1.0000000  0.0000000 )
                  (  0.0000000  0.0000000  1.0000000 )
                  ( -1.0000000  0.0000000  0.0000000 )


      isym =  7     120 deg rotation - cart. axis [1,1,-1]       

 cryst.   s( 7) = (    -1          1          0      )
                  (    -1          0          0      )
                  (    -1          0          1      )

 cart.    s( 7) = (  0.0000000  1.0000000  0.0000000 )
                  (  0.0000000  0.0000000 -1.0000000 )
                  ( -1.0000000  0.0000000  0.0000000 )


      isym =  8     120 deg rotation - cart. axis [1,-1,1]       

 cryst.   s( 8) = (     0          0         -1      )
                  (     0          1         -1      )
                  (     1          0         -1      )

 cart.    s( 8) = (  0.0000000 -1.0000000  0.0000000 )
                  (  0.0000000  0.0000000 -1.0000000 )
                  (  1.0000000  0.0000000  0.0000000 )


      isym =  9     120 deg rotation - cart. axis [1,1,1]        

 cryst.   s( 9) = (     0          1          0      )
                  (     0          0          1      )
                  (     1          0          0      )

 cart.    s( 9) = (  0.0000000  0.0000000  1.0000000 )
                  (  1.0000000  0.0000000  0.0000000 )
                  (  0.0000000  1.0000000  0.0000000 )


      isym = 10     120 deg rotation - cart. axis [-1,1,-1]      

 cryst.   s(10) = (    -1          0          1      )
                  (    -1          1          0      )
                  (    -1          0          0      )

 cart.    s(10) = (  0.0000000  0.0000000  1.0000000 )
                  ( -1.0000000  0.0000000  0.0000000 )
                  (  0.0000000 -1.0000000  0.0000000 )


      isym = 11     120 deg rotation - cart. axis [1,-1,-1]      

 cryst.   s(11) = (     1          0         -1      )
                  (     0          0         -1      )
                  (     0          1         -1      )

 cart.    s(11) = (  0.0000000  0.0000000 -1.0000000 )
                  ( -1.0000000  0.0000000  0.0000000 )
                  (  0.0000000  1.0000000  0.0000000 )


      isym = 12     120 deg rotation - cart. axis [-1,-1,1]      

 cryst.   s(12) = (     0         -1          0      )
                  (     1         -1          0      )
                  (     0         -1          1      )

 cart.    s(12) = (  0.0000000  0.0000000 -1.0000000 )
                  (  1.0000000  0.0000000  0.0000000 )
                  (  0.0000000 -1.0000000  0.0000000 )


      isym = 13     inv. 180 deg rotation - cart. axis [1,1,0]   

 cryst.   s(13) = (     1          0         -1      )
                  (     0          1         -1      )
                  (     0          0         -1      )

 cart.    s(13) = (  0.0000000 -1.0000000  0.0000000 )
                  ( -1.0000000  0.0000000  0.0000000 )
                  (  0.0000000  0.0000000  1.0000000 )


      isym = 14     inv. 180 deg rotation - cart. axis [1,-1,0]  

 cryst.   s(14) = (     0          1          0      )
                  (     1          0          0      )
                  (     0          0          1      )

 cart.    s(14) = (  0.0000000  1.0000000  0.0000000 )
                  (  1.0000000  0.0000000  0.0000000 )
                  (  0.0000000  0.0000000  1.0000000 )


      isym = 15     inv.  90 deg rotation - cart. axis [0,0,-1]  

 cryst.   s(15) = (     0         -1          0      )
                  (     0         -1          1      )
                  (     1         -1          0      )

 cart.    s(15) = (  0.0000000 -1.0000000  0.0000000 )
                  (  1.0000000  0.0000000  0.0000000 )
                  (  0.0000000  0.0000000 -1.0000000 )


      isym = 16     inv.  90 deg rotation - cart. axis [0,0,1]   

 cryst.   s(16) = (    -1          0          1      )
                  (    -1          0          0      )
                  (    -1          1          0      )

 cart.    s(16) = (  0.0000000  1.0000000  0.0000000 )
                  ( -1.0000000  0.0000000  0.0000000 )
                  (  0.0000000  0.0000000 -1.0000000 )


      isym = 17     inv. 180 deg rotation - cart. axis [1,0,1]   

 cryst.   s(17) = (     1         -1          0      )
                  (     0         -1          0      )
                  (     0         -1          1      )

 cart.    s(17) = (  0.0000000  0.0000000 -1.0000000 )
                  (  0.0000000  1.0000000  0.0000000 )
                  ( -1.0000000  0.0000000  0.0000000 )


      isym = 18     inv. 180 deg rotation - cart. axis [-1,0,1]  

 cryst.   s(18) = (     0          0          1      )
                  (     0          1          0      )
                  (     1          0          0      )

 cart.    s(18) = (  0.0000000  0.0000000  1.0000000 )
                  (  0.0000000  1.0000000  0.0000000 )
                  (  1.0000000  0.0000000  0.0000000 )


      isym = 19     inv.  90 deg rotation - cart. axis [0,1,0]   

 cryst.   s(19) = (     0          0         -1      )
                  (     1          0         -1      )
                  (     0          1         -1      )

 cart.    s(19) = (  0.0000000  0.0000000 -1.0000000 )
                  (  0.0000000 -1.0000000  0.0000000 )
                  (  1.0000000  0.0000000  0.0000000 )


      isym = 20     inv.  90 deg rotation - cart. axis [0,-1,0]  

 cryst.   s(20) = (    -1          1          0      )
                  (    -1          0          1      )
                  (    -1          0          0      )

 cart.    s(20) = (  0.0000000  0.0000000  1.0000000 )
                  (  0.0000000 -1.0000000  0.0000000 )
                  ( -1.0000000  0.0000000  0.0000000 )


      isym = 21     inv. 180 deg rotation - cart. axis [0,1,1]   

 cryst.   s(21) = (    -1          0          0      )
                  (    -1          1          0      )
                  (    -1          0          1      )

 cart.    s(21) = (  1.0000000  0.0000000  0.0000000 )
                  (  0.0000000  0.0000000 -1.0000000 )
                  (  0.0000000 -1.0000000  0.0000000 )


      isym = 22     inv. 180 deg rotation - cart. axis [0,1,-1]  

 cryst.   s(22) = (     1          0          0      )
                  (     0          0          1      )
                  (     0          1          0      )

 cart.    s(22) = (  1.0000000  0.0000000  0.0000000 )
                  (  0.0000000  0.0000000  1.0000000 )
                  (  0.0000000  1.0000000  0.0000000 )


      isym = 23     inv.  90 deg rotation - cart. axis [-1,0,0]  

 cryst.   s(23) = (     0          1         -1      )
                  (     0          0         -1      )
                  (     1          0         -1      )

 cart.    s(23) = ( -1.0000000  0.0000000  0.0000000 )
                  (  0.0000000  0.0000000 -1.0000000 )
                  (  0.0000000  1.0000000  0.0000000 )


      isym = 24     inv.  90 deg rotation - cart. axis [1,0,0]   

 cryst.   s(24) = (     0         -1          1      )
                  (     1         -1          0      )
                  (     0         -1          0      )

 cart.    s(24) = ( -1.0000000  0.0000000  0.0000000 )
                  (  0.0000000  0.0000000  1.0000000 )
                  (  0.0000000 -1.0000000  0.0000000 )


   Cartesian axes

     site n.     atom                  positions (alat units)
         1        Cd     tau(   1) = (   0.0000000   0.0000000   0.0000000  )
         2        Te     tau(   2) = (   0.3535534   0.3535534   0.3535534  )

   Crystallographic axes

     site n.     atom                  positions (cryst. coord.)
         1        Cd     tau(   1) = (  0.0000000  0.0000000  0.0000000  )
         2        Te     tau(   2) = (  0.2500000  0.2500000  0.2500000  )

     number of k points=    29 (tetrahedron method)
                       cart. coord. in units 2pi/alat
        k(    1) = (   0.0000000   0.0000000   0.0000000), wk =   0.0039062
        k(    2) = (   0.0883883   0.0883883  -0.0883883), wk =   0.0312500
        k(    3) = (   0.1767767   0.1767767  -0.1767767), wk =   0.0312500
        k(    4) = (   0.2651650   0.2651650  -0.2651650), wk =   0.0312500
        k(    5) = (  -0.3535534  -0.3535534   0.3535534), wk =   0.0156250
        k(    6) = (   0.1767767   0.0000000   0.0000000), wk =   0.0234375
        k(    7) = (   0.2651650   0.0883883  -0.0883883), wk =   0.0937500
        k(    8) = (   0.3535534   0.1767767  -0.1767767), wk =   0.0937500
        k(    9) = (  -0.2651650  -0.4419417   0.4419417), wk =   0.0937500
        k(   10) = (  -0.1767767  -0.3535534   0.3535534), wk =   0.0937500
        k(   11) = (  -0.0883883  -0.2651650   0.2651650), wk =   0.0937500
        k(   12) = (   0.0000000  -0.1767767   0.1767767), wk =   0.0468750
        k(   13) = (   0.3535534   0.0000000   0.0000000), wk =   0.0234375
        k(   14) = (   0.4419417   0.0883883  -0.0883883), wk =   0.0937500
        k(   15) = (  -0.1767767  -0.5303301   0.5303301), wk =   0.0937500
        k(   16) = (  -0.0883883  -0.4419417   0.4419417), wk =   0.0937500
        k(   17) = (   0.0000000  -0.3535534   0.3535534), wk =   0.0468750
        k(   18) = (   0.5303301   0.0000000   0.0000000), wk =   0.0234375
        k(   19) = (  -0.0883883  -0.6187184   0.6187184), wk =   0.0937500
        k(   20) = (   0.0000000  -0.5303301   0.5303301), wk =   0.0468750
        k(   21) = (  -0.7071068   0.0000000   0.0000000), wk =   0.0117188
        k(   22) = (   0.3535534   0.1767767   0.0000000), wk =   0.0937500
        k(   23) = (  -0.2651650  -0.4419417   0.6187184), wk =   0.1875000
        k(   24) = (  -0.1767767  -0.3535534   0.5303301), wk =   0.0937500
        k(   25) = (  -0.1767767  -0.5303301   0.7071068), wk =   0.0937500
        k(   26) = (  -0.0883883  -0.4419417   0.6187184), wk =   0.1875000
        k(   27) = (   0.0000000  -0.3535534   0.5303301), wk =   0.0937500
        k(   28) = (  -0.7071068   0.1767767   0.0000000), wk =   0.0468750
        k(   29) = (  -0.7071068   0.3535534   0.0000000), wk =   0.0234375

                       cryst. coord.
        k(    1) = (   0.0000000   0.0000000   0.0000000), wk =   0.0039062
        k(    2) = (   0.0000000   0.0000000   0.1250000), wk =   0.0312500
        k(    3) = (   0.0000000   0.0000000   0.2500000), wk =   0.0312500
        k(    4) = (   0.0000000   0.0000000   0.3750000), wk =   0.0312500
        k(    5) = (   0.0000000   0.0000000  -0.5000000), wk =   0.0156250
        k(    6) = (   0.0000000   0.1250000   0.1250000), wk =   0.0234375
        k(    7) = (   0.0000000   0.1250000   0.2500000), wk =   0.0937500
        k(    8) = (   0.0000000   0.1250000   0.3750000), wk =   0.0937500
        k(    9) = (   0.0000000   0.1250000  -0.5000000), wk =   0.0937500
        k(   10) = (   0.0000000   0.1250000  -0.3750000), wk =   0.0937500
        k(   11) = (   0.0000000   0.1250000  -0.2500000), wk =   0.0937500
        k(   12) = (   0.0000000   0.1250000  -0.1250000), wk =   0.0468750
        k(   13) = (   0.0000000   0.2500000   0.2500000), wk =   0.0234375
        k(   14) = (   0.0000000   0.2500000   0.3750000), wk =   0.0937500
        k(   15) = (   0.0000000   0.2500000  -0.5000000), wk =   0.0937500
        k(   16) = (   0.0000000   0.2500000  -0.3750000), wk =   0.0937500
        k(   17) = (   0.0000000   0.2500000  -0.2500000), wk =   0.0468750
        k(   18) = (   0.0000000   0.3750000   0.3750000), wk =   0.0234375
        k(   19) = (   0.0000000   0.3750000  -0.5000000), wk =   0.0937500
        k(   20) = (   0.0000000   0.3750000  -0.3750000), wk =   0.0468750
        k(   21) = (   0.0000000  -0.5000000  -0.5000000), wk =   0.0117188
        k(   22) = (   0.1250000   0.2500000   0.3750000), wk =   0.0937500
        k(   23) = (   0.1250000   0.2500000  -0.5000000), wk =   0.1875000
        k(   24) = (   0.1250000   0.2500000  -0.3750000), wk =   0.0937500
        k(   25) = (   0.1250000   0.3750000  -0.5000000), wk =   0.0937500
        k(   26) = (   0.1250000   0.3750000  -0.3750000), wk =   0.1875000
        k(   27) = (   0.1250000   0.3750000  -0.2500000), wk =   0.0937500
        k(   28) = (   0.1250000  -0.5000000  -0.3750000), wk =   0.0468750
        k(   29) = (   0.2500000  -0.5000000  -0.2500000), wk =   0.0234375

     Dense  grid:    53089 G-vectors     FFT dimensions: (  54,  54,  54)

     Smooth grid:    28811 G-vectors     FFT dimensions: (  45,  45,  45)

     Dynamical RAM for                 wfc:       0.12 MB

     Dynamical RAM for     wfc (w. buffer):       0.12 MB

     Dynamical RAM for           str. fact:       0.27 MB

     Dynamical RAM for           local pot:       0.00 MB

     Dynamical RAM for          nlocal pot:       0.33 MB

     Dynamical RAM for                qrad:       3.05 MB

     Dynamical RAM for          rho,v,vnew:       1.01 MB

     Dynamical RAM for           G-vectors:       0.54 MB

     Dynamical RAM for          h,s,v(r/c):       0.03 MB

     Dynamical RAM for          <psi|beta>:       0.01 MB

     Dynamical RAM for                 psi:       0.24 MB

     Dynamical RAM for                hpsi:       0.24 MB

     Dynamical RAM for                spsi:       0.24 MB

     Dynamical RAM for      wfcinit/wfcrot:       0.24 MB

     Dynamical RAM for           addusdens:      25.25 MB

     Estimated static dynamical RAM per process >       6.72 MB

     Estimated max dynamical RAM per process >      31.97 MB

     Estimated total dynamical RAM >     191.80 MB

     The potential is recalculated from file :
     /home/User/opencode_workspace/DFT/calculations/cdte/conv_nscf_e60/out/pwscf.save/charge-density

     Starting wfcs are   13 randomized atomic wfcs

     Band Structure Calculation
     Davidson diagonalization with overlap

     Computing kpt #:     1  of    29
     total cpu time spent up to now is        1.1 secs

     Computing kpt #:     2  of    29
     total cpu time spent up to now is        1.4 secs

     Computing kpt #:     3  of    29
     total cpu time spent up to now is        1.7 secs

     Computing kpt #:     4  of    29
     total cpu time spent up to now is        2.1 secs

     Computing kpt #:     5  of    29
     total cpu time spent up to now is        2.5 secs

     Computing kpt #:     6  of    29
     total cpu time spent up to now is        2.9 secs

     Computing kpt #:     7  of    29
     total cpu time spent up to now is        3.3 secs

     Computing kpt #:     8  of    29
     total cpu time spent up to now is        3.6 secs

     Computing kpt #:     9  of    29
     total cpu time spent up to now is        3.8 secs

     Computing kpt #:    10  of    29
     total cpu time spent up to now is        4.1 secs

     Computing kpt #:    11  of    29
     total cpu time spent up to now is        4.6 secs

     Computing kpt #:    12  of    29
     total cpu time spent up to now is        5.0 secs

     Computing kpt #:    13  of    29
     total cpu time spent up to now is        5.3 secs

     Computing kpt #:    14  of    29
     total cpu time spent up to now is        5.7 secs

     Computing kpt #:    15  of    29
     total cpu time spent up to now is        6.0 secs

     Computing kpt #:    16  of    29
     total cpu time spent up to now is        6.3 secs

     Computing kpt #:    17  of    29
     total cpu time spent up to now is        6.5 secs

     Computing kpt #:    18  of    29
     total cpu time spent up to now is        7.0 secs

     Computing kpt #:    19  of    29
     total cpu time spent up to now is        7.4 secs

     Computing kpt #:    20  of    29
     c_bands:  1 eigenvalues not converged
     total cpu time spent up to now is        7.8 secs

     Computing kpt #:    21  of    29
     total cpu time spent up to now is        8.2 secs

     Computing kpt #:    22  of    29
     total cpu time spent up to now is        8.6 secs

     Computing kpt #:    23  of    29
     total cpu time spent up to now is        8.9 secs

     Computing kpt #:    24  of    29
     total cpu time spent up to now is        9.2 secs

     Computing kpt #:    25  of    29
     total cpu time spent up to now is        9.6 secs

     Computing kpt #:    26  of    29
     total cpu time spent up to now is        9.9 secs

     Computing kpt #:    27  of    29
     total cpu time spent up to now is       10.3 secs

     Computing kpt #:    28  of    29
     total cpu time spent up to now is       10.6 secs

     Computing kpt #:    29  of    29
     total cpu time spent up to now is       11.0 secs

     ethr =  5.56E-13,  avg # of iterations = 68.6

     total cpu time spent up to now is       11.0 secs

     End of band structure calculation

          k = 0.0000 0.0000 0.0000 (  3695 PWs)   bands (ev):

    -6.0525  -3.1526  -3.1526  -3.1526  -2.8896  -2.8896   5.1245   5.1245
     5.1245   5.8924   9.7327   9.7327   9.7327

     occupation numbers 
     1.0000   1.0000   1.0000   1.0000   1.0000   1.0000   1.0000   1.0000
     1.0000   0.0000   0.0000   0.0000   0.0000

          k = 0.0884 0.0884-0.0884 (  3617 PWs)   bands (ev):

    -5.9942  -3.1414  -3.1414  -3.1070  -2.8904  -2.8904   3.8999   4.9868
     4.9868   6.7715   9.7213   9.9471   9.9471

     occupation numbers 
     1.0000   1.0000   1.0000   1.0000   1.0000   1.0000   1.0000   1.0000
     1.0000   0.0000   0.0000   0.0000   0.0000

          k = 0.1768 0.1768-0.1768 (  3602 PWs)   bands (ev):

    -5.8527  -3.1166  -3.1166  -2.9539  -2.8896  -2.8896   2.3965   4.6953
     4.6953   7.1123  10.2882  10.2882  10.5005

     occupation numbers 
     1.0000   1.0000   1.0000   1.0000   1.0000   1.0000   1.0000   1.0000
     1.0000   0.0000   0.0000   0.0000   0.0000

          k = 0.2652 0.2652-0.2652 (  3615 PWs)   bands (ev):

    -5.7123  -3.0960  -3.0960  -2.8840  -2.8840  -2.7004   1.1957   4.4442
     4.4442   7.0064  10.3549  10.3549  11.8057

     occupation numbers 
     1.0000   1.0000   1.0000   1.0000   1.0000   1.0000   1.0000   1.0000
     1.0000   0.0000   0.0000   0.0000   0.0000

          k =-0.3536-0.3536 0.3536 (  3600 PWs)   bands (ev):

    -5.6553  -3.0889  -3.0889  -2.8798  -2.8798  -2.5405   0.6972   4.3488
     4.3488   6.9390  10.3216  10.3216  12.2345

     occupation numbers 
     1.0000   1.0000   1.0000   1.0000   1.0000   1.0000   1.0000   1.0000
     1.0000   0.0000   0.0000   0.0000   0.0000

          k = 0.1768 0.0000 0.0000 (  3615 PWs)   bands (ev):

    -5.9748  -3.1307  -3.1307  -3.1064  -2.8960  -2.8848   3.8714   4.7488
     4.7488   7.1692   9.1300  10.3064  10.3064

     occupation numbers 
     1.0000   1.0000   1.0000   1.0000   1.0000   1.0000   1.0000   1.0000
     1.0000   0.0000   0.0000   0.0000   0.0000

          k = 0.2652 0.0884-0.0884 (  3613 PWs)   bands (ev):

    -5.8614  -3.1123  -3.1046  -2.9999  -2.8923  -2.8807   2.7466   4.4159
     4.4465   7.7083   9.1375  10.7253  10.8076

     occupation numbers 
     1.0000   1.0000   1.0000   1.0000   1.0000   1.0000   1.0000   1.0000
     1.0000   0.0000   0.0000   0.0000   0.0000

          k = 0.3536 0.1768-0.1768 (  3596 PWs)   bands (ev):

    -5.7214  -3.0925  -3.0816  -2.9127  -2.8769  -2.7447   1.5486   4.0617
     4.1856   7.7034   9.7640  10.9313  11.0521

     occupation numbers 
     1.0000   1.0000   1.0000   1.0000   1.0000   1.0000   1.0000   1.0000
     1.0000   0.0000   0.0000   0.0000   0.0000

          k =-0.2652-0.4419 0.4419 (  3608 PWs)   bands (ev):

    -5.6381  -3.0810  -3.0735  -2.8948  -2.8781  -2.5268   0.8260   3.7594
     4.1548   7.6178   9.9377  10.7621  12.1138

     occupation numbers 
     1.0000   1.0000   1.0000   1.0000   1.0000   1.0000   1.0000   1.0000
     1.0000   0.0000   0.0000   0.0000   0.0000

          k =-0.1768-0.3536 0.3536 (  3609 PWs)   bands (ev):

    -5.6567  -3.0809  -3.0804  -2.8880  -2.8870  -2.5807   0.9893   3.6656
     4.3329   7.6376  10.0918  10.5998  11.9402

     occupation numbers 
     1.0000   1.0000   1.0000   1.0000   1.0000   1.0000   1.0000   1.0000
     1.0000   0.0000   0.0000   0.0000   0.0000

          k =-0.0884-0.2652 0.2652 (  3613 PWs)   bands (ev):

    -5.7676  -3.1026  -3.0921  -2.9000  -2.8971  -2.8194   1.9160   3.8432
     4.6473   7.7034  10.1760  10.4089  10.7739

     occupation numbers 
     1.0000   1.0000   1.0000   1.0000   1.0000   1.0000   1.0000   1.0000
     1.0000   0.0000   0.0000   0.0000   0.0000

          k = 0.0000-0.1768 0.1768 (  3601 PWs)   bands (ev):

    -5.9082  -3.1289  -3.1163  -3.0324  -2.8965  -2.8834   3.0793   4.3466
     4.9363   7.4122   9.6141  10.0639  10.5683

     occupation numbers 
     1.0000   1.0000   1.0000   1.0000   1.0000   1.0000   1.0000   1.0000
     1.0000   0.0000   0.0000   0.0000   0.0000

          k = 0.3536 0.0000 0.0000 (  3591 PWs)   bands (ev):

    -5.7879  -3.0749  -3.0749  -2.9919  -2.8733  -2.8626   2.4563   4.0368
     4.0368   8.0667   8.4628  11.6212  11.6212

     occupation numbers 
     1.0000   1.0000   1.0000   1.0000   1.0000   1.0000   1.0000   1.0000
     1.0000   0.0000   0.0000   0.0000   0.0000

          k = 0.4419 0.0884-0.0884 (  3593 PWs)   bands (ev):

    -5.6771  -3.0574  -3.0473  -2.9573  -2.8688  -2.7107   1.6792   3.5798
     3.7773   8.0948   8.7182  11.3328  12.0662

     occupation numbers 
     1.0000   1.0000   1.0000   1.0000   1.0000   1.0000   1.0000   1.0000
     1.0000   0.0000   0.0000   0.0000   0.0000

          k =-0.1768-0.5303 0.5303 (  3595 PWs)   bands (ev):

    -5.5957  -3.0551  -3.0365  -2.9304  -2.8722  -2.4866   1.0446   3.0441
     3.7457   8.0926   9.6376  11.3272  11.8965

     occupation numbers 
     1.0000   1.0000   1.0000   1.0000   1.0000   1.0000   1.0000   1.0000
     1.0000   0.0000   0.0000   0.0000   0.0000

          k =-0.0884-0.4419 0.4419 (  3601 PWs)   bands (ev):

    -5.5883  -3.0594  -3.0457  -2.9069  -2.8856  -2.4361   0.9665   2.7562
     3.9532   8.1999  10.1445  11.5182  11.8979

     occupation numbers 
     1.0000   1.0000   1.0000   1.0000   1.0000   1.0000   1.0000   1.0000
     1.0000   0.0000   0.0000   0.0000   0.0000

          k = 0.0000-0.3536 0.3536 (  3599 PWs)   bands (ev):

    -5.6582  -3.0722  -3.0701  -2.8970  -2.8963  -2.6180   1.4106   2.9760
     4.3172   8.2656  10.3426  10.7973  10.9930

     occupation numbers 
     1.0000   1.0000   1.0000   1.0000   1.0000   1.0000   1.0000   1.0000
     1.0000   0.0000   0.0000   0.0000   0.0000

          k = 0.5303 0.0000 0.0000 (  3599 PWs)   bands (ev):

    -5.6064  -3.0146  -3.0146  -2.9849  -2.8617  -2.5962   1.3116   3.4688
     3.4688   7.7599   8.1353  12.9605  13.2039

     occupation numbers 
     1.0000   1.0000   1.0000   1.0000   1.0000   1.0000   1.0000   1.0000
     1.0000   0.0000   0.0000   0.0000   0.0000

          k =-0.0884-0.6187 0.6187 (  3599 PWs)   bands (ev):

    -5.5525  -3.0187  -3.0015  -2.9664  -2.8627  -2.4320   0.9548   3.0415
     3.3931   7.8648   8.4221  12.7253  13.3531

     occupation numbers 
     1.0000   1.0000   1.0000   1.0000   1.0000   1.0000   1.0000   1.0000
     1.0000   0.0000   0.0000   0.0000   0.0000

          k = 0.0000-0.5303 0.5303 (  3580 PWs)   bands (ev):

    -5.5458  -3.0378  -3.0130  -2.9360  -2.8745  -2.3571   0.9150   2.5668
     3.5783   8.0194   9.6479  12.4961  12.6221

     occupation numbers 
     1.0000   1.0000   1.0000   1.0000   1.0000   1.0000   1.0000   1.0000
     1.0000   0.0000   0.0000   0.0000   0.0000

          k =-0.7071 0.0000 0.0000 (  3572 PWs)   bands (ev):

    -5.5344  -2.9942  -2.9880  -2.9880  -2.8569  -2.4028   0.8154   3.2588
     3.2588   7.7282   7.7911  13.9684  14.2996

     occupation numbers 
     1.0000   1.0000   1.0000   1.0000   1.0000   1.0000   1.0000   1.0000
     1.0000   0.0000   0.0000   0.0000   0.0000

          k = 0.3536 0.1768 0.0000 (  3610 PWs)   bands (ev):

    -5.7492  -3.0884  -3.0764  -2.9381  -2.8793  -2.8063   2.0367   3.6333
     4.3053   8.2452   9.1208  10.6323  11.4315

     occupation numbers 
     1.0000   1.0000   1.0000   1.0000   1.0000   1.0000   1.0000   1.0000
     1.0000   0.0000   0.0000   0.0000   0.0000

          k =-0.2652-0.4419 0.6187 (  3604 PWs)   bands (ev):

    -5.6396  -3.0685  -3.0584  -2.9171  -2.8788  -2.5827   1.2528   3.1783
     4.0045   8.3779   9.6937  10.5985  11.8815

     occupation numbers 
     1.0000   1.0000   1.0000   1.0000   1.0000   1.0000   1.0000   1.0000
     1.0000   0.0000   0.0000   0.0000   0.0000

          k =-0.1768-0.3536 0.5303 (  3616 PWs)   bands (ev):

    -5.5954  -3.0633  -3.0510  -2.9049  -2.8831  -2.4455   0.8856   3.0569
     3.8565   8.3606   9.7304  11.1186  12.3325

     occupation numbers 
     1.0000   1.0000   1.0000   1.0000   1.0000   1.0000   1.0000   1.0000
     1.0000   0.0000   0.0000   0.0000   0.0000

          k =-0.1768-0.5303 0.7071 (  3603 PWs)   bands (ev):

    -5.5960  -3.0358  -3.0307  -2.9498  -2.8688  -2.5277   1.2163   3.1253
     3.4932   8.4547   8.6956  11.2214  13.1914

     occupation numbers 
     1.0000   1.0000   1.0000   1.0000   1.0000   1.0000   1.0000   1.0000
     1.0000   0.0000   0.0000   0.0000   0.0000

          k =-0.0884-0.4419 0.6187 (  3603 PWs)   bands (ev):

    -5.5532  -3.0384  -3.0236  -2.9277  -2.8791  -2.3733   0.9567   2.7159
     3.3744   8.6209   9.6633  11.0533  12.4985

     occupation numbers 
     1.0000   1.0000   1.0000   1.0000   1.0000   1.0000   1.0000   1.0000
     1.0000   0.0000   0.0000   0.0000   0.0000

          k = 0.0000-0.3536 0.5303 (  3604 PWs)   bands (ev):

    -5.5710  -3.0485  -3.0354  -2.9140  -2.8866  -2.4081   1.0338   2.6276
     3.6198   8.7599  10.1100  10.5609  12.6229

     occupation numbers 
     1.0000   1.0000   1.0000   1.0000   1.0000   1.0000   1.0000   1.0000
     1.0000   0.0000   0.0000   0.0000   0.0000

          k =-0.7071 0.1768 0.0000 (  3596 PWs)   bands (ev):

    -5.5352  -3.0152  -3.0097  -2.9518  -2.8676  -2.3606   0.8719   3.0219
     3.0818   8.4343   8.4364  12.6115  12.6945

     occupation numbers 
     1.0000   1.0000   1.0000   1.0000   1.0000   1.0000   1.0000   1.0000
     1.0000   0.0000   0.0000   0.0000   0.0000

          k =-0.7071 0.3536 0.0000 (  3636 PWs)   bands (ev):

    -5.5361  -3.0291  -3.0227  -2.9194  -2.8878  -2.3202   0.9371   2.7993
     2.9239   9.3824   9.8106  10.7077  11.4440

     occupation numbers 
     1.0000   1.0000   1.0000   1.0000   1.0000   1.0000   1.0000   1.0000
     1.0000   0.0000   0.0000   0.0000   0.0000

     the Fermi energy is     5.5735 ev
     (compare with:     5.1245 eV, computed in scf)

     Writing all to output data dir /home/User/opencode_workspace/DFT/calculations/cdte/conv_nscf_e60/out/pwscf.save/ :
     XML data file, pseudopotentials, collected wavefunctions

     init_run     :      0.49s CPU      0.53s WALL (       1 calls)
     electrons    :      9.02s CPU     10.15s WALL (       1 calls)

     Called by init_run:
     wfcinit      :      0.00s CPU      0.00s WALL (       1 calls)
     wfcinit:atom :      0.00s CPU      0.00s WALL (      29 calls)
     wfcinit:wfcr :      0.21s CPU      0.24s WALL (      29 calls)
     potinit      :      0.08s CPU      0.08s WALL (       1 calls)
     hinit0       :      0.30s CPU      0.31s WALL (       1 calls)

     Called by electrons:
     c_bands      :      9.02s CPU     10.15s WALL (       1 calls)
     v_of_rho     :      0.01s CPU      0.02s WALL (       1 calls)
     v_h          :      0.00s CPU      0.00s WALL (       1 calls)
     v_xc         :      0.01s CPU      0.02s WALL (       1 calls)
     newd         :      0.05s CPU      0.08s WALL (       1 calls)

     Called by c_bands:
     init_us_2    :      0.01s CPU      0.01s WALL (      29 calls)
     cegterg      :      8.77s CPU      9.86s WALL (     111 calls)

     Called by sum_band:

     Called by *egterg:
     cdiaghg      :      0.39s CPU      0.42s WALL (    2017 calls)
     cegterg:over :      0.39s CPU      0.42s WALL (    1988 calls)
     cegterg:upda :      0.09s CPU      0.10s WALL (    1988 calls)
     cegterg:last :      0.19s CPU      0.20s WALL (    1112 calls)
     h_psi        :      7.54s CPU      8.56s WALL (    2128 calls)
     s_psi        :      0.09s CPU      0.10s WALL (    2128 calls)
     g_psi        :      0.05s CPU      0.05s WALL (    1988 calls)

     Called by h_psi:
     h_psi:calbec :      0.33s CPU      0.36s WALL (    2128 calls)
     vloc_psi     :      7.07s CPU      8.04s WALL (    2128 calls)
                                        0.00s GPU  (    2128 calls)
     add_vuspsi   :      0.11s CPU      0.13s WALL (    2128 calls)

     General routines
     calbec       :      0.32s CPU      0.35s WALL (    2128 calls)
     fft          :      0.11s CPU      0.11s WALL (      13 calls)
     ffts         :      0.06s CPU      0.06s WALL (       1 calls)
     fftw         :      6.70s CPU      7.62s WALL (   30874 calls)
     interpolate  :      0.06s CPU      0.07s WALL (       1 calls)
     davcio       :      0.00s CPU      0.00s WALL (      58 calls)

     Parallel routines

     PWSCF        :      9.81s CPU     11.05s WALL


   This run was terminated on:  19: 1:25  22Sep2026            

=------------------------------------------------------------------------------=
   JOB DONE.
=------------------------------------------------------------------------------=
