
     Program PWSCF v.7.5 starts on 22Sep2026 at 19:43:42 

     This program is part of the open-source Quantum ESPRESSO suite
     for quantum simulation of materials; please cite
         "P. Giannozzi et al., J. Phys.:Condens. Matter 21 395502 (2009);
         "P. Giannozzi et al., J. Phys.:Condens. Matter 29 465901 (2017);
         "P. Giannozzi et al., J. Chem. Phys. 152 154105 (2020);
          URL http://www.quantum-espresso.org", 
     in publications or presentations arising from this work. More details at
     http://www.quantum-espresso.org/quote

     Parallel version (MPI & OpenMP), running on       6 processor cores
     Number of MPI processes:                 6
     Threads/MPI process:                     1

     MPI processes distributed on     1 nodes
     1493 MiB available memory on the printing compute node when the environment starts

     Reading input from pw.in

     Current dimensions of program PWSCF are:
     Max number of different atomic species (ntypx) = 10
     Max number of k-points (npk) =  40000
     Max angular momentum in pseudopotentials (lmaxx) =  4
     file Hg.pbe-spn-rrkjus_psl.1.0.0.UPF: wavefunction(s)  5P renormalized
     file Te.pbe-n-rrkjus_psl.1.0.0.UPF: wavefunction(s)  5S renormalized

     Atomic positions and unit cell read from directory:
     /home/User/opencode_workspace/DFT/calculations/hgte/conv_nscf_e110/out/pwscf.save/

     Message from routine setup:
     using ibrav=0 with symmetry is DISCOURAGED, use correct ibrav instead

     R & G space division:  proc/nbgrp/npool/nimage =       6
     Subspace diagonalization in iterative solution of the eigenvalue problem:
     a serial algorithm will be used


     Parallelization info
     --------------------
     sticks:   dense  smooth     PW     G-vecs:    dense   smooth      PW
     Min         566     374    108                21667    11786    1776
     Max         568     375    109                21668    11789    1777
     Sum        3403    2245    649               130005    70721   10657

     Using Slab Decomposition



     bravais-lattice index     =            0
     lattice parameter (alat)  =       8.6227  a.u.
     unit-cell volume          =     453.3375 (a.u.)^3
     number of atoms/cell      =            2
     number of atomic types    =            2
     number of electrons       =        26.00
     number of Kohn-Sham states=           17
     kinetic-energy cutoff     =     110.0000  Ry
     charge density cutoff     =     660.0000  Ry
     Exchange-correlation= PBE
                           (   1   4   3   4   0   0   0)

     celldm(1)=   8.622745  celldm(2)=   0.000000  celldm(3)=   0.000000
     celldm(4)=   0.000000  celldm(5)=   0.000000  celldm(6)=   0.000000

     crystal axes: (cart. coord. in units of alat)
               a(1) = (   0.000000   0.707107   0.707107 )  
               a(2) = (   0.707107   0.000000   0.707107 )  
               a(3) = (   0.707107   0.707107   0.000000 )  

     reciprocal axes: (cart. coord. in units 2 pi/alat)
               b(1) = ( -0.707107  0.707107  0.707107 )  
               b(2) = (  0.707107 -0.707107  0.707107 )  
               b(3) = (  0.707107  0.707107 -0.707107 )  


     PseudoPot. # 1 for Hg read from file:
     /home/User/opencode_workspace/DFT/pseudopotentials/Hg.pbe-spn-rrkjus_psl.1.0.0.UPF
     MD5 check sum: f568566075d917e14d67c96ef6763253
     Pseudo is Ultrasoft + core correction, Zval = 20.0
     Generated using &quot;atomic&quot; code by A. Dal Corso  v.6.3
     Using radial grid of 1279 points,  6 beta functions with: 
                l(1) =   0
                l(2) =   0
                l(3) =   1
                l(4) =   1
                l(5) =   2
                l(6) =   2
     Q(r) pseudized with 0 coefficients 


     PseudoPot. # 2 for Te read from file:
     /home/User/opencode_workspace/DFT/pseudopotentials/Te.pbe-n-rrkjus_psl.1.0.0.UPF
     MD5 check sum: 203a1e86ef55f0cd9de2762a27c58f54
     Pseudo is Ultrasoft + core correction, Zval =  6.0
     Generated using &quot;atomic&quot; code by A. Dal Corso  v.6.3
     Using radial grid of 1245 points,  6 beta functions with: 
                l(1) =   0
                l(2) =   0
                l(3) =   1
                l(4) =   1
                l(5) =   2
                l(6) =   2
     Q(r) pseudized with 0 coefficients 


     atomic species   valence    mass     pseudopotential
     Hg               20.00   200.59200     Hg( 1.00)
     Te                6.00   127.60000     Te( 1.00)

     24 Sym. Ops. (no inversion) found


                                    s                        frac. trans.

      isym =  1     identity                                     

 cryst.   s( 1) = (     1          0          0      )
                  (     0          1          0      )
                  (     0          0          1      )

 cart.    s( 1) = (  1.0000000  0.0000000  0.0000000 )
                  (  0.0000000  1.0000000  0.0000000 )
                  (  0.0000000  0.0000000  1.0000000 )


      isym =  2     180 deg rotation - cart. axis [0,0,1]        

 cryst.   s( 2) = (     0          1         -1      )
                  (     1          0         -1      )
                  (     0          0         -1      )

 cart.    s( 2) = ( -1.0000000  0.0000000  0.0000000 )
                  (  0.0000000 -1.0000000  0.0000000 )
                  (  0.0000000  0.0000000  1.0000000 )


      isym =  3     180 deg rotation - cart. axis [0,1,0]        

 cryst.   s( 3) = (     0         -1          1      )
                  (     0         -1          0      )
                  (     1         -1          0      )

 cart.    s( 3) = ( -1.0000000  0.0000000  0.0000000 )
                  (  0.0000000  1.0000000  0.0000000 )
                  (  0.0000000  0.0000000 -1.0000000 )


      isym =  4     180 deg rotation - cart. axis [1,0,0]        

 cryst.   s( 4) = (    -1          0          0      )
                  (    -1          0          1      )
                  (    -1          1          0      )

 cart.    s( 4) = (  1.0000000  0.0000000  0.0000000 )
                  (  0.0000000 -1.0000000  0.0000000 )
                  (  0.0000000  0.0000000 -1.0000000 )


      isym =  5     120 deg rotation - cart. axis [-1,-1,-1]     

 cryst.   s( 5) = (     0          0          1      )
                  (     1          0          0      )
                  (     0          1          0      )

 cart.    s( 5) = (  0.0000000  1.0000000  0.0000000 )
                  (  0.0000000  0.0000000  1.0000000 )
                  (  1.0000000  0.0000000  0.0000000 )


      isym =  6     120 deg rotation - cart. axis [-1,1,1]       

 cryst.   s( 6) = (     1         -1          0      )
                  (     0         -1          1      )
                  (     0         -1          0      )

 cart.    s( 6) = (  0.0000000 -1.0000000  0.0000000 )
                  (  0.0000000  0.0000000  1.0000000 )
                  ( -1.0000000  0.0000000  0.0000000 )


      isym =  7     120 deg rotation - cart. axis [1,1,-1]       

 cryst.   s( 7) = (    -1          1          0      )
                  (    -1          0          0      )
                  (    -1          0          1      )

 cart.    s( 7) = (  0.0000000  1.0000000  0.0000000 )
                  (  0.0000000  0.0000000 -1.0000000 )
                  ( -1.0000000  0.0000000  0.0000000 )


      isym =  8     120 deg rotation - cart. axis [1,-1,1]       

 cryst.   s( 8) = (     0          0         -1      )
                  (     0          1         -1      )
                  (     1          0         -1      )

 cart.    s( 8) = (  0.0000000 -1.0000000  0.0000000 )
                  (  0.0000000  0.0000000 -1.0000000 )
                  (  1.0000000  0.0000000  0.0000000 )


      isym =  9     120 deg rotation - cart. axis [1,1,1]        

 cryst.   s( 9) = (     0          1          0      )
                  (     0          0          1      )
                  (     1          0          0      )

 cart.    s( 9) = (  0.0000000  0.0000000  1.0000000 )
                  (  1.0000000  0.0000000  0.0000000 )
                  (  0.0000000  1.0000000  0.0000000 )


      isym = 10     120 deg rotation - cart. axis [-1,1,-1]      

 cryst.   s(10) = (    -1          0          1      )
                  (    -1          1          0      )
                  (    -1          0          0      )

 cart.    s(10) = (  0.0000000  0.0000000  1.0000000 )
                  ( -1.0000000  0.0000000  0.0000000 )
                  (  0.0000000 -1.0000000  0.0000000 )


      isym = 11     120 deg rotation - cart. axis [1,-1,-1]      

 cryst.   s(11) = (     1          0         -1      )
                  (     0          0         -1      )
                  (     0          1         -1      )

 cart.    s(11) = (  0.0000000  0.0000000 -1.0000000 )
                  ( -1.0000000  0.0000000  0.0000000 )
                  (  0.0000000  1.0000000  0.0000000 )


      isym = 12     120 deg rotation - cart. axis [-1,-1,1]      

 cryst.   s(12) = (     0         -1          0      )
                  (     1         -1          0      )
                  (     0         -1          1      )

 cart.    s(12) = (  0.0000000  0.0000000 -1.0000000 )
                  (  1.0000000  0.0000000  0.0000000 )
                  (  0.0000000 -1.0000000  0.0000000 )


      isym = 13     inv. 180 deg rotation - cart. axis [1,1,0]   

 cryst.   s(13) = (     1          0         -1      )
                  (     0          1         -1      )
                  (     0          0         -1      )

 cart.    s(13) = (  0.0000000 -1.0000000  0.0000000 )
                  ( -1.0000000  0.0000000  0.0000000 )
                  (  0.0000000  0.0000000  1.0000000 )


      isym = 14     inv. 180 deg rotation - cart. axis [1,-1,0]  

 cryst.   s(14) = (     0          1          0      )
                  (     1          0          0      )
                  (     0          0          1      )

 cart.    s(14) = (  0.0000000  1.0000000  0.0000000 )
                  (  1.0000000  0.0000000  0.0000000 )
                  (  0.0000000  0.0000000  1.0000000 )


      isym = 15     inv.  90 deg rotation - cart. axis [0,0,-1]  

 cryst.   s(15) = (     0         -1          0      )
                  (     0         -1          1      )
                  (     1         -1          0      )

 cart.    s(15) = (  0.0000000 -1.0000000  0.0000000 )
                  (  1.0000000  0.0000000  0.0000000 )
                  (  0.0000000  0.0000000 -1.0000000 )


      isym = 16     inv.  90 deg rotation - cart. axis [0,0,1]   

 cryst.   s(16) = (    -1          0          1      )
                  (    -1          0          0      )
                  (    -1          1          0      )

 cart.    s(16) = (  0.0000000  1.0000000  0.0000000 )
                  ( -1.0000000  0.0000000  0.0000000 )
                  (  0.0000000  0.0000000 -1.0000000 )


      isym = 17     inv. 180 deg rotation - cart. axis [1,0,1]   

 cryst.   s(17) = (     1         -1          0      )
                  (     0         -1          0      )
                  (     0         -1          1      )

 cart.    s(17) = (  0.0000000  0.0000000 -1.0000000 )
                  (  0.0000000  1.0000000  0.0000000 )
                  ( -1.0000000  0.0000000  0.0000000 )


      isym = 18     inv. 180 deg rotation - cart. axis [-1,0,1]  

 cryst.   s(18) = (     0          0          1      )
                  (     0          1          0      )
                  (     1          0          0      )

 cart.    s(18) = (  0.0000000  0.0000000  1.0000000 )
                  (  0.0000000  1.0000000  0.0000000 )
                  (  1.0000000  0.0000000  0.0000000 )


      isym = 19     inv.  90 deg rotation - cart. axis [0,1,0]   

 cryst.   s(19) = (     0          0         -1      )
                  (     1          0         -1      )
                  (     0          1         -1      )

 cart.    s(19) = (  0.0000000  0.0000000 -1.0000000 )
                  (  0.0000000 -1.0000000  0.0000000 )
                  (  1.0000000  0.0000000  0.0000000 )


      isym = 20     inv.  90 deg rotation - cart. axis [0,-1,0]  

 cryst.   s(20) = (    -1          1          0      )
                  (    -1          0          1      )
                  (    -1          0          0      )

 cart.    s(20) = (  0.0000000  0.0000000  1.0000000 )
                  (  0.0000000 -1.0000000  0.0000000 )
                  ( -1.0000000  0.0000000  0.0000000 )


      isym = 21     inv. 180 deg rotation - cart. axis [0,1,1]   

 cryst.   s(21) = (    -1          0          0      )
                  (    -1          1          0      )
                  (    -1          0          1      )

 cart.    s(21) = (  1.0000000  0.0000000  0.0000000 )
                  (  0.0000000  0.0000000 -1.0000000 )
                  (  0.0000000 -1.0000000  0.0000000 )


      isym = 22     inv. 180 deg rotation - cart. axis [0,1,-1]  

 cryst.   s(22) = (     1          0          0      )
                  (     0          0          1      )
                  (     0          1          0      )

 cart.    s(22) = (  1.0000000  0.0000000  0.0000000 )
                  (  0.0000000  0.0000000  1.0000000 )
                  (  0.0000000  1.0000000  0.0000000 )


      isym = 23     inv.  90 deg rotation - cart. axis [-1,0,0]  

 cryst.   s(23) = (     0          1         -1      )
                  (     0          0         -1      )
                  (     1          0         -1      )

 cart.    s(23) = ( -1.0000000  0.0000000  0.0000000 )
                  (  0.0000000  0.0000000 -1.0000000 )
                  (  0.0000000  1.0000000  0.0000000 )


      isym = 24     inv.  90 deg rotation - cart. axis [1,0,0]   

 cryst.   s(24) = (     0         -1          1      )
                  (     1         -1          0      )
                  (     0         -1          0      )

 cart.    s(24) = ( -1.0000000  0.0000000  0.0000000 )
                  (  0.0000000  0.0000000  1.0000000 )
                  (  0.0000000 -1.0000000  0.0000000 )


   Cartesian axes

     site n.     atom                  positions (alat units)
         1        Hg     tau(   1) = (   0.0000000   0.0000000   0.0000000  )
         2        Te     tau(   2) = (   0.3535534   0.3535534   0.3535534  )

   Crystallographic axes

     site n.     atom                  positions (cryst. coord.)
         1        Hg     tau(   1) = (  0.0000000  0.0000000  0.0000000  )
         2        Te     tau(   2) = (  0.2500000  0.2500000  0.2500000  )

     number of k points=    29 (tetrahedron method)
                       cart. coord. in units 2pi/alat
        k(    1) = (   0.0000000   0.0000000   0.0000000), wk =   0.0039062
        k(    2) = (   0.0883883   0.0883883  -0.0883883), wk =   0.0312500
        k(    3) = (   0.1767767   0.1767767  -0.1767767), wk =   0.0312500
        k(    4) = (   0.2651650   0.2651650  -0.2651650), wk =   0.0312500
        k(    5) = (  -0.3535534  -0.3535534   0.3535534), wk =   0.0156250
        k(    6) = (   0.1767767   0.0000000   0.0000000), wk =   0.0234375
        k(    7) = (   0.2651650   0.0883883  -0.0883883), wk =   0.0937500
        k(    8) = (   0.3535534   0.1767767  -0.1767767), wk =   0.0937500
        k(    9) = (  -0.2651650  -0.4419417   0.4419417), wk =   0.0937500
        k(   10) = (  -0.1767767  -0.3535534   0.3535534), wk =   0.0937500
        k(   11) = (  -0.0883883  -0.2651650   0.2651650), wk =   0.0937500
        k(   12) = (   0.0000000  -0.1767767   0.1767767), wk =   0.0468750
        k(   13) = (   0.3535534   0.0000000   0.0000000), wk =   0.0234375
        k(   14) = (   0.4419417   0.0883883  -0.0883883), wk =   0.0937500
        k(   15) = (  -0.1767767  -0.5303301   0.5303301), wk =   0.0937500
        k(   16) = (  -0.0883883  -0.4419417   0.4419417), wk =   0.0937500
        k(   17) = (   0.0000000  -0.3535534   0.3535534), wk =   0.0468750
        k(   18) = (   0.5303301   0.0000000   0.0000000), wk =   0.0234375
        k(   19) = (  -0.0883883  -0.6187184   0.6187184), wk =   0.0937500
        k(   20) = (   0.0000000  -0.5303301   0.5303301), wk =   0.0468750
        k(   21) = (  -0.7071068   0.0000000   0.0000000), wk =   0.0117188
        k(   22) = (   0.3535534   0.1767767   0.0000000), wk =   0.0937500
        k(   23) = (  -0.2651650  -0.4419417   0.6187184), wk =   0.1875000
        k(   24) = (  -0.1767767  -0.3535534   0.5303301), wk =   0.0937500
        k(   25) = (  -0.1767767  -0.5303301   0.7071068), wk =   0.0937500
        k(   26) = (  -0.0883883  -0.4419417   0.6187184), wk =   0.1875000
        k(   27) = (   0.0000000  -0.3535534   0.5303301), wk =   0.0937500
        k(   28) = (  -0.7071068   0.1767767   0.0000000), wk =   0.0468750
        k(   29) = (  -0.7071068   0.3535534   0.0000000), wk =   0.0234375

                       cryst. coord.
        k(    1) = (   0.0000000   0.0000000   0.0000000), wk =   0.0039062
        k(    2) = (   0.0000000   0.0000000   0.1250000), wk =   0.0312500
        k(    3) = (   0.0000000   0.0000000   0.2500000), wk =   0.0312500
        k(    4) = (   0.0000000   0.0000000   0.3750000), wk =   0.0312500
        k(    5) = (   0.0000000   0.0000000  -0.5000000), wk =   0.0156250
        k(    6) = (   0.0000000   0.1250000   0.1250000), wk =   0.0234375
        k(    7) = (   0.0000000   0.1250000   0.2500000), wk =   0.0937500
        k(    8) = (   0.0000000   0.1250000   0.3750000), wk =   0.0937500
        k(    9) = (   0.0000000   0.1250000  -0.5000000), wk =   0.0937500
        k(   10) = (   0.0000000   0.1250000  -0.3750000), wk =   0.0937500
        k(   11) = (   0.0000000   0.1250000  -0.2500000), wk =   0.0937500
        k(   12) = (   0.0000000   0.1250000  -0.1250000), wk =   0.0468750
        k(   13) = (   0.0000000   0.2500000   0.2500000), wk =   0.0234375
        k(   14) = (   0.0000000   0.2500000   0.3750000), wk =   0.0937500
        k(   15) = (   0.0000000   0.2500000  -0.5000000), wk =   0.0937500
        k(   16) = (   0.0000000   0.2500000  -0.3750000), wk =   0.0937500
        k(   17) = (   0.0000000   0.2500000  -0.2500000), wk =   0.0468750
        k(   18) = (   0.0000000   0.3750000   0.3750000), wk =   0.0234375
        k(   19) = (   0.0000000   0.3750000  -0.5000000), wk =   0.0937500
        k(   20) = (   0.0000000   0.3750000  -0.3750000), wk =   0.0468750
        k(   21) = (   0.0000000  -0.5000000  -0.5000000), wk =   0.0117188
        k(   22) = (   0.1250000   0.2500000   0.3750000), wk =   0.0937500
        k(   23) = (   0.1250000   0.2500000  -0.5000000), wk =   0.1875000
        k(   24) = (   0.1250000   0.2500000  -0.3750000), wk =   0.0937500
        k(   25) = (   0.1250000   0.3750000  -0.5000000), wk =   0.0937500
        k(   26) = (   0.1250000   0.3750000  -0.3750000), wk =   0.1875000
        k(   27) = (   0.1250000   0.3750000  -0.2500000), wk =   0.0937500
        k(   28) = (   0.1250000  -0.5000000  -0.3750000), wk =   0.0468750
        k(   29) = (   0.2500000  -0.5000000  -0.2500000), wk =   0.0234375

     Dense  grid:   130005 G-vectors     FFT dimensions: (  72,  72,  72)

     Smooth grid:    70721 G-vectors     FFT dimensions: (  60,  60,  60)

     Dynamical RAM for                 wfc:       0.38 MB

     Dynamical RAM for     wfc (w. buffer):       0.38 MB

     Dynamical RAM for           str. fact:       0.66 MB

     Dynamical RAM for           local pot:       0.00 MB

     Dynamical RAM for          nlocal pot:       0.81 MB

     Dynamical RAM for                qrad:       4.12 MB

     Dynamical RAM for          rho,v,vnew:       2.42 MB

     Dynamical RAM for           G-vectors:       1.33 MB

     Dynamical RAM for          h,s,v(r/c):       0.05 MB

     Dynamical RAM for          <psi|beta>:       0.01 MB

     Dynamical RAM for                 psi:       0.76 MB

     Dynamical RAM for                hpsi:       0.76 MB

     Dynamical RAM for                spsi:       0.76 MB

     Dynamical RAM for      wfcinit/wfcrot:       0.77 MB

     Dynamical RAM for           addusdens:      61.83 MB

     Estimated static dynamical RAM per process >      13.08 MB

     Estimated max dynamical RAM per process >      74.91 MB

     Estimated total dynamical RAM >     449.47 MB

     The potential is recalculated from file :
     /home/User/opencode_workspace/DFT/calculations/hgte/conv_nscf_e110/out/pwscf.save/charge-density

     Starting wfcs are   14 randomized atomic wfcs +    3 random wfcs

     Band Structure Calculation
     Davidson diagonalization with overlap

     Computing kpt #:     1  of    29
     total cpu time spent up to now is        1.6 secs

     Computing kpt #:     2  of    29
     total cpu time spent up to now is        2.1 secs

     Computing kpt #:     3  of    29
     total cpu time spent up to now is        2.5 secs

     Computing kpt #:     4  of    29
     total cpu time spent up to now is        2.9 secs

     Computing kpt #:     5  of    29
     total cpu time spent up to now is        3.3 secs

     Computing kpt #:     6  of    29
     total cpu time spent up to now is        3.7 secs

     Computing kpt #:     7  of    29
     total cpu time spent up to now is        4.2 secs

     Computing kpt #:     8  of    29
     total cpu time spent up to now is        4.7 secs

     Computing kpt #:     9  of    29
     total cpu time spent up to now is        5.1 secs

     Computing kpt #:    10  of    29
     total cpu time spent up to now is        5.6 secs

     Computing kpt #:    11  of    29
     total cpu time spent up to now is        6.1 secs

     Computing kpt #:    12  of    29
     total cpu time spent up to now is        6.6 secs

     Computing kpt #:    13  of    29
     total cpu time spent up to now is        7.1 secs

     Computing kpt #:    14  of    29
     total cpu time spent up to now is        7.6 secs

     Computing kpt #:    15  of    29
     total cpu time spent up to now is        8.0 secs

     Computing kpt #:    16  of    29
     total cpu time spent up to now is        8.4 secs

     Computing kpt #:    17  of    29
     total cpu time spent up to now is        8.9 secs

     Computing kpt #:    18  of    29
     total cpu time spent up to now is        9.3 secs

     Computing kpt #:    19  of    29
     total cpu time spent up to now is        9.7 secs

     Computing kpt #:    20  of    29
     total cpu time spent up to now is       10.2 secs

     Computing kpt #:    21  of    29
     total cpu time spent up to now is       10.6 secs

     Computing kpt #:    22  of    29
     total cpu time spent up to now is       11.1 secs

     Computing kpt #:    23  of    29
     total cpu time spent up to now is       11.5 secs

     Computing kpt #:    24  of    29
     total cpu time spent up to now is       12.0 secs

     Computing kpt #:    25  of    29
     total cpu time spent up to now is       12.6 secs

     Computing kpt #:    26  of    29
     total cpu time spent up to now is       13.0 secs

     Computing kpt #:    27  of    29
     total cpu time spent up to now is       13.5 secs

     Computing kpt #:    28  of    29
     total cpu time spent up to now is       13.8 secs

     Computing kpt #:    29  of    29
     total cpu time spent up to now is       14.2 secs

     ethr =  3.85E-13,  avg # of iterations = 39.9

     total cpu time spent up to now is       14.2 secs

     End of band structure calculation

          k = 0.0000 0.0000 0.0000 (  8801 PWs)   bands (ev):

  -107.6614 -55.9932 -55.9932 -55.9932  -4.5631   0.0894   0.0894   0.0894
     0.6258   0.6258   6.7451   7.4608   7.4608   7.4608  11.6932  11.6932
    11.6932

     occupation numbers 
     1.0000   1.0000   1.0000   1.0000   1.0000   1.0000   1.0000   1.0000
     1.0000   1.0000   1.0000   1.0000   1.0000   0.0000   0.0000   0.0000
     0.0000

          k = 0.0884 0.0884-0.0884 (  8855 PWs)   bands (ev):

  -107.6614 -55.9932 -55.9932 -55.9932  -4.4849   0.1112   0.1112   0.1182
     0.6238   0.6238   5.6129   7.2842   7.2842   8.1277  11.6167  11.9287
    11.9287

     occupation numbers 
     1.0000   1.0000   1.0000   1.0000   1.0000   1.0000   1.0000   1.0000
     1.0000   1.0000   1.0000   1.0000   1.0000   0.0000   0.0000   0.0000
     0.0000

          k = 0.1768 0.1768-0.1768 (  8841 PWs)   bands (ev):

  -107.6614 -55.9933 -55.9932 -55.9932  -4.2870   0.1599   0.1599   0.2479
     0.6254   0.6254   4.0795   6.9122   6.9122   8.3324  12.3369  12.3369
    12.3689

     occupation numbers 
     1.0000   1.0000   1.0000   1.0000   1.0000   1.0000   1.0000   1.0000
     1.0000   1.0000   1.0000   1.0000   1.0000   0.0000   0.0000   0.0000
     0.0000

          k = 0.2652 0.2652-0.2652 (  8826 PWs)   bands (ev):

  -107.6614 -55.9934 -55.9932 -55.9932  -4.0750   0.2005   0.2005   0.5722
     0.6391   0.6391   2.6981   6.5893   6.5893   8.2227  12.5008  12.5008
    13.7604

     occupation numbers 
     1.0000   1.0000   1.0000   1.0000   1.0000   1.0000   1.0000   1.0000
     1.0000   1.0000   1.0000   1.0000   1.0000   0.0000   0.0000   0.0000
     0.0000

          k =-0.3536-0.3536 0.3536 (  8802 PWs)   bands (ev):

  -107.6614 -55.9934 -55.9932 -55.9932  -3.9828   0.2142   0.2142   0.6492
     0.6492   0.9371   1.9401   6.4650   6.4650   8.1619  12.5076  12.5076
    14.3236

     occupation numbers 
     1.0000   1.0000   1.0000   1.0000   1.0000   1.0000   1.0000   1.0000
     1.0000   1.0000   1.0000   1.0000   1.0000   0.0000   0.0000   0.0000
     0.0000

          k = 0.1768 0.0000 0.0000 (  8845 PWs)   bands (ev):

  -107.6614 -55.9932 -55.9932 -55.9932  -4.4587   0.1001   0.1322   0.1322
     0.6103   0.6356   5.5281   6.9975   6.9975   8.6178  11.0022  12.3096
    12.3096

     occupation numbers 
     1.0000   1.0000   1.0000   1.0000   1.0000   1.0000   1.0000   1.0000
     1.0000   1.0000   1.0000   1.0000   1.0000  -0.0000   0.0000   0.0000
     0.0000

          k = 0.2652 0.0884-0.0884 (  8856 PWs)   bands (ev):

  -107.6614 -55.9933 -55.9932 -55.9932  -4.2998   0.1409   0.1841   0.2115
     0.6042   0.6441   4.4151   6.5796   6.5873   9.0476  11.0597  12.7613
    12.8540

     occupation numbers 
     1.0000   1.0000   1.0000   1.0000   1.0000   1.0000   1.0000   1.0000
     1.0000   1.0000   1.0000   1.0000   1.0000  -0.0000   0.0000   0.0000
     0.0000

          k = 0.3536 0.1768-0.1768 (  8831 PWs)   bands (ev):

  -107.6614 -55.9934 -55.9932 -55.9932  -4.0899   0.1949   0.2302   0.4297
     0.6408   0.6535   3.0992   6.0993   6.2929   9.0508  11.7628  13.0589
    13.1319

     occupation numbers 
     1.0000   1.0000   1.0000   1.0000   1.0000   1.0000   1.0000   1.0000
     1.0000   1.0000   1.0000   1.0000   1.0000   0.0000   0.0000   0.0000
     0.0000

          k =-0.2652-0.4419 0.4419 (  8824 PWs)   bands (ev):

  -107.6614 -55.9934 -55.9932 -55.9932  -3.9549   0.2231   0.2463   0.6054
     0.6522   0.9072   2.1064   5.7475   6.2416   8.9628  12.0549  12.9347
    14.1582

     occupation numbers 
     1.0000   1.0000   1.0000   1.0000   1.0000   1.0000   1.0000   1.0000
     1.0000   1.0000   1.0000   1.0000   1.0000   0.0000   0.0000   0.0000
     0.0000

          k =-0.1768-0.3536 0.3536 (  8818 PWs)   bands (ev):

  -107.6614 -55.9934 -55.9932 -55.9932  -3.9858   0.2265   0.2311   0.6142
     0.6299   0.7813   2.3670   5.6523   6.4550   8.9554  12.2187  12.7421
    13.9309

     occupation numbers 
     1.0000   1.0000   1.0000   1.0000   1.0000   1.0000   1.0000   1.0000
     1.0000   1.0000   1.0000   1.0000   1.0000   0.0000   0.0000   0.0000
     0.0000

          k =-0.0884-0.2652 0.2652 (  8843 PWs)   bands (ev):

  -107.6614 -55.9933 -55.9932 -55.9932  -4.1611   0.1879   0.2035   0.3520
     0.6091   0.6549   3.5201   5.8852   6.8447   8.9797  12.1867  12.4603
    12.7965

     occupation numbers 
     1.0000   1.0000   1.0000   1.0000   1.0000   1.0000   1.0000   1.0000
     1.0000   1.0000   1.0000   1.0000   1.0000   0.0000   0.0000   0.0000
     0.0000

          k = 0.0000-0.1768 0.1768 (  8863 PWs)   bands (ev):

  -107.6614 -55.9933 -55.9932 -55.9932  -4.3663   0.1359   0.1518   0.1759
     0.6102   0.6361   4.7653   6.5029   7.2102   8.7125  11.5430  12.0541
    12.5794

     occupation numbers 
     1.0000   1.0000   1.0000   1.0000   1.0000   1.0000   1.0000   1.0000
     1.0000   1.0000   1.0000   1.0000   1.0000  -0.0000   0.0000   0.0000
     0.0000

          k = 0.3536 0.0000 0.0000 (  8868 PWs)   bands (ev):

  -107.6614 -55.9933 -55.9932 -55.9932  -4.1925   0.1592   0.2454   0.2454
     0.5985   0.6593   4.0726   6.1334   6.1334   9.4310  10.4306  13.6699
    13.6699

     occupation numbers 
     1.0000   1.0000   1.0000   1.0000   1.0000   1.0000   1.0000   1.0000
     1.0000   1.0000   1.0000   1.0000   1.0000   0.0000   0.0000   0.0000
     0.0000

          k = 0.4419 0.0884-0.0884 (  8839 PWs)   bands (ev):

  -107.6614 -55.9934 -55.9933 -55.9932  -4.0208   0.2187   0.3036   0.3529
     0.6641   0.6692   3.1997   5.5913   5.8112   9.5813  10.6754  13.4709
    14.1594

     occupation numbers 
     1.0000   1.0000   1.0000   1.0000   1.0000   1.0000   1.0000   1.0000
     1.0000   1.0000   1.0000   1.0000   1.0000   0.0000   0.0000   0.0000
     0.0000

          k =-0.1768-0.5303 0.5303 (  8834 PWs)   bands (ev):

  -107.6614 -55.9934 -55.9933 -55.9933  -3.8848   0.2534   0.3257   0.4988
     0.6625   0.9167   2.3293   5.0066   5.7618   9.6461  11.4998  13.5185
    14.0251

     occupation numbers 
     1.0000   1.0000   1.0000   1.0000   1.0000   1.0000   1.0000   1.0000
     1.0000   1.0000   1.0000   1.0000   1.0000   0.0000   0.0000   0.0000
     0.0000

          k =-0.0884-0.4419 0.4419 (  8825 PWs)   bands (ev):

  -107.6614 -55.9934 -55.9933 -55.9932  -3.8715   0.2592   0.3054   0.5860
     0.6333   0.9936   2.1613   4.7091   6.0076   9.6790  12.0119  13.6186
    14.0497

     occupation numbers 
     1.0000   1.0000   1.0000   1.0000   1.0000   1.0000   1.0000   1.0000
     1.0000   1.0000   1.0000   1.0000   1.0000   0.0000   0.0000   0.0000
     0.0000

          k = 0.0000-0.3536 0.3536 (  8822 PWs)   bands (ev):

  -107.6614 -55.9934 -55.9933 -55.9932  -3.9888   0.2456   0.2499   0.5351
     0.6088   0.7199   2.8419   4.9520   6.4451   9.5864  12.2397  12.9946
    13.0491

     occupation numbers 
     1.0000   1.0000   1.0000   1.0000   1.0000   1.0000   1.0000   1.0000
     1.0000   1.0000   1.0000   1.0000   1.0000   0.0000   0.0000   0.0000
     0.0000

          k = 0.5303 0.0000 0.0000 (  8840 PWs)   bands (ev):

  -107.6614 -55.9934 -55.9933 -55.9933  -3.9047   0.2462   0.3761   0.3761
     0.6832   0.7579   2.7563   5.4343   5.4343   9.3810  10.1640  14.8810
    15.2827

     occupation numbers 
     1.0000   1.0000   1.0000   1.0000   1.0000   1.0000   1.0000   1.0000
     1.0000   1.0000   1.0000   1.0000   1.0000   0.0000   0.0000   0.0000
     0.0000

          k =-0.0884-0.6187 0.6187 (  8831 PWs)   bands (ev):

  -107.6614 -55.9934 -55.9933 -55.9933  -3.8108   0.2746   0.4054   0.4351
     0.6811   1.0048   2.1920   4.9793   5.3358   9.5515  10.4265  14.6629
    15.4262

     occupation numbers 
     1.0000   1.0000   1.0000   1.0000   1.0000   1.0000   1.0000   1.0000
     1.0000   1.0000   1.0000   1.0000   1.0000   0.0000   0.0000   0.0000
     0.0000

          k = 0.0000-0.5303 0.5303 (  8834 PWs)   bands (ev):

  -107.6614 -55.9934 -55.9933 -55.9933  -3.7978   0.2813   0.3780   0.5130
     0.6555   1.1748   1.9675   4.5237   5.5589   9.7055  11.4755  14.5121
    14.6726

     occupation numbers 
     1.0000   1.0000   1.0000   1.0000   1.0000   1.0000   1.0000   1.0000
     1.0000   1.0000   1.0000   1.0000   1.0000   0.0000   0.0000   0.0000
     0.0000

          k =-0.7071 0.0000 0.0000 (  8904 PWs)   bands (ev):

  -107.6614 -55.9935 -55.9933 -55.9933  -3.7788   0.2654   0.4369   0.4369
     0.6932   1.0879   1.9993   5.1694   5.1694   9.3567   9.9404  15.6634
    16.3947

     occupation numbers 
     1.0000   1.0000   1.0000   1.0000   1.0000   1.0000   1.0000   1.0000
     1.0000   1.0000   1.0000   1.0000   1.0000   0.0000   0.0000   0.0000
     0.0000

          k = 0.3536 0.1768 0.0000 (  8861 PWs)   bands (ev):

  -107.6614 -55.9933 -55.9932 -55.9932  -4.1334   0.1908   0.2389   0.3210
     0.6128   0.6612   3.6197   5.6683   6.4309   9.5232  11.1414  12.7449
    13.5165

     occupation numbers 
     1.0000   1.0000   1.0000   1.0000   1.0000   1.0000   1.0000   1.0000
     1.0000   1.0000   1.0000   1.0000   1.0000   0.0000   0.0000   0.0000
     0.0000

          k =-0.2652-0.4419 0.6187 (  8829 PWs)   bands (ev):

  -107.6614 -55.9934 -55.9933 -55.9932  -3.9585   0.2434   0.2737   0.5102
     0.6463   0.7659   2.6550   5.1446   6.0802   9.7070  11.7791  12.6496
    14.0681

     occupation numbers 
     1.0000   1.0000   1.0000   1.0000   1.0000   1.0000   1.0000   1.0000
     1.0000   1.0000   1.0000   1.0000   1.0000   0.0000   0.0000   0.0000
     0.0000

          k =-0.1768-0.3536 0.5303 (  8838 PWs)   bands (ev):

  -107.6614 -55.9934 -55.9933 -55.9932  -3.8835   0.2565   0.2894   0.5897
     0.6341   1.0174   2.0752   5.0028   5.9083   9.7168  11.8869  13.0744
    14.5528

     occupation numbers 
     1.0000   1.0000   1.0000   1.0000   1.0000   1.0000   1.0000   1.0000
     1.0000   1.0000   1.0000   1.0000   1.0000   0.0000   0.0000   0.0000
     0.0000

          k =-0.1768-0.5303 0.7071 (  8809 PWs)   bands (ev):

  -107.6614 -55.9934 -55.9933 -55.9932  -3.8861   0.2712   0.3370   0.4400
     0.6682   0.8384   2.5721   5.0815   5.4962   9.8809  10.8125  13.3119
    15.2818

     occupation numbers 
     1.0000   1.0000   1.0000   1.0000   1.0000   1.0000   1.0000   1.0000
     1.0000   1.0000   1.0000   1.0000   1.0000   0.0000   0.0000   0.0000
     0.0000

          k =-0.0884-0.4419 0.6187 (  8823 PWs)   bands (ev):

  -107.6614 -55.9934 -55.9933 -55.9933  -3.8109   0.2933   0.3516   0.5297
     0.6388   1.1210   2.0547   4.6728   5.3651  10.1330  11.6197  13.1767
    14.5818

     occupation numbers 
     1.0000   1.0000   1.0000   1.0000   1.0000   1.0000   1.0000   1.0000
     1.0000   1.0000   1.0000   1.0000   1.0000   0.0000   0.0000   0.0000
     0.0000

          k = 0.0000-0.3536 0.5303 (  8840 PWs)   bands (ev):

  -107.6614 -55.9934 -55.9933 -55.9933  -3.8418   0.2884   0.3187   0.5709
     0.6197   1.0217   2.1986   4.5887   5.6455  10.1537  12.1436  12.6053
    14.8200

     occupation numbers 
     1.0000   1.0000   1.0000   1.0000   1.0000   1.0000   1.0000   1.0000
     1.0000   1.0000   1.0000   1.0000   1.0000   0.0000   0.0000   0.0000
     0.0000

          k =-0.7071 0.1768 0.0000 (  8814 PWs)   bands (ev):

  -107.6614 -55.9934 -55.9933 -55.9933  -3.7795   0.2942   0.3970   0.4736
     0.6676   1.1747   1.9538   4.9630   5.0220   9.8971  10.6468  14.5971
    14.7067

     occupation numbers 
     1.0000   1.0000   1.0000   1.0000   1.0000   1.0000   1.0000   1.0000
     1.0000   1.0000   1.0000   1.0000   1.0000   0.0000   0.0000   0.0000
     0.0000

          k =-0.7071 0.3536 0.0000 (  8792 PWs)   bands (ev):

  -107.6614 -55.9934 -55.9933 -55.9933  -3.7802   0.3156   0.3637   0.5742
     0.5879   1.2579   1.9050   4.7730   4.8932  10.5839  12.0845  12.7687
    13.6416

     occupation numbers 
     1.0000   1.0000   1.0000   1.0000   1.0000   1.0000   1.0000   1.0000
     1.0000   1.0000   1.0000   1.0000   1.0000   0.0000   0.0000   0.0000
     0.0000

     the Fermi energy is     7.4618 ev
     (compare with:     7.4608 eV, computed in scf)

     Writing all to output data dir /home/User/opencode_workspace/DFT/calculations/hgte/conv_nscf_e110/out/pwscf.save/ :
     XML data file, pseudopotentials, collected wavefunctions

     init_run     :      0.85s CPU      0.97s WALL (       1 calls)
     electrons    :     11.70s CPU     12.99s WALL (       1 calls)

     Called by init_run:
     wfcinit      :      0.00s CPU      0.00s WALL (       1 calls)
     wfcinit:atom :      0.01s CPU      0.01s WALL (      29 calls)
     wfcinit:wfcr :      0.39s CPU      0.44s WALL (      29 calls)
     potinit      :      0.23s CPU      0.25s WALL (       1 calls)
     hinit0       :      0.48s CPU      0.49s WALL (       1 calls)

     Called by electrons:
     c_bands      :     11.69s CPU     12.97s WALL (       1 calls)
     v_of_rho     :      0.03s CPU      0.03s WALL (       1 calls)
     v_h          :      0.00s CPU      0.00s WALL (       1 calls)
     v_xc         :      0.03s CPU      0.03s WALL (       1 calls)
     newd         :      0.11s CPU      0.19s WALL (       1 calls)

     Called by c_bands:
     init_us_2    :      0.01s CPU      0.01s WALL (      29 calls)
     cegterg      :     11.23s CPU     12.45s WALL (      70 calls)

     Called by sum_band:

     Called by *egterg:
     cdiaghg      :      0.39s CPU      0.40s WALL (    1185 calls)
     cegterg:over :      0.62s CPU      0.65s WALL (    1156 calls)
     cegterg:upda :      0.18s CPU      0.19s WALL (    1156 calls)
     cegterg:last :      0.46s CPU      0.47s WALL (     755 calls)
     h_psi        :      9.37s CPU     10.56s WALL (    1255 calls)
     s_psi        :      0.16s CPU      0.17s WALL (    1255 calls)
     g_psi        :      0.09s CPU      0.09s WALL (    1156 calls)

     Called by h_psi:
     h_psi:calbec :      0.44s CPU      0.48s WALL (    1255 calls)
     vloc_psi     :      8.71s CPU      9.84s WALL (    1255 calls)
                                        0.00s GPU  (    1255 calls)
     add_vuspsi   :      0.18s CPU      0.19s WALL (    1255 calls)

     General routines
     calbec       :      0.44s CPU      0.48s WALL (    1255 calls)
     fft          :      0.30s CPU      0.30s WALL (      13 calls)
     ffts         :      0.20s CPU      0.20s WALL (       1 calls)
     fftw         :      8.13s CPU      9.20s WALL (   25466 calls)
     interpolate  :      0.20s CPU      0.21s WALL (       1 calls)
     davcio       :      0.01s CPU      0.01s WALL (      58 calls)

     Parallel routines

     PWSCF        :     12.90s CPU     14.41s WALL


   This run was terminated on:  19:43:57  22Sep2026            

=------------------------------------------------------------------------------=
   JOB DONE.
=------------------------------------------------------------------------------=
